 Entering Gaussian System, Link 0=g09
 Input=H2O_b3lyp_6-31g_d.gjf
 Output=H2O_b3lyp_6-31g_d.log
 Initial command:
 /home/p20190052/g09/l1.exe "/home/p20190052/g09/scratch/Gau-179436.inp" -scrdir="/home/p20190052/g09/scratch/"
 Entering Link 1 = /home/p20190052/g09/l1.exe PID=    179437.
  
 Copyright (c) 1988,1990,1992,1993,1995,1998,2003,2009,2015,
            Gaussian, Inc.  All Rights Reserved.
  
 This is part of the Gaussian(R) 09 program.  It is based on
 the Gaussian(R) 03 system (copyright 2003, Gaussian, Inc.),
 the Gaussian(R) 98 system (copyright 1998, Gaussian, Inc.),
 the Gaussian(R) 94 system (copyright 1995, Gaussian, Inc.),
 the Gaussian 92(TM) system (copyright 1992, Gaussian, Inc.),
 the Gaussian 90(TM) system (copyright 1990, Gaussian, Inc.),
 the Gaussian 88(TM) system (copyright 1988, Gaussian, Inc.),
 the Gaussian 86(TM) system (copyright 1986, Carnegie Mellon
 University), and the Gaussian 82(TM) system (copyright 1983,
 Carnegie Mellon University). Gaussian is a federally registered
 trademark of Gaussian, Inc.
  
 This software contains proprietary and confidential information,
 including trade secrets, belonging to Gaussian, Inc.
  
 This software is provided under written license and may be
 used, copied, transmitted, or stored only in accord with that
 written license.
  
 The following legend is applicable only to US Government
 contracts under FAR:
  
                    RESTRICTED RIGHTS LEGEND
  
 Use, reproduction and disclosure by the US Government is
 subject to restrictions as set forth in subparagraphs (a)
 and (c) of the Commercial Computer Software - Restricted
 Rights clause in FAR 52.227-19.
  
 Gaussian, Inc.
 340 Quinnipiac St., Bldg. 40, Wallingford CT 06492
  
  
 ---------------------------------------------------------------
 Warning -- This program may not be used in any manner that
 competes with the business of Gaussian, Inc. or will provide
 assistance to any competitor of Gaussian, Inc.  The licensee
 of this program is prohibited from giving any competitor of
 Gaussian, Inc. access to this program.  By using this program,
 the user acknowledges that Gaussian, Inc. is engaged in the
 business of creating and licensing software in the field of
 computational chemistry and represents and warrants to the
 licensee that it is not a competitor of Gaussian, Inc. and that
 it will not use this program in any manner prohibited above.
 ---------------------------------------------------------------
  

 Cite this work as:
 Gaussian 09, Revision E.01,
 M. J. Frisch, G. W. Trucks, H. B. Schlegel, G. E. Scuseria, 
 M. A. Robb, J. R. Cheeseman, G. Scalmani, V. Barone, B. Mennucci, 
 G. A. Petersson, H. Nakatsuji, M. Caricato, X. Li, H. P. Hratchian, 
 A. F. Izmaylov, J. Bloino, G. Zheng, J. L. Sonnenberg, M. Hada, 
 M. Ehara, K. Toyota, R. Fukuda, J. Hasegawa, M. Ishida, T. Nakajima, 
 Y. Honda, O. Kitao, H. Nakai, T. Vreven, J. A. Montgomery, Jr., 
 J. E. Peralta, F. Ogliaro, M. Bearpark, J. J. Heyd, E. Brothers, 
 K. N. Kudin, V. N. Staroverov, T. Keith, R. Kobayashi, J. Normand, 
 K. Raghavachari, A. Rendell, J. C. Burant, S. S. Iyengar, J. Tomasi, 
 M. Cossi, N. Rega, J. M. Millam, M. Klene, J. E. Knox, J. B. Cross, 
 V. Bakken, C. Adamo, J. Jaramillo, R. Gomperts, R. E. Stratmann, 
 O. Yazyev, A. J. Austin, R. Cammi, C. Pomelli, J. W. Ochterski, 
 R. L. Martin, K. Morokuma, V. G. Zakrzewski, G. A. Voth, 
 P. Salvador, J. J. Dannenberg, S. Dapprich, A. D. Daniels, 
 O. Farkas, J. B. Foresman, J. V. Ortiz, J. Cioslowski, 
 and D. J. Fox, Gaussian, Inc., Wallingford CT, 2013.
 
 ******************************************
 Gaussian 09:  ES64L-G09RevE.01 30-Nov-2015
                 1-Jul-2026 
 ******************************************
 %mem=30GB
 %nprocs=40
 Will use up to   40 processors via shared memory.
 %chk=H2O_b3lyp_6-31g_d.chk
 ---------------------------------------
 #p opt b3lyp/6-31g(d) geom=connectivity
 ---------------------------------------
 1/14=-1,18=20,19=15,26=3,38=1,57=2/1,3;
 2/9=110,12=2,17=6,18=5,40=1/2;
 3/5=1,6=6,7=1,11=2,16=1,25=1,30=1,71=1,74=-5/1,2,3;
 4//1;
 5/5=2,38=5/2;
 6/7=2,8=2,9=2,10=2,28=1/1;
 7//1,2,3,16;
 1/14=-1,18=20,19=15,26=3/3(2);
 2/9=110/2;
 99//99;
 2/9=110/2;
 3/5=1,6=6,7=1,11=2,16=1,25=1,30=1,71=1,74=-5/1,2,3;
 4/5=5,16=3,69=1/1;
 5/5=2,38=5/2;
 7//1,2,3,16;
 1/14=-1,18=20,19=15,26=3/3(-5);
 2/9=110/2;
 6/7=2,8=2,9=2,10=2,19=2,28=1/1;
 99/9=1/99;
 Leave Link    1 at Wed Jul  1 22:03:28 2026, MaxMem=  4026531840 cpu:         2.6
 (Enter /home/p20190052/g09/l101.exe)
 ------------------
 H2O b3lyp 6-31G(d)
 ------------------
 Symbolic Z-matrix:
 Charge =  0 Multiplicity = 1
 O                    -0.53574   0.       -0.68263 
 H                    -0.53574   0.75934  -0.08659 
 H                    -0.53574  -0.75934  -0.08659 
 
 NAtoms=      3 NQM=        3 NQMF=       0 NMMI=      0 NMMIF=      0
                NMic=       0 NMicF=      0.
                    Isotopes and Nuclear Properties:
 (Nuclear quadrupole moments (NQMom) in fm**2, nuclear magnetic moments (NMagM)
  in nuclear magnetons)

  Atom         1           2           3
 IAtWgt=          16           1           1
 AtmWgt=  15.9949146   1.0078250   1.0078250
 NucSpn=           0           1           1
 AtZEff=   0.0000000   0.0000000   0.0000000
 NQMom=    0.0000000   0.0000000   0.0000000
 NMagM=    0.0000000   2.7928460   2.7928460
 AtZNuc=   8.0000000   1.0000000   1.0000000
 Leave Link  101 at Wed Jul  1 22:03:28 2026, MaxMem=  4026531840 cpu:        12.3
 (Enter /home/p20190052/g09/l103.exe)

 GradGradGradGradGradGradGradGradGradGradGradGradGradGradGradGradGradGrad
 Berny optimization.
 Initialization pass.
                           ----------------------------
                           !    Initial Parameters    !
                           ! (Angstroms and Degrees)  !
 --------------------------                            --------------------------
 ! Name  Definition              Value          Derivative Info.                !
 --------------------------------------------------------------------------------
 ! R1    R(1,2)                  0.9653         estimate D2E/DX2                !
 ! R2    R(1,3)                  0.9653         estimate D2E/DX2                !
 ! A1    A(2,1,3)              103.7396         estimate D2E/DX2                !
 --------------------------------------------------------------------------------
 Trust Radius=3.00D-01 FncErr=1.00D-07 GrdErr=1.00D-06
 Number of steps in this run=     20 maximum allowed number of steps=    100.
 GradGradGradGradGradGradGradGradGradGradGradGradGradGradGradGradGradGrad

 Leave Link  103 at Wed Jul  1 22:03:28 2026, MaxMem=  4026531840 cpu:         0.2
 (Enter /home/p20190052/g09/l202.exe)
                          Input orientation:                          
 ---------------------------------------------------------------------
 Center     Atomic      Atomic             Coordinates (Angstroms)
 Number     Number       Type             X           Y           Z
 ---------------------------------------------------------------------
      1          8           0       -0.535744    0.000000   -0.682628
      2          1           0       -0.535744    0.759337   -0.086585
      3          1           0       -0.535744   -0.759337   -0.086585
 ---------------------------------------------------------------------
                    Distance matrix (angstroms):
                    1          2          3
     1  O    0.000000
     2  H    0.965329   0.000000
     3  H    0.965329   1.518674   0.000000
 Stoichiometry    H2O
 Framework group  C2V[C2(O),SGV(H2)]
 Deg. of freedom     2
 Full point group                 C2V     NOp   4
 Largest Abelian subgroup         C2V     NOp   4
 Largest concise Abelian subgroup C2      NOp   2
                         Standard orientation:                         
 ---------------------------------------------------------------------
 Center     Atomic      Atomic             Coordinates (Angstroms)
 Number     Number       Type             X           Y           Z
 ---------------------------------------------------------------------
      1          8           0       -0.000000    0.000000    0.119209
      2          1           0        0.000000    0.759337   -0.476834
      3          1           0       -0.000000   -0.759337   -0.476834
 ---------------------------------------------------------------------
 Rotational constants (GHZ):    794.6799884    434.8434502    281.0531114
 Leave Link  202 at Wed Jul  1 22:03:28 2026, MaxMem=  4026531840 cpu:         0.3
 (Enter /home/p20190052/g09/l301.exe)
 Standard basis: 6-31G(d) (6D, 7F)
 Ernie: Thresh=  0.10000D-02 Tol=  0.10000D-05 Strict=F.
 There are    10 symmetry adapted cartesian basis functions of A1  symmetry.
 There are     1 symmetry adapted cartesian basis functions of A2  symmetry.
 There are     3 symmetry adapted cartesian basis functions of B1  symmetry.
 There are     5 symmetry adapted cartesian basis functions of B2  symmetry.
 There are    10 symmetry adapted basis functions of A1  symmetry.
 There are     1 symmetry adapted basis functions of A2  symmetry.
 There are     3 symmetry adapted basis functions of B1  symmetry.
 There are     5 symmetry adapted basis functions of B2  symmetry.
    19 basis functions,    36 primitive gaussians,    19 cartesian basis functions
     5 alpha electrons        5 beta electrons
       nuclear repulsion energy         9.1193798695 Hartrees.
 IExCor=  402 DFT=T Ex+Corr=B3LYP ExCW=0 ScaHFX=  0.200000
 ScaDFX=  0.800000  0.720000  1.000000  0.810000 ScalE2=  1.000000  1.000000
 IRadAn=      0 IRanWt=     -1 IRanGd=            0 ICorTp=0 IEmpDi=  4
 NAtoms=    3 NActive=    3 NUniq=    2 SFac= 2.25D+00 NAtFMM=   60 NAOKFM=F Big=F
 Integral buffers will be    131072 words long.
 Raffenetti 2 integral format.
 Two-electron integral symmetry is turned on.
 Leave Link  301 at Wed Jul  1 22:03:29 2026, MaxMem=  4026531840 cpu:         2.3
 (Enter /home/p20190052/g09/l302.exe)
 NPDir=0 NMtPBC=     1 NCelOv=     1 NCel=       1 NClECP=     1 NCelD=      1
         NCelK=      1 NCelE2=     1 NClLst=     1 CellRange=     0.0.
 One-electron integrals computed using PRISM.
 One-electron integral symmetry used in STVInt
 NBasis=    19 RedAO= T EigKep=  4.21D-02  NBF=    10     1     3     5
 NBsUse=    19 1.00D-06 EigRej= -1.00D+00 NBFU=    10     1     3     5
 Precomputing XC quadrature grid using
 IXCGrd= 4 IRadAn=           0 IRanWt=          -1 IRanGd=           0 AccXCQ= 0.00D+00.
 Generated NRdTot=       0 NPtTot=           0 NUsed=           0 NTot=          32
 NSgBfM=    19    19    19    19    19 MxSgAt=     3 MxSgA2=     3.
 Leave Link  302 at Wed Jul  1 22:03:29 2026, MaxMem=  4026531840 cpu:        13.6
 (Enter /home/p20190052/g09/l303.exe)
 DipDrv:  MaxL=1.
 Leave Link  303 at Wed Jul  1 22:03:29 2026, MaxMem=  4026531840 cpu:         0.7
 (Enter /home/p20190052/g09/l401.exe)
 ExpMin= 1.61D-01 ExpMax= 5.48D+03 ExpMxC= 8.25D+02 IAcc=1 IRadAn=         1 AccDes= 0.00D+00
 Harris functional with IExCor=  402 and IRadAn=       1 diagonalized for initial guess.
 HarFok:  IExCor=  402 AccDes= 0.00D+00 IRadAn=         1 IDoV= 1 UseB2=F ITyADJ=14
 ICtDFT=  3500011 ScaDFX=  1.000000  1.000000  1.000000  1.000000
 FoFCou: FMM=F IPFlag=           0 FMFlag=      100000 FMFlg1=           0
         NFxFlg=           0 DoJE=T BraDBF=F KetDBF=T FulRan=T
         wScrn=  0.000000 ICntrl=     500 IOpCl=  0 I1Cent=   200000004 NGrid=           0
         NMat0=    1 NMatS0=      1 NMatT0=    0 NMatD0=    1 NMtDS0=    0 NMtDT0=    0
 Petite list used in FoFCou.
 Harris En= -76.4476404303427    
 JPrj=0 DoOrth=F DoCkMO=F.
 Initial guess orbital symmetries:
       Occupied  (A1) (A1) (B2) (A1) (B1)
       Virtual   (A1) (B2) (B2) (A1) (B1) (A1) (B2) (A1) (A1) (A2)
                 (B1) (A1) (B2) (A1)
 The electronic state of the initial guess is 1-A1.
 Leave Link  401 at Wed Jul  1 22:03:29 2026, MaxMem=  4026531840 cpu:        16.6
 (Enter /home/p20190052/g09/l502.exe)
 Closed shell SCF:
 Using DIIS extrapolation, IDIIS=  1040.
 Integral symmetry usage will be decided dynamically.
 Keep R1 ints in memory in symmetry-blocked form, NReq=899271.
 IVT=       20927 IEndB=       20927 NGot=  4026531840 MDV=  4026504544
 LenX=  4026504544 LenY=  4026503662
 Requested convergence on RMS density matrix=1.00D-08 within 128 cycles.
 Requested convergence on MAX density matrix=1.00D-06.
 Requested convergence on             energy=1.00D-06.
 No special actions if energy rises.
 FoFCou: FMM=F IPFlag=           0 FMFlag=           0 FMFlg1=           0
         NFxFlg=           0 DoJE=F BraDBF=F KetDBF=F FulRan=T
         wScrn=  0.000000 ICntrl=     600 IOpCl=  0 I1Cent=           0 NGrid=           0
         NMat0=    1 NMatS0=    190 NMatT0=    0 NMatD0=    1 NMtDS0=    0 NMtDT0=    0
 Petite list used in FoFCou.
 Integral accuracy reduced to 1.0D-05 until final iterations.

 Cycle   1  Pass 0  IDiag  1:
 E= -76.3306780684013    
 DIIS: error= 8.02D-02 at cycle   1 NSaved=   1.
 NSaved= 1 IEnMin= 1 EnMin= -76.3306780684013     IErMin= 1 ErrMin= 8.02D-02
 ErrMax= 8.02D-02  0.00D+00 EMaxC= 1.00D-01 BMatC= 1.05D-01 BMatP= 1.05D-01
 IDIUse=3 WtCom= 1.98D-01 WtEn= 8.02D-01
 Coeff-Com:  0.100D+01
 Coeff-En:   0.100D+01
 Coeff:      0.100D+01
 Gap=     0.211 Goal=   None    Shift=    0.000
 GapD=    0.211 DampG=1.000 DampE=0.500 DampFc=0.5000 IDamp=-1.
 Damping current iteration by 5.00D-01
 RMSDP=3.01D-02 MaxDP=2.34D-01              OVMax= 2.03D-01

 Cycle   2  Pass 0  IDiag  1:
 E= -76.3573290112711     Delta-E=       -0.026650942870 Rises=F Damp=T
 DIIS: error= 1.94D-02 at cycle   2 NSaved=   2.
 NSaved= 2 IEnMin= 2 EnMin= -76.3573290112711     IErMin= 2 ErrMin= 1.94D-02
 ErrMax= 1.94D-02  0.00D+00 EMaxC= 1.00D-01 BMatC= 6.53D-03 BMatP= 1.05D-01
 IDIUse=3 WtCom= 8.06D-01 WtEn= 1.94D-01
 Coeff-Com:  0.185D+00 0.815D+00
 Coeff-En:   0.301D+00 0.699D+00
 Coeff:      0.208D+00 0.792D+00
 Gap=     0.341 Goal=   None    Shift=    0.000
 RMSDP=3.67D-03 MaxDP=3.96D-02 DE=-2.67D-02 OVMax= 1.13D-01

 Cycle   3  Pass 0  IDiag  1:
 E= -76.4087822202584     Delta-E=       -0.051453208987 Rises=F Damp=F
 DIIS: error= 3.38D-03 at cycle   3 NSaved=   3.
 NSaved= 3 IEnMin= 3 EnMin= -76.4087822202584     IErMin= 3 ErrMin= 3.38D-03
 ErrMax= 3.38D-03  0.00D+00 EMaxC= 1.00D-01 BMatC= 2.17D-04 BMatP= 6.53D-03
 IDIUse=3 WtCom= 9.66D-01 WtEn= 3.38D-02
 Coeff-Com:  0.393D-01-0.144D-01 0.975D+00
 Coeff-En:   0.000D+00 0.000D+00 0.100D+01
 Coeff:      0.379D-01-0.139D-01 0.976D+00
 Gap=     0.355 Goal=   None    Shift=    0.000
 RMSDP=5.05D-04 MaxDP=4.36D-03 DE=-5.15D-02 OVMax= 3.44D-03

 Cycle   4  Pass 0  IDiag  1:
 E= -76.4089300188679     Delta-E=       -0.000147798609 Rises=F Damp=F
 DIIS: error= 3.68D-04 at cycle   4 NSaved=   4.
 NSaved= 4 IEnMin= 4 EnMin= -76.4089300188679     IErMin= 4 ErrMin= 3.68D-04
 ErrMax= 3.68D-04  0.00D+00 EMaxC= 1.00D-01 BMatC= 2.07D-06 BMatP= 2.17D-04
 IDIUse=3 WtCom= 9.96D-01 WtEn= 3.68D-03
 Coeff-Com:  0.636D-02-0.180D-01 0.217D+00 0.794D+00
 Coeff-En:   0.000D+00 0.000D+00 0.000D+00 0.100D+01
 Coeff:      0.634D-02-0.179D-01 0.216D+00 0.795D+00
 Gap=     0.355 Goal=   None    Shift=    0.000
 RMSDP=3.91D-05 MaxDP=1.81D-04 DE=-1.48D-04 OVMax= 2.90D-04

 Cycle   5  Pass 0  IDiag  1:
 E= -76.4089315035387     Delta-E=       -0.000001484671 Rises=F Damp=F
 DIIS: error= 5.50D-05 at cycle   5 NSaved=   5.
 NSaved= 5 IEnMin= 5 EnMin= -76.4089315035387     IErMin= 5 ErrMin= 5.50D-05
 ErrMax= 5.50D-05  0.00D+00 EMaxC= 1.00D-01 BMatC= 4.32D-08 BMatP= 2.07D-06
 IDIUse=1 WtCom= 1.00D+00 WtEn= 0.00D+00
 Coeff-Com:  0.534D-03-0.341D-03-0.592D-03-0.527D-02 0.101D+01
 Coeff:      0.534D-03-0.341D-03-0.592D-03-0.527D-02 0.101D+01
 Gap=     0.355 Goal=   None    Shift=    0.000
 RMSDP=8.33D-06 MaxDP=7.58D-05 DE=-1.48D-06 OVMax= 4.63D-05

 Initial convergence to 1.0D-05 achieved.  Increase integral accuracy.
 Cycle   6  Pass 1  IDiag  1:
 E= -76.4089324435628     Delta-E=       -0.000000940024 Rises=F Damp=F
 DIIS: error= 2.15D-06 at cycle   1 NSaved=   1.
 NSaved= 1 IEnMin= 1 EnMin= -76.4089324435628     IErMin= 1 ErrMin= 2.15D-06
 ErrMax= 2.15D-06  0.00D+00 EMaxC= 1.00D-01 BMatC= 5.57D-11 BMatP= 5.57D-11
 IDIUse=1 WtCom= 1.00D+00 WtEn= 0.00D+00
 Coeff-Com:  0.100D+01
 Coeff:      0.100D+01
 Gap=     0.355 Goal=   None    Shift=    0.000
 RMSDP=8.33D-06 MaxDP=7.58D-05 DE=-9.40D-07 OVMax= 3.68D-06

 Cycle   7  Pass 1  IDiag  1:
 E= -76.4089324436086     Delta-E=       -0.000000000046 Rises=F Damp=F
 DIIS: error= 9.22D-07 at cycle   2 NSaved=   2.
 NSaved= 2 IEnMin= 2 EnMin= -76.4089324436086     IErMin= 2 ErrMin= 9.22D-07
 ErrMax= 9.22D-07  0.00D+00 EMaxC= 1.00D-01 BMatC= 1.82D-11 BMatP= 5.57D-11
 IDIUse=1 WtCom= 1.00D+00 WtEn= 0.00D+00
 Coeff-Com:  0.302D+00 0.698D+00
 Coeff:      0.302D+00 0.698D+00
 Gap=     0.355 Goal=   None    Shift=    0.000
 RMSDP=2.39D-07 MaxDP=1.87D-06 DE=-4.57D-11 OVMax= 1.77D-06

 Cycle   8  Pass 1  IDiag  1:
 E= -76.4089324436160     Delta-E=       -0.000000000007 Rises=F Damp=F
 DIIS: error= 7.42D-07 at cycle   3 NSaved=   3.
 NSaved= 3 IEnMin= 3 EnMin= -76.4089324436160     IErMin= 3 ErrMin= 7.42D-07
 ErrMax= 7.42D-07  0.00D+00 EMaxC= 1.00D-01 BMatC= 7.86D-12 BMatP= 1.82D-11
 IDIUse=1 WtCom= 1.00D+00 WtEn= 0.00D+00
 Coeff-Com:  0.625D-02 0.393D+00 0.600D+00
 Coeff:      0.625D-02 0.393D+00 0.600D+00
 Gap=     0.355 Goal=   None    Shift=    0.000
 RMSDP=9.97D-08 MaxDP=7.38D-07 DE=-7.40D-12 OVMax= 6.71D-07

 Cycle   9  Pass 1  IDiag  1:
 E= -76.4089324436214     Delta-E=       -0.000000000005 Rises=F Damp=F
 DIIS: error= 4.69D-08 at cycle   4 NSaved=   4.
 NSaved= 4 IEnMin= 4 EnMin= -76.4089324436214     IErMin= 4 ErrMin= 4.69D-08
 ErrMax= 4.69D-08  0.00D+00 EMaxC= 1.00D-01 BMatC= 5.33D-14 BMatP= 7.86D-12
 IDIUse=1 WtCom= 1.00D+00 WtEn= 0.00D+00
 Coeff-Com: -0.878D-02 0.747D-01 0.158D+00 0.776D+00
 Coeff:     -0.878D-02 0.747D-01 0.158D+00 0.776D+00
 Gap=     0.355 Goal=   None    Shift=    0.000
 RMSDP=6.46D-09 MaxDP=3.92D-08 DE=-5.39D-12 OVMax= 4.84D-08

 SCF Done:  E(RB3LYP) =  -76.4089324436     A.U. after    9 cycles
            NFock=  9  Conv=0.65D-08     -V/T= 2.0076
 KE= 7.583108535780D+01 PE=-1.988239079386D+02 EE= 3.746451026771D+01
 Leave Link  502 at Wed Jul  1 22:03:30 2026, MaxMem=  4026531840 cpu:        11.9
 (Enter /home/p20190052/g09/l601.exe)
 Copying SCF densities to generalized density rwf, IOpCl= 0 IROHF=0.

 **********************************************************************

            Population analysis using the SCF density.

 **********************************************************************

 Orbital symmetries:
       Occupied  (A1) (A1) (B2) (A1) (B1)
       Virtual   (A1) (B2) (B2) (A1) (B1) (A1) (B2) (A1) (A1) (A2)
                 (B1) (A1) (B2) (A1)
 The electronic state is 1-A1.
 Alpha  occ. eigenvalues --  -19.13754  -0.99927  -0.51856  -0.37226  -0.29140
 Alpha virt. eigenvalues --    0.06355   0.14936   0.77429   0.86401   0.89078
 Alpha virt. eigenvalues --    0.89544   1.06667   1.19366   1.72859   1.74556
 Alpha virt. eigenvalues --    1.77939   2.28465   2.58311   3.55379
          Condensed to atoms (all electrons):
               1          2          3
     1  O    8.288033   0.243611   0.243611
     2  H    0.243611   0.392365  -0.023604
     3  H    0.243611  -0.023604   0.392365
 Mulliken charges:
               1
     1  O   -0.775255
     2  H    0.387628
     3  H    0.387628
 Sum of Mulliken charges =   0.00000
 Mulliken charges with hydrogens summed into heavy atoms:
               1
     1  O    0.000000
 Electronic spatial extent (au):  <R**2>=             19.1402
 Charge=              0.0000 electrons
 Dipole moment (field-independent basis, Debye):
    X=             -0.0000    Y=              0.0000    Z=             -2.0930  Tot=              2.0930
 Quadrupole moment (field-independent basis, Debye-Ang):
   XX=             -7.1972   YY=             -4.2872   ZZ=             -5.9906
   XY=              0.0000   XZ=              0.0000   YZ=             -0.0000
 Traceless Quadrupole moment (field-independent basis, Debye-Ang):
   XX=             -1.3722   YY=              1.5378   ZZ=             -0.1656
   XY=              0.0000   XZ=              0.0000   YZ=             -0.0000
 Octapole moment (field-independent basis, Debye-Ang**2):
  XXX=              0.0000  YYY=              0.0000  ZZZ=             -1.2201  XYY=             -0.0000
  XXY=             -0.0000  XXZ=             -0.3259  XZZ=              0.0000  YZZ=             -0.0000
  YYZ=             -1.2059  XYZ=             -0.0000
 Hexadecapole moment (field-independent basis, Debye-Ang**3):
 XXXX=             -5.2065 YYYY=             -6.0280 ZZZZ=             -6.2698 XXXY=             -0.0000
 XXXZ=             -0.0000 YYYX=             -0.0000 YYYZ=             -0.0000 ZZZX=             -0.0000
 ZZZY=             -0.0000 XXYY=             -2.1081 XXZZ=             -1.9618 YYZZ=             -1.7369
 XXYZ=              0.0000 YYXZ=              0.0000 ZZXY=              0.0000
 N-N= 9.119379869505D+00 E-N=-1.988239069427D+02  KE= 7.583108535780D+01
 Symmetry A1   KE= 6.766401989393D+01
 Symmetry A2   KE= 4.951599321851D-35
 Symmetry B1   KE= 4.599152928954D+00
 Symmetry B2   KE= 3.567912534918D+00
 No NMR shielding tensors so no spin-rotation constants.
 Leave Link  601 at Wed Jul  1 22:03:30 2026, MaxMem=  4026531840 cpu:        15.2
 (Enter /home/p20190052/g09/l701.exe)
 Compute integral first derivatives.
 ... and contract with generalized density number  0.
 Leave Link  701 at Wed Jul  1 22:03:31 2026, MaxMem=  4026531840 cpu:        18.2
 (Enter /home/p20190052/g09/l702.exe)
 L702 exits ... SP integral derivatives will be done elsewhere.
 Leave Link  702 at Wed Jul  1 22:03:31 2026, MaxMem=  4026531840 cpu:         0.6
 (Enter /home/p20190052/g09/l703.exe)
 Compute integral first derivatives, UseDBF=F ICtDFT=           0.
 Integral derivatives from FoFJK, PRISM(SPDF).
 Calling FoFJK, ICntrl=      2127 FMM=F ISym2X=1 I1Cent= 0 IOpClX= 0 NMat=1 NMatS=1 NMatT=0.
 FoFJK:  IHMeth= 1 ICntrl=    2127 DoSepK=F KAlg= 0 I1Cent=   0 FoldK=F
 IRaf=         0 NMat=   1 IRICut=       1 DoRegI=T DoRafI=F ISym2E= 1.
 FoFCou: FMM=F IPFlag=           0 FMFlag=      100000 FMFlg1=         800
         NFxFlg=           0 DoJE=F BraDBF=F KetDBF=F FulRan=T
         wScrn=  0.000000 ICntrl=    2127 IOpCl=  0 I1Cent=           0 NGrid=           0
         NMat0=    1 NMatS0=      1 NMatT0=    0 NMatD0=    1 NMtDS0=    0 NMtDT0=    0
 Petite list used in FoFCou.
 Leave Link  703 at Wed Jul  1 22:03:31 2026, MaxMem=  4026531840 cpu:         8.3
 (Enter /home/p20190052/g09/l716.exe)
 Dipole        =-3.14764093D-17 0.00000000D+00-8.23437125D-01
 ***** Axes restored to original set *****
 -------------------------------------------------------------------
 Center     Atomic                   Forces (Hartrees/Bohr)
 Number     Number              X              Y              Z
 -------------------------------------------------------------------
      1        8           0.000000000    0.000000000   -0.003923169
      2        1           0.000000000    0.002611810    0.001961584
      3        1          -0.000000000   -0.002611810    0.001961584
 -------------------------------------------------------------------
 Cartesian Forces:  Max     0.003923169 RMS     0.002020176
 Leave Link  716 at Wed Jul  1 22:03:31 2026, MaxMem=  4026531840 cpu:         0.8
 (Enter /home/p20190052/g09/l103.exe)

 GradGradGradGradGradGradGradGradGradGradGradGradGradGradGradGradGradGrad
 Berny optimization.
 FormGI is forming the generalized inverse of G from B-inverse, IUseBI=4.
 Internal  Forces:  Max     0.003265657 RMS     0.002667407
 Search for a local minimum.
 Step number   1 out of a maximum of   20
 All quantities printed in internal units (Hartrees-Bohrs-Radians)
 RMS Force = .26674D-02 SwitMx=.10000D-02 MixMth= 1
 Mixed Optimization -- RFO/linear search
 Second derivative matrix not updated -- first step.
 The second derivative matrix:
                          R1        R2        A1
           R1           0.54343
           R2           0.00000   0.54343
           A1           0.00000   0.00000   0.16000
 ITU=  0
     Eigenvalues ---    0.16000   0.54343   0.54343
 RFO step:  Lambda=-3.93499597D-05 EMin= 1.60000000D-01
 Linear search not attempted -- first point.
 Iteration  1 RMS(Cart)=  0.00447635 RMS(Int)=  0.00000151
 Iteration  2 RMS(Cart)=  0.00000145 RMS(Int)=  0.00000000
 Iteration  3 RMS(Cart)=  0.00000000 RMS(Int)=  0.00000000
 ITry= 1 IFail=0 DXMaxC= 5.18D-03 DCOld= 1.00D+10 DXMaxT= 3.00D-01 DXLimC= 3.00D+00 Rises=F
 ClnCor:  largest displacement from symmetrization is 1.02D-16 for atom     1.
 Variable       Old X    -DE/DX   Delta X   Delta X   Delta X     New X
                                 (Linear)    (Quad)   (Total)
    R1        1.82421   0.00327   0.00000   0.00601   0.00601   1.83022
    R2        1.82421   0.00327   0.00000   0.00601   0.00601   1.83022
    A1        1.81060   0.00013   0.00000   0.00079   0.00079   1.81139
         Item               Value     Threshold  Converged?
 Maximum Force            0.003266     0.000450     NO 
 RMS     Force            0.002667     0.000300     NO 
 Maximum Displacement     0.005175     0.001800     NO 
 RMS     Displacement     0.004477     0.001200     NO 
 Predicted change in Energy=-1.967498D-05
 Lowest energy point so far.  Saving SCF results.
 GradGradGradGradGradGradGradGradGradGradGradGradGradGradGradGradGradGrad

 Leave Link  103 at Wed Jul  1 22:03:31 2026, MaxMem=  4026531840 cpu:         0.3
 (Enter /home/p20190052/g09/l202.exe)
                          Input orientation:                          
 ---------------------------------------------------------------------
 Center     Atomic      Atomic             Coordinates (Angstroms)
 Number     Number       Type             X           Y           Z
 ---------------------------------------------------------------------
      1          8           0       -0.535744   -0.000000   -0.683735
      2          1           0       -0.535744    0.762076   -0.086031
      3          1           0       -0.535744   -0.762076   -0.086031
 ---------------------------------------------------------------------
                    Distance matrix (angstroms):
                    1          2          3
     1  O    0.000000
     2  H    0.968509   0.000000
     3  H    0.968509   1.524151   0.000000
 Stoichiometry    H2O
 Framework group  C2V[C2(O),SGV(H2)]
 Deg. of freedom     2
 Full point group                 C2V     NOp   4
 RotChk:  IX=0 Diff= 6.66D-16
 Largest Abelian subgroup         C2V     NOp   4
 Largest concise Abelian subgroup C2      NOp   2
                         Standard orientation:                         
 ---------------------------------------------------------------------
 Center     Atomic      Atomic             Coordinates (Angstroms)
 Number     Number       Type             X           Y           Z
 ---------------------------------------------------------------------
      1          8           0       -0.000000    0.000000    0.119541
      2          1           0        0.000000    0.762076   -0.478163
      3          1           0       -0.000000   -0.762076   -0.478163
 ---------------------------------------------------------------------
 Rotational constants (GHZ):    790.2697566    431.7237357    279.1980593
 Leave Link  202 at Wed Jul  1 22:03:31 2026, MaxMem=  4026531840 cpu:         0.3
 (Enter /home/p20190052/g09/l301.exe)
 Standard basis: 6-31G(d) (6D, 7F)
 Ernie: Thresh=  0.10000D-02 Tol=  0.10000D-05 Strict=F.
 There are    10 symmetry adapted cartesian basis functions of A1  symmetry.
 There are     1 symmetry adapted cartesian basis functions of A2  symmetry.
 There are     3 symmetry adapted cartesian basis functions of B1  symmetry.
 There are     5 symmetry adapted cartesian basis functions of B2  symmetry.
 There are    10 symmetry adapted basis functions of A1  symmetry.
 There are     1 symmetry adapted basis functions of A2  symmetry.
 There are     3 symmetry adapted basis functions of B1  symmetry.
 There are     5 symmetry adapted basis functions of B2  symmetry.
    19 basis functions,    36 primitive gaussians,    19 cartesian basis functions
     5 alpha electrons        5 beta electrons
       nuclear repulsion energy         9.0893311422 Hartrees.
 IExCor=  402 DFT=T Ex+Corr=B3LYP ExCW=0 ScaHFX=  0.200000
 ScaDFX=  0.800000  0.720000  1.000000  0.810000 ScalE2=  1.000000  1.000000
 IRadAn=      0 IRanWt=     -1 IRanGd=            0 ICorTp=0 IEmpDi=  4
 NAtoms=    3 NActive=    3 NUniq=    2 SFac= 2.25D+00 NAtFMM=   60 NAOKFM=F Big=F
 Integral buffers will be    131072 words long.
 Raffenetti 2 integral format.
 Two-electron integral symmetry is turned on.
 Leave Link  301 at Wed Jul  1 22:03:31 2026, MaxMem=  4026531840 cpu:         1.9
 (Enter /home/p20190052/g09/l302.exe)
 NPDir=0 NMtPBC=     1 NCelOv=     1 NCel=       1 NClECP=     1 NCelD=      1
         NCelK=      1 NCelE2=     1 NClLst=     1 CellRange=     0.0.
 One-electron integrals computed using PRISM.
 One-electron integral symmetry used in STVInt
 NBasis=    19 RedAO= T EigKep=  4.23D-02  NBF=    10     1     3     5
 NBsUse=    19 1.00D-06 EigRej= -1.00D+00 NBFU=    10     1     3     5
 Precomputing XC quadrature grid using
 IXCGrd= 4 IRadAn=           0 IRanWt=          -1 IRanGd=           0 AccXCQ= 0.00D+00.
 Generated NRdTot=       0 NPtTot=           0 NUsed=           0 NTot=          32
 NSgBfM=    19    19    19    19    19 MxSgAt=     3 MxSgA2=     3.
 Leave Link  302 at Wed Jul  1 22:03:32 2026, MaxMem=  4026531840 cpu:        17.1
 (Enter /home/p20190052/g09/l303.exe)
 DipDrv:  MaxL=1.
 Leave Link  303 at Wed Jul  1 22:03:32 2026, MaxMem=  4026531840 cpu:         2.3
 (Enter /home/p20190052/g09/l401.exe)
 Initial guess from the checkpoint file:  "H2O_b3lyp_6-31g_d.chk"
 B after Tr=    -0.000000    0.000000    0.000000
         Rot=    1.000000    0.000000    0.000000   -0.000000 Ang=   0.00 deg.
 Guess basis will be translated and rotated to current coordinates.
 JPrj=2 DoOrth=T DoCkMO=T.
 Initial guess orbital symmetries:
       Occupied  (A1) (A1) (B2) (A1) (B1)
       Virtual   (A1) (A1) (A1) (A1) (A1) (A1) (A1) (A2) (B1) (B1)
                 (B2) (B2) (B2) (B2)
 The electronic state of the initial guess is 1-A1.
 Leave Link  401 at Wed Jul  1 22:03:32 2026, MaxMem=  4026531840 cpu:         2.7
 (Enter /home/p20190052/g09/l502.exe)
 Closed shell SCF:
 Using DIIS extrapolation, IDIIS=  1040.
 Integral symmetry usage will be decided dynamically.
 Keep R1 ints in memory in symmetry-blocked form, NReq=899271.
 IVT=       20927 IEndB=       20927 NGot=  4026531840 MDV=  4026504544
 LenX=  4026504544 LenY=  4026503662
 Requested convergence on RMS density matrix=1.00D-08 within 128 cycles.
 Requested convergence on MAX density matrix=1.00D-06.
 Requested convergence on             energy=1.00D-06.
 No special actions if energy rises.
 FoFCou: FMM=F IPFlag=           0 FMFlag=           0 FMFlg1=           0
         NFxFlg=           0 DoJE=F BraDBF=F KetDBF=F FulRan=T
         wScrn=  0.000000 ICntrl=     600 IOpCl=  0 I1Cent=           0 NGrid=           0
         NMat0=    1 NMatS0=    190 NMatT0=    0 NMatD0=    1 NMtDS0=    0 NMtDT0=    0
 Petite list used in FoFCou.

 Cycle   1  Pass 1  IDiag  1:
 E= -76.4089468242410    
 DIIS: error= 5.96D-04 at cycle   1 NSaved=   1.
 NSaved= 1 IEnMin= 1 EnMin= -76.4089468242410     IErMin= 1 ErrMin= 5.96D-04
 ErrMax= 5.96D-04  0.00D+00 EMaxC= 1.00D-01 BMatC= 5.33D-06 BMatP= 5.33D-06
 IDIUse=3 WtCom= 9.94D-01 WtEn= 5.96D-03
 Coeff-Com:  0.100D+01
 Coeff-En:   0.100D+01
 Coeff:      0.100D+01
 Gap=     1.379 Goal=   None    Shift=    0.000
 RMSDP=1.85D-04 MaxDP=1.37D-03              OVMax= 1.24D-03

 Cycle   2  Pass 1  IDiag  1:
 E= -76.4089496381523     Delta-E=       -0.000002813911 Rises=F Damp=F
 DIIS: error= 5.47D-04 at cycle   2 NSaved=   2.
 NSaved= 2 IEnMin= 2 EnMin= -76.4089496381523     IErMin= 2 ErrMin= 5.47D-04
 ErrMax= 5.47D-04  0.00D+00 EMaxC= 1.00D-01 BMatC= 4.59D-06 BMatP= 5.33D-06
 IDIUse=3 WtCom= 9.95D-01 WtEn= 5.47D-03
 Coeff-Com:  0.476D+00 0.524D+00
 Coeff-En:   0.240D+00 0.760D+00
 Coeff:      0.475D+00 0.525D+00
 Gap=     0.354 Goal=   None    Shift=    0.000
 RMSDP=8.83D-05 MaxDP=6.00D-04 DE=-2.81D-06 OVMax= 6.17D-04

 Cycle   3  Pass 1  IDiag  1:
 E= -76.4089525775893     Delta-E=       -0.000002939437 Rises=F Damp=F
 DIIS: error= 1.38D-04 at cycle   3 NSaved=   3.
 NSaved= 3 IEnMin= 3 EnMin= -76.4089525775893     IErMin= 3 ErrMin= 1.38D-04
 ErrMax= 1.38D-04  0.00D+00 EMaxC= 1.00D-01 BMatC= 3.37D-07 BMatP= 4.59D-06
 IDIUse=3 WtCom= 9.99D-01 WtEn= 1.38D-03
 Coeff-Com:  0.257D-01 0.213D+00 0.761D+00
 Coeff-En:   0.000D+00 0.000D+00 0.100D+01
 Coeff:      0.257D-01 0.213D+00 0.761D+00
 Gap=     0.354 Goal=   None    Shift=    0.000
 RMSDP=2.31D-05 MaxDP=1.86D-04 DE=-2.94D-06 OVMax= 1.81D-04

 Cycle   4  Pass 1  IDiag  1:
 E= -76.4089528175908     Delta-E=       -0.000000240002 Rises=F Damp=F
 DIIS: error= 1.48D-05 at cycle   4 NSaved=   4.
 NSaved= 4 IEnMin= 4 EnMin= -76.4089528175908     IErMin= 4 ErrMin= 1.48D-05
 ErrMax= 1.48D-05  0.00D+00 EMaxC= 1.00D-01 BMatC= 3.74D-09 BMatP= 3.37D-07
 IDIUse=1 WtCom= 1.00D+00 WtEn= 0.00D+00
 Coeff-Com: -0.775D-02 0.254D-01 0.168D+00 0.815D+00
 Coeff:     -0.775D-02 0.254D-01 0.168D+00 0.815D+00
 Gap=     0.354 Goal=   None    Shift=    0.000
 RMSDP=2.07D-06 MaxDP=1.55D-05 DE=-2.40D-07 OVMax= 1.81D-05

 Cycle   5  Pass 1  IDiag  1:
 E= -76.4089528204331     Delta-E=       -0.000000002842 Rises=F Damp=F
 DIIS: error= 5.16D-07 at cycle   5 NSaved=   5.
 NSaved= 5 IEnMin= 5 EnMin= -76.4089528204331     IErMin= 5 ErrMin= 5.16D-07
 ErrMax= 5.16D-07  0.00D+00 EMaxC= 1.00D-01 BMatC= 3.13D-12 BMatP= 3.74D-09
 IDIUse=1 WtCom= 1.00D+00 WtEn= 0.00D+00
 Coeff-Com:  0.740D-04-0.192D-02-0.983D-02-0.176D-01 0.103D+01
 Coeff:      0.740D-04-0.192D-02-0.983D-02-0.176D-01 0.103D+01
 Gap=     0.354 Goal=   None    Shift=    0.000
 RMSDP=2.28D-07 MaxDP=1.84D-06 DE=-2.84D-09 OVMax= 2.12D-06

 Cycle   6  Pass 1  IDiag  1:
 E= -76.4089528204392     Delta-E=       -0.000000000006 Rises=F Damp=F
 DIIS: error= 8.40D-08 at cycle   6 NSaved=   6.
 NSaved= 6 IEnMin= 6 EnMin= -76.4089528204392     IErMin= 6 ErrMin= 8.40D-08
 ErrMax= 8.40D-08  0.00D+00 EMaxC= 1.00D-01 BMatC= 9.09D-14 BMatP= 3.13D-12
 IDIUse=1 WtCom= 1.00D+00 WtEn= 0.00D+00
 Coeff-Com:  0.223D-04-0.524D-04 0.164D-03-0.299D-02-0.674D-01 0.107D+01
 Coeff:      0.223D-04-0.524D-04 0.164D-03-0.299D-02-0.674D-01 0.107D+01
 Gap=     0.354 Goal=   None    Shift=    0.000
 RMSDP=1.59D-08 MaxDP=1.01D-07 DE=-6.05D-12 OVMax= 1.37D-07

 Cycle   7  Pass 1  IDiag  1:
 E= -76.4089528204392     Delta-E=       -0.000000000000 Rises=F Damp=F
 DIIS: error= 2.14D-09 at cycle   7 NSaved=   7.
 NSaved= 7 IEnMin= 7 EnMin= -76.4089528204392     IErMin= 7 ErrMin= 2.14D-09
 ErrMax= 2.14D-09  0.00D+00 EMaxC= 1.00D-01 BMatC= 5.79D-17 BMatP= 9.09D-14
 IDIUse=1 WtCom= 1.00D+00 WtEn= 0.00D+00
 Coeff-Com: -0.165D-05 0.102D-04 0.113D-04 0.282D-03 0.186D-02-0.742D-01
 Coeff-Com:  0.107D+01
 Coeff:     -0.165D-05 0.102D-04 0.113D-04 0.282D-03 0.186D-02-0.742D-01
 Coeff:      0.107D+01
 Gap=     0.354 Goal=   None    Shift=    0.000
 RMSDP=7.48D-10 MaxDP=6.29D-09 DE=-5.68D-14 OVMax= 6.35D-09

 SCF Done:  E(RB3LYP) =  -76.4089528204     A.U. after    7 cycles
            NFock=  7  Conv=0.75D-09     -V/T= 2.0078
 KE= 7.581998473731D+01 PE=-1.987594998498D+02 EE= 3.744123114987D+01
 Leave Link  502 at Wed Jul  1 22:03:32 2026, MaxMem=  4026531840 cpu:         9.6
 (Enter /home/p20190052/g09/l701.exe)
 Compute integral first derivatives.
 ... and contract with generalized density number  0.
 Leave Link  701 at Wed Jul  1 22:03:33 2026, MaxMem=  4026531840 cpu:        17.7
 (Enter /home/p20190052/g09/l702.exe)
 L702 exits ... SP integral derivatives will be done elsewhere.
 Leave Link  702 at Wed Jul  1 22:03:33 2026, MaxMem=  4026531840 cpu:         0.6
 (Enter /home/p20190052/g09/l703.exe)
 Compute integral first derivatives, UseDBF=F ICtDFT=           0.
 Integral derivatives from FoFJK, PRISM(SPDF).
 Calling FoFJK, ICntrl=      2127 FMM=F ISym2X=1 I1Cent= 0 IOpClX= 0 NMat=1 NMatS=1 NMatT=0.
 FoFJK:  IHMeth= 1 ICntrl=    2127 DoSepK=F KAlg= 0 I1Cent=   0 FoldK=F
 IRaf=         0 NMat=   1 IRICut=       1 DoRegI=T DoRafI=F ISym2E= 1.
 FoFCou: FMM=F IPFlag=           0 FMFlag=      100000 FMFlg1=         800
         NFxFlg=           0 DoJE=F BraDBF=F KetDBF=F FulRan=T
         wScrn=  0.000000 ICntrl=    2127 IOpCl=  0 I1Cent=           0 NGrid=           0
         NMat0=    1 NMatS0=      1 NMatT0=    0 NMatD0=    1 NMtDS0=    0 NMtDT0=    0
 Petite list used in FoFCou.
 Leave Link  703 at Wed Jul  1 22:03:33 2026, MaxMem=  4026531840 cpu:         7.9
 (Enter /home/p20190052/g09/l716.exe)
 Dipole        =-3.13156895D-17 0.00000000D+00-8.23550212D-01
 ***** Axes restored to original set *****
 -------------------------------------------------------------------
 Center     Atomic                   Forces (Hartrees/Bohr)
 Number     Number              X              Y              Z
 -------------------------------------------------------------------
      1        8           0.000000000   -0.000000000   -0.000522775
      2        1          -0.000000000   -0.000008982    0.000261387
      3        1          -0.000000000    0.000008982    0.000261387
 -------------------------------------------------------------------
 Cartesian Forces:  Max     0.000522775 RMS     0.000213464
 Leave Link  716 at Wed Jul  1 22:03:33 2026, MaxMem=  4026531840 cpu:         0.7
 (Enter /home/p20190052/g09/l103.exe)

 GradGradGradGradGradGradGradGradGradGradGradGradGradGradGradGradGradGrad
 Berny optimization.
 Using GEDIIS/GDIIS optimizer.
 FormGI is forming the generalized inverse of G from B-inverse, IUseBI=4.
 Internal  Forces:  Max     0.000386573 RMS     0.000256269
 Search for a local minimum.
 Step number   2 out of a maximum of   20
 All quantities printed in internal units (Hartrees-Bohrs-Radians)
 RMS Force = .25627D-03 SwitMx=.10000D-02 MixMth= 2
 Mixed Optimization -- En-DIIS/RFO-DIIS
 Update second derivatives using D2CorX and points    1    2
 DE= -2.04D-05 DEPred=-1.97D-05 R= 1.04D+00
 TightC=F SS=  1.41D+00  RLast= 8.53D-03 DXNew= 5.0454D-01 2.5605D-02
 Trust test= 1.04D+00 RLast= 8.53D-03 DXMaxT set to 3.00D-01
 The second derivative matrix:
                          R1        R2        A1
           R1           0.52852
           R2          -0.01491   0.52852
           A1           0.03174   0.03174   0.16657
 ITU=  1  0
 Use linear search instead of GDIIS.
     Eigenvalues ---    0.16086   0.51931   0.54343
 RFO step:  Lambda=-1.04122951D-06 EMin= 1.60859386D-01
 Quartic linear search produced a step of  0.04140.
 Iteration  1 RMS(Cart)=  0.00130096 RMS(Int)=  0.00000122
 Iteration  2 RMS(Cart)=  0.00000122 RMS(Int)=  0.00000000
 Iteration  3 RMS(Cart)=  0.00000000 RMS(Int)=  0.00000000
 ITry= 1 IFail=0 DXMaxC= 1.39D-03 DCOld= 1.00D+10 DXMaxT= 3.00D-01 DXLimC= 3.00D+00 Rises=F
 ClnCor:  largest displacement from symmetrization is 5.24D-16 for atom     3.
 Variable       Old X    -DE/DX   Delta X   Delta X   Delta X     New X
                                 (Linear)    (Quad)   (Total)
    R1        1.83022   0.00015   0.00025   0.00021   0.00046   1.83067
    R2        1.83022   0.00015   0.00025   0.00021   0.00046   1.83067
    A1        1.81139  -0.00039   0.00003  -0.00253  -0.00249   1.80890
         Item               Value     Threshold  Converged?
 Maximum Force            0.000387     0.000450     YES
 RMS     Force            0.000256     0.000300     YES
 Maximum Displacement     0.001385     0.001800     YES
 RMS     Displacement     0.001302     0.001200     NO 
 Predicted change in Energy=-5.521311D-07
 Lowest energy point so far.  Saving SCF results.
 GradGradGradGradGradGradGradGradGradGradGradGradGradGradGradGradGradGrad

 Leave Link  103 at Wed Jul  1 22:03:34 2026, MaxMem=  4026531840 cpu:         8.4
 (Enter /home/p20190052/g09/l202.exe)
                          Input orientation:                          
 ---------------------------------------------------------------------
 Center     Atomic      Atomic             Coordinates (Angstroms)
 Number     Number       Type             X           Y           Z
 ---------------------------------------------------------------------
      1          8           0       -0.535744   -0.000000   -0.684468
      2          1           0       -0.535744    0.761520   -0.085665
      3          1           0       -0.535744   -0.761520   -0.085665
 ---------------------------------------------------------------------
                    Distance matrix (angstroms):
                    1          2          3
     1  O    0.000000
     2  H    0.968751   0.000000
     3  H    0.968751   1.523040   0.000000
 Stoichiometry    H2O
 Framework group  C2V[C2(O),SGV(H2)]
 Deg. of freedom     2
 Full point group                 C2V     NOp   4
 RotChk:  IX=0 Diff= 6.80D-16
 Largest Abelian subgroup         C2V     NOp   4
 Largest concise Abelian subgroup C2      NOp   2
                         Standard orientation:                         
 ---------------------------------------------------------------------
 Center     Atomic      Atomic             Coordinates (Angstroms)
 Number     Number       Type             X           Y           Z
 ---------------------------------------------------------------------
      1          8           0        0.000000    0.000000    0.119761
      2          1           0       -0.000000    0.761520   -0.479043
      3          1           0       -0.000000   -0.761520   -0.479043
 ---------------------------------------------------------------------
 Rotational constants (GHZ):    787.3706373    432.3539870    279.0981075
 Leave Link  202 at Wed Jul  1 22:03:34 2026, MaxMem=  4026531840 cpu:         0.3
 (Enter /home/p20190052/g09/l301.exe)
 Standard basis: 6-31G(d) (6D, 7F)
 Ernie: Thresh=  0.10000D-02 Tol=  0.10000D-05 Strict=F.
 There are    10 symmetry adapted cartesian basis functions of A1  symmetry.
 There are     1 symmetry adapted cartesian basis functions of A2  symmetry.
 There are     3 symmetry adapted cartesian basis functions of B1  symmetry.
 There are     5 symmetry adapted cartesian basis functions of B2  symmetry.
 There are    10 symmetry adapted basis functions of A1  symmetry.
 There are     1 symmetry adapted basis functions of A2  symmetry.
 There are     3 symmetry adapted basis functions of B1  symmetry.
 There are     5 symmetry adapted basis functions of B2  symmetry.
    19 basis functions,    36 primitive gaussians,    19 cartesian basis functions
     5 alpha electrons        5 beta electrons
       nuclear repulsion energy         9.0874006261 Hartrees.
 IExCor=  402 DFT=T Ex+Corr=B3LYP ExCW=0 ScaHFX=  0.200000
 ScaDFX=  0.800000  0.720000  1.000000  0.810000 ScalE2=  1.000000  1.000000
 IRadAn=      0 IRanWt=     -1 IRanGd=            0 ICorTp=0 IEmpDi=  4
 NAtoms=    3 NActive=    3 NUniq=    2 SFac= 2.25D+00 NAtFMM=   60 NAOKFM=F Big=F
 Integral buffers will be    131072 words long.
 Raffenetti 2 integral format.
 Two-electron integral symmetry is turned on.
 Leave Link  301 at Wed Jul  1 22:03:34 2026, MaxMem=  4026531840 cpu:         1.9
 (Enter /home/p20190052/g09/l302.exe)
 NPDir=0 NMtPBC=     1 NCelOv=     1 NCel=       1 NClECP=     1 NCelD=      1
         NCelK=      1 NCelE2=     1 NClLst=     1 CellRange=     0.0.
 One-electron integrals computed using PRISM.
 One-electron integral symmetry used in STVInt
 NBasis=    19 RedAO= T EigKep=  4.23D-02  NBF=    10     1     3     5
 NBsUse=    19 1.00D-06 EigRej= -1.00D+00 NBFU=    10     1     3     5
 Precomputing XC quadrature grid using
 IXCGrd= 4 IRadAn=           0 IRanWt=          -1 IRanGd=           0 AccXCQ= 0.00D+00.
 Generated NRdTot=       0 NPtTot=           0 NUsed=           0 NTot=          32
 NSgBfM=    19    19    19    19    19 MxSgAt=     3 MxSgA2=     3.
 Leave Link  302 at Wed Jul  1 22:03:34 2026, MaxMem=  4026531840 cpu:        13.6
 (Enter /home/p20190052/g09/l303.exe)
 DipDrv:  MaxL=1.
 Leave Link  303 at Wed Jul  1 22:03:34 2026, MaxMem=  4026531840 cpu:         0.7
 (Enter /home/p20190052/g09/l401.exe)
 Initial guess from the checkpoint file:  "H2O_b3lyp_6-31g_d.chk"
 B after Tr=    -0.000000    0.000000   -0.000000
         Rot=    1.000000    0.000000    0.000000    0.000000 Ang=   0.00 deg.
 Guess basis will be translated and rotated to current coordinates.
 JPrj=2 DoOrth=T DoCkMO=T.
 Initial guess orbital symmetries:
       Occupied  (A1) (A1) (B2) (A1) (B1)
       Virtual   (A1) (A1) (A1) (A1) (A1) (A1) (A1) (A2) (B1) (B1)
                 (B2) (B2) (B2) (B2)
 The electronic state of the initial guess is 1-A1.
 Leave Link  401 at Wed Jul  1 22:03:34 2026, MaxMem=  4026531840 cpu:         2.7
 (Enter /home/p20190052/g09/l502.exe)
 Closed shell SCF:
 Using DIIS extrapolation, IDIIS=  1040.
 Integral symmetry usage will be decided dynamically.
 Keep R1 ints in memory in symmetry-blocked form, NReq=899271.
 IVT=       20927 IEndB=       20927 NGot=  4026531840 MDV=  4026504544
 LenX=  4026504544 LenY=  4026503662
 Requested convergence on RMS density matrix=1.00D-08 within 128 cycles.
 Requested convergence on MAX density matrix=1.00D-06.
 Requested convergence on             energy=1.00D-06.
 No special actions if energy rises.
 FoFCou: FMM=F IPFlag=           0 FMFlag=           0 FMFlg1=           0
         NFxFlg=           0 DoJE=F BraDBF=F KetDBF=F FulRan=T
         wScrn=  0.000000 ICntrl=     600 IOpCl=  0 I1Cent=           0 NGrid=           0
         NMat0=    1 NMatS0=    190 NMatT0=    0 NMatD0=    1 NMtDS0=    0 NMtDT0=    0
 Petite list used in FoFCou.

 Cycle   1  Pass 1  IDiag  1:
 E= -76.4089530552547    
 DIIS: error= 1.03D-04 at cycle   1 NSaved=   1.
 NSaved= 1 IEnMin= 1 EnMin= -76.4089530552547     IErMin= 1 ErrMin= 1.03D-04
 ErrMax= 1.03D-04  0.00D+00 EMaxC= 1.00D-01 BMatC= 1.98D-07 BMatP= 1.98D-07
 IDIUse=3 WtCom= 9.99D-01 WtEn= 1.03D-03
 Coeff-Com:  0.100D+01
 Coeff-En:   0.100D+01
 Coeff:      0.100D+01
 Gap=     1.378 Goal=   None    Shift=    0.000
 RMSDP=4.41D-05 MaxDP=3.53D-04              OVMax= 2.84D-04

 Cycle   2  Pass 1  IDiag  1:
 E= -76.4089533023568     Delta-E=       -0.000000247102 Rises=F Damp=F
 DIIS: error= 5.44D-05 at cycle   2 NSaved=   2.
 NSaved= 2 IEnMin= 2 EnMin= -76.4089533023568     IErMin= 2 ErrMin= 5.44D-05
 ErrMax= 5.44D-05  0.00D+00 EMaxC= 1.00D-01 BMatC= 4.96D-08 BMatP= 1.98D-07
 IDIUse=1 WtCom= 1.00D+00 WtEn= 0.00D+00
 Coeff-Com:  0.235D+00 0.765D+00
 Coeff:      0.235D+00 0.765D+00
 Gap=     0.354 Goal=   None    Shift=    0.000
 RMSDP=1.36D-05 MaxDP=9.18D-05 DE=-2.47D-07 OVMax= 1.02D-04

 Cycle   3  Pass 1  IDiag  1:
 E= -76.4089533130151     Delta-E=       -0.000000010658 Rises=F Damp=F
 DIIS: error= 4.57D-05 at cycle   3 NSaved=   3.
 NSaved= 3 IEnMin= 3 EnMin= -76.4089533130151     IErMin= 3 ErrMin= 4.57D-05
 ErrMax= 4.57D-05  0.00D+00 EMaxC= 1.00D-01 BMatC= 3.52D-08 BMatP= 4.96D-08
 IDIUse=1 WtCom= 1.00D+00 WtEn= 0.00D+00
 Coeff-Com: -0.234D-01 0.462D+00 0.561D+00
 Coeff:     -0.234D-01 0.462D+00 0.561D+00
 Gap=     0.354 Goal=   None    Shift=    0.000
 RMSDP=6.55D-06 MaxDP=4.55D-05 DE=-1.07D-08 OVMax= 4.73D-05

 Cycle   4  Pass 1  IDiag  1:
 E= -76.4089533377418     Delta-E=       -0.000000024727 Rises=F Damp=F
 DIIS: error= 1.32D-06 at cycle   4 NSaved=   4.
 NSaved= 4 IEnMin= 4 EnMin= -76.4089533377418     IErMin= 4 ErrMin= 1.32D-06
 ErrMax= 1.32D-06  0.00D+00 EMaxC= 1.00D-01 BMatC= 2.58D-11 BMatP= 3.52D-08
 IDIUse=1 WtCom= 1.00D+00 WtEn= 0.00D+00
 Coeff-Com: -0.754D-02 0.815D-01 0.105D+00 0.821D+00
 Coeff:     -0.754D-02 0.815D-01 0.105D+00 0.821D+00
 Gap=     0.354 Goal=   None    Shift=    0.000
 RMSDP=2.24D-07 MaxDP=1.76D-06 DE=-2.47D-08 OVMax= 1.20D-06

 Cycle   5  Pass 1  IDiag  1:
 E= -76.4089533377628     Delta-E=       -0.000000000021 Rises=F Damp=F
 DIIS: error= 1.47D-07 at cycle   5 NSaved=   5.
 NSaved= 5 IEnMin= 5 EnMin= -76.4089533377628     IErMin= 5 ErrMin= 1.47D-07
 ErrMax= 1.47D-07  0.00D+00 EMaxC= 1.00D-01 BMatC= 2.93D-13 BMatP= 2.58D-11
 IDIUse=1 WtCom= 1.00D+00 WtEn= 0.00D+00
 Coeff-Com:  0.254D-03-0.578D-02-0.693D-02 0.591D-01 0.953D+00
 Coeff:      0.254D-03-0.578D-02-0.693D-02 0.591D-01 0.953D+00
 Gap=     0.354 Goal=   None    Shift=    0.000
 RMSDP=3.46D-08 MaxDP=2.05D-07 DE=-2.10D-11 OVMax= 3.45D-07

 Cycle   6  Pass 1  IDiag  1:
 E= -76.4089533377630     Delta-E=       -0.000000000000 Rises=F Damp=F
 DIIS: error= 2.31D-08 at cycle   6 NSaved=   6.
 NSaved= 6 IEnMin= 6 EnMin= -76.4089533377630     IErMin= 6 ErrMin= 2.31D-08
 ErrMax= 2.31D-08  0.00D+00 EMaxC= 1.00D-01 BMatC= 6.45D-15 BMatP= 2.93D-13
 IDIUse=1 WtCom= 1.00D+00 WtEn= 0.00D+00
 Coeff-Com:  0.367D-04-0.451D-03-0.145D-03-0.831D-02-0.604D-01 0.107D+01
 Coeff:      0.367D-04-0.451D-03-0.145D-03-0.831D-02-0.604D-01 0.107D+01
 Gap=     0.354 Goal=   None    Shift=    0.000
 RMSDP=4.07D-09 MaxDP=2.68D-08 DE=-2.70D-13 OVMax= 3.66D-08

 SCF Done:  E(RB3LYP) =  -76.4089533378     A.U. after    6 cycles
            NFock=  6  Conv=0.41D-08     -V/T= 2.0078
 KE= 7.581946503576D+01 PE=-1.987550081952D+02 EE= 3.743918919562D+01
 Leave Link  502 at Wed Jul  1 22:03:35 2026, MaxMem=  4026531840 cpu:         9.8
 (Enter /home/p20190052/g09/l701.exe)
 Compute integral first derivatives.
 ... and contract with generalized density number  0.
 Leave Link  701 at Wed Jul  1 22:03:35 2026, MaxMem=  4026531840 cpu:        17.9
 (Enter /home/p20190052/g09/l702.exe)
 L702 exits ... SP integral derivatives will be done elsewhere.
 Leave Link  702 at Wed Jul  1 22:03:35 2026, MaxMem=  4026531840 cpu:         0.7
 (Enter /home/p20190052/g09/l703.exe)
 Compute integral first derivatives, UseDBF=F ICtDFT=           0.
 Integral derivatives from FoFJK, PRISM(SPDF).
 Calling FoFJK, ICntrl=      2127 FMM=F ISym2X=1 I1Cent= 0 IOpClX= 0 NMat=1 NMatS=1 NMatT=0.
 FoFJK:  IHMeth= 1 ICntrl=    2127 DoSepK=F KAlg= 0 I1Cent=   0 FoldK=F
 IRaf=         0 NMat=   1 IRICut=       1 DoRegI=T DoRafI=F ISym2E= 1.
 FoFCou: FMM=F IPFlag=           0 FMFlag=      100000 FMFlg1=         800
         NFxFlg=           0 DoJE=F BraDBF=F KetDBF=F FulRan=T
         wScrn=  0.000000 ICntrl=    2127 IOpCl=  0 I1Cent=           0 NGrid=           0
         NMat0=    1 NMatS0=      1 NMatT0=    0 NMatD0=    1 NMtDS0=    0 NMtDT0=    0
 Petite list used in FoFCou.
 Leave Link  703 at Wed Jul  1 22:03:35 2026, MaxMem=  4026531840 cpu:         8.3
 (Enter /home/p20190052/g09/l716.exe)
 Dipole        =-3.12102216D-17 0.00000000D+00-8.24440080D-01
 ***** Axes restored to original set *****
 -------------------------------------------------------------------
 Center     Atomic                   Forces (Hartrees/Bohr)
 Number     Number              X              Y              Z
 -------------------------------------------------------------------
      1        8           0.000000000   -0.000000000    0.000025096
      2        1           0.000000000    0.000008885   -0.000012548
      3        1          -0.000000000   -0.000008885   -0.000012548
 -------------------------------------------------------------------
 Cartesian Forces:  Max     0.000025096 RMS     0.000011068
 Leave Link  716 at Wed Jul  1 22:03:35 2026, MaxMem=  4026531840 cpu:         0.7
 (Enter /home/p20190052/g09/l103.exe)

 GradGradGradGradGradGradGradGradGradGradGradGradGradGradGradGradGradGrad
 Berny optimization.
 Using GEDIIS/GDIIS optimizer.
 FormGI is forming the generalized inverse of G from B-inverse, IUseBI=4.
 Internal  Forces:  Max     0.000028111 RMS     0.000016242
 Search for a local minimum.
 Step number   3 out of a maximum of   20
 All quantities printed in internal units (Hartrees-Bohrs-Radians)
 RMS Force = .16242D-04 SwitMx=.10000D-02 MixMth= 2
 Mixed Optimization -- En-DIIS/RFO-DIIS
 Swapping is turned off.
 Update second derivatives using D2CorX and points    1    2    3
 DE= -5.17D-07 DEPred=-5.52D-07 R= 9.37D-01
 Trust test= 9.37D-01 RLast= 2.58D-03 DXMaxT set to 3.00D-01
 The second derivative matrix:
                          R1        R2        A1
           R1           0.52537
           R2          -0.01805   0.52537
           A1           0.03087   0.03087   0.17761
 ITU=  0  1  0
     Eigenvalues ---    0.17192   0.51300   0.54343
 En-DIIS/RFO-DIIS IScMMF=        0 using points:     3    2
 RFO step:  Lambda= 0.00000000D+00.
 NNeg= 0 NP= 2 Switch=  2.50D-03 Rises=F DC=  5.17D-07 SmlDif=  1.00D-05
 RMS Error=  0.3906558489D-04 NUsed= 2 EDIIS=F
 DidBck=F Rises=F RFO-DIIS coefs:    0.93978    0.06022
 Iteration  1 RMS(Cart)=  0.00008933 RMS(Int)=  0.00000000
 Iteration  2 RMS(Cart)=  0.00000000 RMS(Int)=  0.00000000
 ITry= 1 IFail=0 DXMaxC= 8.28D-05 DCOld= 1.00D+10 DXMaxT= 3.00D-01 DXLimC= 3.00D+00 Rises=F
 ClnCor:  largest displacement from symmetrization is 7.58D-16 for atom     3.
 Variable       Old X    -DE/DX   Delta X   Delta X   Delta X     New X
                                 (Linear)    (Quad)   (Total)
    R1        1.83067  -0.00000  -0.00003   0.00002  -0.00001   1.83066
    R2        1.83067  -0.00000  -0.00003   0.00002  -0.00001   1.83066
    A1        1.80890   0.00003   0.00015   0.00001   0.00016   1.80906
         Item               Value     Threshold  Converged?
 Maximum Force            0.000028     0.000450     YES
 RMS     Force            0.000016     0.000300     YES
 Maximum Displacement     0.000083     0.001800     YES
 RMS     Displacement     0.000089     0.001200     YES
 Predicted change in Energy=-2.289180D-09
 Optimization completed.
    -- Stationary point found.
                           ----------------------------
                           !   Optimized Parameters   !
                           ! (Angstroms and Degrees)  !
 --------------------------                            --------------------------
 ! Name  Definition              Value          Derivative Info.                !
 --------------------------------------------------------------------------------
 ! R1    R(1,2)                  0.9688         -DE/DX =    0.0                 !
 ! R2    R(1,3)                  0.9688         -DE/DX =    0.0                 !
 ! A1    A(2,1,3)              103.6422         -DE/DX =    0.0                 !
 --------------------------------------------------------------------------------
 Lowest energy point so far.  Saving SCF results.
 GradGradGradGradGradGradGradGradGradGradGradGradGradGradGradGradGradGrad

 Largest change from initial coordinates is atom    2       0.003 Angstoms.
 Leave Link  103 at Wed Jul  1 22:03:35 2026, MaxMem=  4026531840 cpu:         0.2
 (Enter /home/p20190052/g09/l202.exe)
                          Input orientation:                          
 ---------------------------------------------------------------------
 Center     Atomic      Atomic             Coordinates (Angstroms)
 Number     Number       Type             X           Y           Z
 ---------------------------------------------------------------------
      1          8           0       -0.535744   -0.000000   -0.684468
      2          1           0       -0.535744    0.761520   -0.085665
      3          1           0       -0.535744   -0.761520   -0.085665
 ---------------------------------------------------------------------
                    Distance matrix (angstroms):
                    1          2          3
     1  O    0.000000
     2  H    0.968751   0.000000
     3  H    0.968751   1.523040   0.000000
 Stoichiometry    H2O
 Framework group  C2V[C2(O),SGV(H2)]
 Deg. of freedom     2
 Full point group                 C2V     NOp   4
 RotChk:  IX=0 Diff= 1.01D-15
 Largest Abelian subgroup         C2V     NOp   4
 Largest concise Abelian subgroup C2      NOp   2
                         Standard orientation:                         
 ---------------------------------------------------------------------
 Center     Atomic      Atomic             Coordinates (Angstroms)
 Number     Number       Type             X           Y           Z
 ---------------------------------------------------------------------
      1          8           0       -0.000000    0.000000    0.119761
      2          1           0       -0.000000    0.761520   -0.479043
      3          1           0       -0.000000   -0.761520   -0.479043
 ---------------------------------------------------------------------
 Rotational constants (GHZ):    787.3706373    432.3539870    279.0981075
 Leave Link  202 at Wed Jul  1 22:03:35 2026, MaxMem=  4026531840 cpu:         0.3
 (Enter /home/p20190052/g09/l601.exe)
 Copying SCF densities to generalized density rwf, IOpCl= 0 IROHF=0.

 **********************************************************************

            Population analysis using the SCF density.

 **********************************************************************

 Orbital symmetries:
       Occupied  (A1) (A1) (B2) (A1) (B1)
       Virtual   (A1) (B2) (B2) (A1) (B1) (A1) (B2) (A1) (A1) (A2)
                 (B1) (A1) (B2) (A1)
 The electronic state is 1-A1.
 Alpha  occ. eigenvalues --  -19.13818  -0.99788  -0.51711  -0.37224  -0.29119
 Alpha virt. eigenvalues --    0.06259   0.14811   0.77241   0.86093   0.89078
 Alpha virt. eigenvalues --    0.89510   1.06577   1.19347   1.72908   1.74639
 Alpha virt. eigenvalues --    1.77980   2.28054   2.57704   3.55187
          Condensed to atoms (all electrons):
               1          2          3
     1  O    8.289164   0.242567   0.242567
     2  H    0.242567   0.393697  -0.023413
     3  H    0.242567  -0.023413   0.393697
 Mulliken charges:
               1
     1  O   -0.774297
     2  H    0.387149
     3  H    0.387149
 Sum of Mulliken charges =  -0.00000
 Mulliken charges with hydrogens summed into heavy atoms:
               1
     1  O   -0.000000
 Electronic spatial extent (au):  <R**2>=             19.1868
 Charge=             -0.0000 electrons
 Dipole moment (field-independent basis, Debye):
    X=             -0.0000    Y=              0.0000    Z=             -2.0955  Tot=              2.0955
 Quadrupole moment (field-independent basis, Debye-Ang):
   XX=             -7.2039   YY=             -4.2870   ZZ=             -5.9895
   XY=             -0.0000   XZ=              0.0000   YZ=             -0.0000
 Traceless Quadrupole moment (field-independent basis, Debye-Ang):
   XX=             -1.3771   YY=              1.5398   ZZ=             -0.1627
   XY=             -0.0000   XZ=              0.0000   YZ=             -0.0000
 Octapole moment (field-independent basis, Debye-Ang**2):
  XXX=              0.0000  YYY=              0.0000  ZZZ=             -1.2173  XYY=             -0.0000
  XXY=              0.0000  XXZ=             -0.3236  XZZ=              0.0000  YZZ=             -0.0000
  YYZ=             -1.2129  XYZ=              0.0000
 Hexadecapole moment (field-independent basis, Debye-Ang**3):
 XXXX=             -5.2143 YYYY=             -6.0616 ZZZZ=             -6.2950 XXXY=             -0.0000
 XXXZ=             -0.0000 YYYX=             -0.0000 YYYZ=             -0.0000 ZZZX=              0.0000
 ZZZY=             -0.0000 XXYY=             -2.1174 XXZZ=             -1.9681 YYZZ=             -1.7416
 XXYZ=             -0.0000 YYXZ=              0.0000 ZZXY=             -0.0000
 N-N= 9.087400626069D+00 E-N=-1.987550086312D+02  KE= 7.581946503576D+01
 Symmetry A1   KE= 6.765915341408D+01
 Symmetry A2   KE= 4.950410609641D-35
 Symmetry B1   KE= 4.599950704266D+00
 Symmetry B2   KE= 3.560360917411D+00
 No NMR shielding tensors so no spin-rotation constants.
 Leave Link  601 at Wed Jul  1 22:03:36 2026, MaxMem=  4026531840 cpu:        15.3
 (Enter /home/p20190052/g09/l9999.exe)
 1\1\ WCSS.PL-BEM-NODE1\FOpt\RB3LYP\6-31G(d)\H2O1\P20190052\01-Jul-2026
 \0\\#p opt b3lyp/6-31g(d) geom=connectivity\\H2O b3lyp 6-31G(d)\\0,1\O
 ,-0.53574355,0.,-0.6844681828\H,-0.53574355,0.7615199661,-0.0856649686
 \H,-0.53574355,-0.7615199661,-0.0856649686\\Version=ES64L-G09RevE.01\S
 tate=1-A1\HF=-76.4089533\RMSD=4.068e-09\RMSF=1.107e-05\Dipole=0.,0.,0.
 8244401\Quadrupole=-1.023851,1.144839,-0.1209881,0.,0.,0.\PG=C02V [C2(
 O1),SGV(H2)]\\@


 KEEP CLOSE TO NATURES HEART, YOURSELF;
 AND BREAK CLEAR AWAY, ONCE IN A WHILE, AND
 CLIMB A MOUNTAIN OR SPEND A WEEK IN THE
 WOODS.  WASH YOUR SPIRIT CLEAN...
                                         -- JOHN MUIR
 Job cpu time:       0 days  0 hours  4 minutes 38.9 seconds.
 File lengths (MBytes):  RWF=      5 Int=      0 D2E=      0 Chk=      1 Scr=      1
 Normal termination of Gaussian 09 at Wed Jul  1 22:03:36 2026.
