 Entering Gaussian System, Link 0=g09
 Input=H2O_b3lyp_ccpvdz.gjf
 Output=H2O_b3lyp_ccpvdz.log
 Initial command:
 /home/p20190052/g09/l1.exe "/home/p20190052/g09/scratch/Gau-180998.inp" -scrdir="/home/p20190052/g09/scratch/"
 Entering Link 1 = /home/p20190052/g09/l1.exe PID=    180999.
  
 Copyright (c) 1988,1990,1992,1993,1995,1998,2003,2009,2015,
            Gaussian, Inc.  All Rights Reserved.
  
 This is part of the Gaussian(R) 09 program.  It is based on
 the Gaussian(R) 03 system (copyright 2003, Gaussian, Inc.),
 the Gaussian(R) 98 system (copyright 1998, Gaussian, Inc.),
 the Gaussian(R) 94 system (copyright 1995, Gaussian, Inc.),
 the Gaussian 92(TM) system (copyright 1992, Gaussian, Inc.),
 the Gaussian 90(TM) system (copyright 1990, Gaussian, Inc.),
 the Gaussian 88(TM) system (copyright 1988, Gaussian, Inc.),
 the Gaussian 86(TM) system (copyright 1986, Carnegie Mellon
 University), and the Gaussian 82(TM) system (copyright 1983,
 Carnegie Mellon University). Gaussian is a federally registered
 trademark of Gaussian, Inc.
  
 This software contains proprietary and confidential information,
 including trade secrets, belonging to Gaussian, Inc.
  
 This software is provided under written license and may be
 used, copied, transmitted, or stored only in accord with that
 written license.
  
 The following legend is applicable only to US Government
 contracts under FAR:
  
                    RESTRICTED RIGHTS LEGEND
  
 Use, reproduction and disclosure by the US Government is
 subject to restrictions as set forth in subparagraphs (a)
 and (c) of the Commercial Computer Software - Restricted
 Rights clause in FAR 52.227-19.
  
 Gaussian, Inc.
 340 Quinnipiac St., Bldg. 40, Wallingford CT 06492
  
  
 ---------------------------------------------------------------
 Warning -- This program may not be used in any manner that
 competes with the business of Gaussian, Inc. or will provide
 assistance to any competitor of Gaussian, Inc.  The licensee
 of this program is prohibited from giving any competitor of
 Gaussian, Inc. access to this program.  By using this program,
 the user acknowledges that Gaussian, Inc. is engaged in the
 business of creating and licensing software in the field of
 computational chemistry and represents and warrants to the
 licensee that it is not a competitor of Gaussian, Inc. and that
 it will not use this program in any manner prohibited above.
 ---------------------------------------------------------------
  

 Cite this work as:
 Gaussian 09, Revision E.01,
 M. J. Frisch, G. W. Trucks, H. B. Schlegel, G. E. Scuseria, 
 M. A. Robb, J. R. Cheeseman, G. Scalmani, V. Barone, B. Mennucci, 
 G. A. Petersson, H. Nakatsuji, M. Caricato, X. Li, H. P. Hratchian, 
 A. F. Izmaylov, J. Bloino, G. Zheng, J. L. Sonnenberg, M. Hada, 
 M. Ehara, K. Toyota, R. Fukuda, J. Hasegawa, M. Ishida, T. Nakajima, 
 Y. Honda, O. Kitao, H. Nakai, T. Vreven, J. A. Montgomery, Jr., 
 J. E. Peralta, F. Ogliaro, M. Bearpark, J. J. Heyd, E. Brothers, 
 K. N. Kudin, V. N. Staroverov, T. Keith, R. Kobayashi, J. Normand, 
 K. Raghavachari, A. Rendell, J. C. Burant, S. S. Iyengar, J. Tomasi, 
 M. Cossi, N. Rega, J. M. Millam, M. Klene, J. E. Knox, J. B. Cross, 
 V. Bakken, C. Adamo, J. Jaramillo, R. Gomperts, R. E. Stratmann, 
 O. Yazyev, A. J. Austin, R. Cammi, C. Pomelli, J. W. Ochterski, 
 R. L. Martin, K. Morokuma, V. G. Zakrzewski, G. A. Voth, 
 P. Salvador, J. J. Dannenberg, S. Dapprich, A. D. Daniels, 
 O. Farkas, J. B. Foresman, J. V. Ortiz, J. Cioslowski, 
 and D. J. Fox, Gaussian, Inc., Wallingford CT, 2013.
 
 ******************************************
 Gaussian 09:  ES64L-G09RevE.01 30-Nov-2015
                 1-Jul-2026 
 ******************************************
 %mem=30GB
 %nprocs=40
 Will use up to   40 processors via shared memory.
 %chk=H2O_b3lyp_ccpvdz.chk
 --------------------------------------
 #p opt b3lyp/cc-pvdz geom=connectivity
 --------------------------------------
 1/14=-1,18=20,19=15,26=3,38=1,57=2/1,3;
 2/9=110,12=2,17=6,18=5,40=1/2;
 3/5=16,11=2,16=1,25=1,30=1,71=1,74=-5/1,2,3;
 4//1;
 5/5=2,38=5/2;
 6/7=2,8=2,9=2,10=2,28=1/1;
 7//1,2,3,16;
 1/14=-1,18=20,19=15,26=3/3(2);
 2/9=110/2;
 99//99;
 2/9=110/2;
 3/5=16,11=2,16=1,25=1,30=1,71=1,74=-5/1,2,3;
 4/5=5,16=3,69=1/1;
 5/5=2,38=5/2;
 7//1,2,3,16;
 1/14=-1,18=20,19=15,26=3/3(-5);
 2/9=110/2;
 6/7=2,8=2,9=2,10=2,19=2,28=1/1;
 99/9=1/99;
 Leave Link    1 at Wed Jul  1 22:03:36 2026, MaxMem=  4026531840 cpu:         2.2
 (Enter /home/p20190052/g09/l101.exe)
 ------------------
 H2O b3lyp 6-31G(d)
 ------------------
 Symbolic Z-matrix:
 Charge =  0 Multiplicity = 1
 O                    -0.53574   0.       -0.68263 
 H                    -0.53574   0.75934  -0.08659 
 H                    -0.53574  -0.75934  -0.08659 
 
 NAtoms=      3 NQM=        3 NQMF=       0 NMMI=      0 NMMIF=      0
                NMic=       0 NMicF=      0.
                    Isotopes and Nuclear Properties:
 (Nuclear quadrupole moments (NQMom) in fm**2, nuclear magnetic moments (NMagM)
  in nuclear magnetons)

  Atom         1           2           3
 IAtWgt=          16           1           1
 AtmWgt=  15.9949146   1.0078250   1.0078250
 NucSpn=           0           1           1
 AtZEff=   0.0000000   0.0000000   0.0000000
 NQMom=    0.0000000   0.0000000   0.0000000
 NMagM=    0.0000000   2.7928460   2.7928460
 AtZNuc=   8.0000000   1.0000000   1.0000000
 Leave Link  101 at Wed Jul  1 22:03:36 2026, MaxMem=  4026531840 cpu:        12.3
 (Enter /home/p20190052/g09/l103.exe)

 GradGradGradGradGradGradGradGradGradGradGradGradGradGradGradGradGradGrad
 Berny optimization.
 Initialization pass.
                           ----------------------------
                           !    Initial Parameters    !
                           ! (Angstroms and Degrees)  !
 --------------------------                            --------------------------
 ! Name  Definition              Value          Derivative Info.                !
 --------------------------------------------------------------------------------
 ! R1    R(1,2)                  0.9653         estimate D2E/DX2                !
 ! R2    R(1,3)                  0.9653         estimate D2E/DX2                !
 ! A1    A(2,1,3)              103.7396         estimate D2E/DX2                !
 --------------------------------------------------------------------------------
 Trust Radius=3.00D-01 FncErr=1.00D-07 GrdErr=1.00D-06
 Number of steps in this run=     20 maximum allowed number of steps=    100.
 GradGradGradGradGradGradGradGradGradGradGradGradGradGradGradGradGradGrad

 Leave Link  103 at Wed Jul  1 22:03:36 2026, MaxMem=  4026531840 cpu:         0.2
 (Enter /home/p20190052/g09/l202.exe)
                          Input orientation:                          
 ---------------------------------------------------------------------
 Center     Atomic      Atomic             Coordinates (Angstroms)
 Number     Number       Type             X           Y           Z
 ---------------------------------------------------------------------
      1          8           0       -0.535744    0.000000   -0.682628
      2          1           0       -0.535744    0.759337   -0.086585
      3          1           0       -0.535744   -0.759337   -0.086585
 ---------------------------------------------------------------------
                    Distance matrix (angstroms):
                    1          2          3
     1  O    0.000000
     2  H    0.965329   0.000000
     3  H    0.965329   1.518674   0.000000
 Stoichiometry    H2O
 Framework group  C2V[C2(O),SGV(H2)]
 Deg. of freedom     2
 Full point group                 C2V     NOp   4
 Largest Abelian subgroup         C2V     NOp   4
 Largest concise Abelian subgroup C2      NOp   2
                         Standard orientation:                         
 ---------------------------------------------------------------------
 Center     Atomic      Atomic             Coordinates (Angstroms)
 Number     Number       Type             X           Y           Z
 ---------------------------------------------------------------------
      1          8           0       -0.000000    0.000000    0.119209
      2          1           0        0.000000    0.759337   -0.476834
      3          1           0       -0.000000   -0.759337   -0.476834
 ---------------------------------------------------------------------
 Rotational constants (GHZ):    794.6799884    434.8434502    281.0531114
 Leave Link  202 at Wed Jul  1 22:03:36 2026, MaxMem=  4026531840 cpu:         0.3
 (Enter /home/p20190052/g09/l301.exe)
 Standard basis: CC-pVDZ (5D, 7F)
 Ernie: Thresh=  0.10000D-02 Tol=  0.10000D-05 Strict=F.
 Ernie:  2 primitive shells out of 32 were deleted.
 There are    12 symmetry adapted cartesian basis functions of A1  symmetry.
 There are     2 symmetry adapted cartesian basis functions of A2  symmetry.
 There are     4 symmetry adapted cartesian basis functions of B1  symmetry.
 There are     7 symmetry adapted cartesian basis functions of B2  symmetry.
 There are    11 symmetry adapted basis functions of A1  symmetry.
 There are     2 symmetry adapted basis functions of A2  symmetry.
 There are     4 symmetry adapted basis functions of B1  symmetry.
 There are     7 symmetry adapted basis functions of B2  symmetry.
    24 basis functions,    47 primitive gaussians,    25 cartesian basis functions
     5 alpha electrons        5 beta electrons
       nuclear repulsion energy         9.1193798695 Hartrees.
 IExCor=  402 DFT=T Ex+Corr=B3LYP ExCW=0 ScaHFX=  0.200000
 ScaDFX=  0.800000  0.720000  1.000000  0.810000 ScalE2=  1.000000  1.000000
 IRadAn=      0 IRanWt=     -1 IRanGd=            0 ICorTp=0 IEmpDi=  4
 NAtoms=    3 NActive=    3 NUniq=    2 SFac= 2.25D+00 NAtFMM=   60 NAOKFM=F Big=F
 Integral buffers will be    131072 words long.
 Raffenetti 2 integral format.
 Two-electron integral symmetry is turned on.
 Leave Link  301 at Wed Jul  1 22:03:37 2026, MaxMem=  4026531840 cpu:         2.0
 (Enter /home/p20190052/g09/l302.exe)
 NPDir=0 NMtPBC=     1 NCelOv=     1 NCel=       1 NClECP=     1 NCelD=      1
         NCelK=      1 NCelE2=     1 NClLst=     1 CellRange=     0.0.
 One-electron integrals computed using PRISM.
 One-electron integral symmetry used in STVInt
 NBasis=    24 RedAO= T EigKep=  5.48D-02  NBF=    11     2     4     7
 NBsUse=    24 1.00D-06 EigRej= -1.00D+00 NBFU=    11     2     4     7
 Precomputing XC quadrature grid using
 IXCGrd= 4 IRadAn=           0 IRanWt=          -1 IRanGd=           0 AccXCQ= 0.00D+00.
 Generated NRdTot=       0 NPtTot=           0 NUsed=           0 NTot=          32
 NSgBfM=    25    25    25    25    25 MxSgAt=     3 MxSgA2=     3.
 Leave Link  302 at Wed Jul  1 22:03:37 2026, MaxMem=  4026531840 cpu:        14.2
 (Enter /home/p20190052/g09/l303.exe)
 DipDrv:  MaxL=1.
 Leave Link  303 at Wed Jul  1 22:03:37 2026, MaxMem=  4026531840 cpu:         6.8
 (Enter /home/p20190052/g09/l401.exe)
 ExpMin= 1.22D-01 ExpMax= 1.17D+04 ExpMxC= 4.01D+02 IAcc=1 IRadAn=         1 AccDes= 0.00D+00
 Harris functional with IExCor=  402 and IRadAn=       1 diagonalized for initial guess.
 HarFok:  IExCor=  402 AccDes= 0.00D+00 IRadAn=         1 IDoV= 1 UseB2=F ITyADJ=14
 ICtDFT=  3500011 ScaDFX=  1.000000  1.000000  1.000000  1.000000
 FoFCou: FMM=F IPFlag=           0 FMFlag=      100000 FMFlg1=           0
         NFxFlg=           0 DoJE=T BraDBF=F KetDBF=T FulRan=T
         wScrn=  0.000000 ICntrl=     500 IOpCl=  0 I1Cent=   200000004 NGrid=           0
         NMat0=    1 NMatS0=      1 NMatT0=    0 NMatD0=    1 NMtDS0=    0 NMtDT0=    0
 Petite list used in FoFCou.
 Harris En= -76.4593942275063    
 JPrj=0 DoOrth=F DoCkMO=F.
 Initial guess orbital symmetries:
       Occupied  (A1) (A1) (B2) (A1) (B1)
       Virtual   (A1) (B2) (B2) (A1) (B1) (A1) (B2) (A1) (A2) (B1)
                 (A1) (B2) (B2) (A1) (B1) (A2) (A1) (A1) (B2)
 The electronic state of the initial guess is 1-A1.
 Leave Link  401 at Wed Jul  1 22:03:38 2026, MaxMem=  4026531840 cpu:        15.3
 (Enter /home/p20190052/g09/l502.exe)
 Closed shell SCF:
 Using DIIS extrapolation, IDIIS=  1040.
 Integral symmetry usage will be decided dynamically.
 Keep R1 ints in memory in symmetry-blocked form, NReq=927741.
 IVT=       21689 IEndB=       21689 NGot=  4026531840 MDV=  4026496453
 LenX=  4026496453 LenY=  4026495387
 Requested convergence on RMS density matrix=1.00D-08 within 128 cycles.
 Requested convergence on MAX density matrix=1.00D-06.
 Requested convergence on             energy=1.00D-06.
 No special actions if energy rises.
 FoFCou: FMM=F IPFlag=           0 FMFlag=           0 FMFlg1=           0
         NFxFlg=           0 DoJE=F BraDBF=F KetDBF=F FulRan=T
         wScrn=  0.000000 ICntrl=     600 IOpCl=  0 I1Cent=           0 NGrid=           0
         NMat0=    1 NMatS0=    300 NMatT0=    0 NMatD0=    1 NMtDS0=    0 NMtDT0=    0
 Petite list used in FoFCou.
 Integral accuracy reduced to 1.0D-05 until final iterations.

 Cycle   1  Pass 0  IDiag  1:
 E= -76.3404800792965    
 DIIS: error= 7.95D-02 at cycle   1 NSaved=   1.
 NSaved= 1 IEnMin= 1 EnMin= -76.3404800792965     IErMin= 1 ErrMin= 7.95D-02
 ErrMax= 7.95D-02  0.00D+00 EMaxC= 1.00D-01 BMatC= 1.08D-01 BMatP= 1.08D-01
 IDIUse=3 WtCom= 2.05D-01 WtEn= 7.95D-01
 Coeff-Com:  0.100D+01
 Coeff-En:   0.100D+01
 Coeff:      0.100D+01
 Gap=     0.190 Goal=   None    Shift=    0.000
 GapD=    0.190 DampG=1.000 DampE=0.500 DampFc=0.5000 IDamp=-1.
 Damping current iteration by 5.00D-01
 RMSDP=1.91D-02 MaxDP=1.68D-01              OVMax= 2.07D-01

 Cycle   2  Pass 0  IDiag  1:
 E= -76.3685697351440     Delta-E=       -0.028089655848 Rises=F Damp=T
 DIIS: error= 1.81D-02 at cycle   2 NSaved=   2.
 NSaved= 2 IEnMin= 2 EnMin= -76.3685697351440     IErMin= 2 ErrMin= 1.81D-02
 ErrMax= 1.81D-02  0.00D+00 EMaxC= 1.00D-01 BMatC= 5.67D-03 BMatP= 1.08D-01
 IDIUse=3 WtCom= 8.19D-01 WtEn= 1.81D-01
 Coeff-Com:  0.175D+00 0.825D+00
 Coeff-En:   0.291D+00 0.709D+00
 Coeff:      0.196D+00 0.804D+00
 Gap=     0.325 Goal=   None    Shift=    0.000
 RMSDP=1.98D-03 MaxDP=2.02D-02 DE=-2.81D-02 OVMax= 1.14D-01

 Cycle   3  Pass 0  IDiag  1:
 E= -76.4204794366378     Delta-E=       -0.051909701494 Rises=F Damp=F
 DIIS: error= 2.75D-03 at cycle   3 NSaved=   3.
 NSaved= 3 IEnMin= 3 EnMin= -76.4204794366378     IErMin= 3 ErrMin= 2.75D-03
 ErrMax= 2.75D-03  0.00D+00 EMaxC= 1.00D-01 BMatC= 1.60D-04 BMatP= 5.67D-03
 IDIUse=3 WtCom= 9.73D-01 WtEn= 2.75D-02
 Coeff-Com:  0.348D-01-0.319D-02 0.968D+00
 Coeff-En:   0.000D+00 0.000D+00 0.100D+01
 Coeff:      0.338D-01-0.311D-02 0.969D+00
 Gap=     0.338 Goal=   None    Shift=    0.000
 RMSDP=3.02D-04 MaxDP=2.60D-03 DE=-5.19D-02 OVMax= 2.74D-03

 Cycle   4  Pass 0  IDiag  1:
 E= -76.4205858749369     Delta-E=       -0.000106438299 Rises=F Damp=F
 DIIS: error= 3.05D-04 at cycle   4 NSaved=   4.
 NSaved= 4 IEnMin= 4 EnMin= -76.4205858749369     IErMin= 4 ErrMin= 3.05D-04
 ErrMax= 3.05D-04  0.00D+00 EMaxC= 1.00D-01 BMatC= 2.00D-06 BMatP= 1.60D-04
 IDIUse=3 WtCom= 9.97D-01 WtEn= 3.05D-03
 Coeff-Com:  0.521D-02-0.194D-01 0.221D+00 0.793D+00
 Coeff-En:   0.000D+00 0.000D+00 0.000D+00 0.100D+01
 Coeff:      0.520D-02-0.193D-01 0.221D+00 0.793D+00
 Gap=     0.338 Goal=   None    Shift=    0.000
 RMSDP=2.63D-05 MaxDP=2.01D-04 DE=-1.06D-04 OVMax= 2.54D-04

 Cycle   5  Pass 0  IDiag  1:
 E= -76.4205871236923     Delta-E=       -0.000001248755 Rises=F Damp=F
 DIIS: error= 5.44D-05 at cycle   5 NSaved=   5.
 NSaved= 5 IEnMin= 5 EnMin= -76.4205871236923     IErMin= 5 ErrMin= 5.44D-05
 ErrMax= 5.44D-05  0.00D+00 EMaxC= 1.00D-01 BMatC= 4.60D-08 BMatP= 2.00D-06
 IDIUse=1 WtCom= 1.00D+00 WtEn= 0.00D+00
 Coeff-Com:  0.591D-03-0.686D-03 0.257D-02-0.282D-02 0.100D+01
 Coeff:      0.591D-03-0.686D-03 0.257D-02-0.282D-02 0.100D+01
 Gap=     0.338 Goal=   None    Shift=    0.000
 RMSDP=4.59D-06 MaxDP=5.11D-05 DE=-1.25D-06 OVMax= 4.91D-05

 Initial convergence to 1.0D-05 achieved.  Increase integral accuracy.
 Cycle   6  Pass 1  IDiag  1:
 E= -76.4205877117579     Delta-E=       -0.000000588066 Rises=F Damp=F
 DIIS: error= 2.86D-06 at cycle   1 NSaved=   1.
 NSaved= 1 IEnMin= 1 EnMin= -76.4205877117579     IErMin= 1 ErrMin= 2.86D-06
 ErrMax= 2.86D-06  0.00D+00 EMaxC= 1.00D-01 BMatC= 1.25D-10 BMatP= 1.25D-10
 IDIUse=1 WtCom= 1.00D+00 WtEn= 0.00D+00
 Coeff-Com:  0.100D+01
 Coeff:      0.100D+01
 Gap=     0.338 Goal=   None    Shift=    0.000
 RMSDP=4.59D-06 MaxDP=5.11D-05 DE=-5.88D-07 OVMax= 6.10D-06

 Cycle   7  Pass 1  IDiag  1:
 E= -76.4205877118497     Delta-E=       -0.000000000092 Rises=F Damp=F
 DIIS: error= 1.30D-06 at cycle   2 NSaved=   2.
 NSaved= 2 IEnMin= 2 EnMin= -76.4205877118497     IErMin= 2 ErrMin= 1.30D-06
 ErrMax= 1.30D-06  0.00D+00 EMaxC= 1.00D-01 BMatC= 2.98D-11 BMatP= 1.25D-10
 IDIUse=1 WtCom= 1.00D+00 WtEn= 0.00D+00
 Coeff-Com:  0.242D+00 0.758D+00
 Coeff:      0.242D+00 0.758D+00
 Gap=     0.338 Goal=   None    Shift=    0.000
 RMSDP=2.17D-07 MaxDP=2.02D-06 DE=-9.18D-11 OVMax= 2.57D-06

 Cycle   8  Pass 1  IDiag  1:
 E= -76.4205877118572     Delta-E=       -0.000000000008 Rises=F Damp=F
 DIIS: error= 1.05D-06 at cycle   3 NSaved=   3.
 NSaved= 3 IEnMin= 3 EnMin= -76.4205877118572     IErMin= 3 ErrMin= 1.05D-06
 ErrMax= 1.05D-06  0.00D+00 EMaxC= 1.00D-01 BMatC= 1.89D-11 BMatP= 2.98D-11
 IDIUse=1 WtCom= 1.00D+00 WtEn= 0.00D+00
 Coeff-Com: -0.121D-01 0.444D+00 0.568D+00
 Coeff:     -0.121D-01 0.444D+00 0.568D+00
 Gap=     0.338 Goal=   None    Shift=    0.000
 RMSDP=1.07D-07 MaxDP=1.01D-06 DE=-7.56D-12 OVMax= 1.06D-06

 Cycle   9  Pass 1  IDiag  1:
 E= -76.4205877118706     Delta-E=       -0.000000000013 Rises=F Damp=F
 DIIS: error= 4.00D-08 at cycle   4 NSaved=   4.
 NSaved= 4 IEnMin= 4 EnMin= -76.4205877118706     IErMin= 4 ErrMin= 4.00D-08
 ErrMax= 4.00D-08  0.00D+00 EMaxC= 1.00D-01 BMatC= 3.88D-14 BMatP= 1.89D-11
 IDIUse=1 WtCom= 1.00D+00 WtEn= 0.00D+00
 Coeff-Com: -0.669D-02 0.101D+00 0.147D+00 0.758D+00
 Coeff:     -0.669D-02 0.101D+00 0.147D+00 0.758D+00
 Gap=     0.338 Goal=   None    Shift=    0.000
 RMSDP=4.31D-09 MaxDP=2.10D-08 DE=-1.34D-11 OVMax= 4.33D-08

 SCF Done:  E(RB3LYP) =  -76.4205877119     A.U. after    9 cycles
            NFock=  9  Conv=0.43D-08     -V/T= 2.0050
 KE= 7.603674583899D+01 PE=-1.991228881393D+02 EE= 3.754617471894D+01
 Leave Link  502 at Wed Jul  1 22:03:38 2026, MaxMem=  4026531840 cpu:         9.1
 (Enter /home/p20190052/g09/l601.exe)
 Copying SCF densities to generalized density rwf, IOpCl= 0 IROHF=0.

 **********************************************************************

            Population analysis using the SCF density.

 **********************************************************************

 Orbital symmetries:
       Occupied  (A1) (A1) (B2) (A1) (B1)
       Virtual   (A1) (B2) (B2) (A1) (A1) (B1) (B2) (A1) (A2) (B1)
                 (A1) (B2) (B2) (A1) (B1) (A2) (A1) (A1) (B2)
 The electronic state is 1-A1.
 Alpha  occ. eigenvalues --  -19.12368  -0.99250  -0.50979  -0.36564  -0.28768
 Alpha virt. eigenvalues --    0.05019   0.12606   0.55443   0.61077   0.90249
 Alpha virt. eigenvalues --    0.91850   0.99551   1.19902   1.23395   1.42229
 Alpha virt. eigenvalues --    1.59251   1.66764   2.09881   2.13772   2.91878
 Alpha virt. eigenvalues --    2.95677   3.12616   3.45504   3.73357
          Condensed to atoms (all electrons):
               1          2          3
     1  O    7.555295   0.353054   0.353054
     2  H    0.353054   0.557696  -0.041451
     3  H    0.353054  -0.041451   0.557696
 Mulliken charges:
               1
     1  O   -0.261403
     2  H    0.130702
     3  H    0.130702
 Sum of Mulliken charges =  -0.00000
 Mulliken charges with hydrogens summed into heavy atoms:
               1
     1  O   -0.000000
 Electronic spatial extent (au):  <R**2>=             18.9293
 Charge=             -0.0000 electrons
 Dipole moment (field-independent basis, Debye):
    X=             -0.0000    Y=              0.0000    Z=             -1.9234  Tot=              1.9234
 Quadrupole moment (field-independent basis, Debye-Ang):
   XX=             -6.9935   YY=             -4.2973   ZZ=             -5.9004
   XY=              0.0000   XZ=              0.0000   YZ=              0.0000
 Traceless Quadrupole moment (field-independent basis, Debye-Ang):
   XX=             -1.2631   YY=              1.4331   ZZ=             -0.1700
   XY=              0.0000   XZ=              0.0000   YZ=              0.0000
 Octapole moment (field-independent basis, Debye-Ang**2):
  XXX=              0.0000  YYY=              0.0000  ZZZ=             -0.9963  XYY=              0.0000
  XXY=             -0.0000  XXZ=             -0.2456  XZZ=              0.0000  YZZ=              0.0000
  YYZ=             -1.1164  XYZ=             -0.0000
 Hexadecapole moment (field-independent basis, Debye-Ang**3):
 XXXX=             -4.8294 YYYY=             -6.0979 ZZZZ=             -6.0008 XXXY=             -0.0000
 XXXZ=             -0.0000 YYYX=             -0.0000 YYYZ=             -0.0000 ZZZX=             -0.0000
 ZZZY=              0.0000 XXYY=             -2.0875 XXZZ=             -1.8602 YYZZ=             -1.6781
 XXYZ=              0.0000 YYXZ=              0.0000 ZZXY=             -0.0000
 N-N= 9.119379869505D+00 E-N=-1.991228874641D+02  KE= 7.603674583899D+01
 Symmetry A1   KE= 6.790571988015D+01
 Symmetry A2   KE= 8.365505559189D-35
 Symmetry B1   KE= 4.605817919769D+00
 Symmetry B2   KE= 3.525208039065D+00
 No NMR shielding tensors so no spin-rotation constants.
 Leave Link  601 at Wed Jul  1 22:03:38 2026, MaxMem=  4026531840 cpu:        17.3
 (Enter /home/p20190052/g09/l701.exe)
 Compute integral first derivatives.
 ... and contract with generalized density number  0.
 Leave Link  701 at Wed Jul  1 22:03:39 2026, MaxMem=  4026531840 cpu:        18.0
 (Enter /home/p20190052/g09/l702.exe)
 L702 exits ... SP integral derivatives will be done elsewhere.
 Leave Link  702 at Wed Jul  1 22:03:39 2026, MaxMem=  4026531840 cpu:         0.6
 (Enter /home/p20190052/g09/l703.exe)
 Compute integral first derivatives, UseDBF=F ICtDFT=           0.
 Integral derivatives from FoFJK, PRISM(SPDF).
 Calling FoFJK, ICntrl=      2127 FMM=F ISym2X=1 I1Cent= 0 IOpClX= 0 NMat=1 NMatS=1 NMatT=0.
 FoFJK:  IHMeth= 1 ICntrl=    2127 DoSepK=F KAlg= 0 I1Cent=   0 FoldK=F
 IRaf=         0 NMat=   1 IRICut=       1 DoRegI=T DoRafI=F ISym2E= 1.
 FoFCou: FMM=F IPFlag=           0 FMFlag=      100000 FMFlg1=         800
         NFxFlg=           0 DoJE=F BraDBF=F KetDBF=F FulRan=T
         wScrn=  0.000000 ICntrl=    2127 IOpCl=  0 I1Cent=           0 NGrid=           0
         NMat0=    1 NMatS0=      1 NMatT0=    0 NMatD0=    1 NMtDS0=    0 NMtDT0=    0
 Petite list used in FoFCou.
 Leave Link  703 at Wed Jul  1 22:03:39 2026, MaxMem=  4026531840 cpu:         8.0
 (Enter /home/p20190052/g09/l716.exe)
 Dipole        =-1.20296196D-17 0.00000000D+00-7.56742745D-01
 ***** Axes restored to original set *****
 -------------------------------------------------------------------
 Center     Atomic                   Forces (Hartrees/Bohr)
 Number     Number              X              Y              Z
 -------------------------------------------------------------------
      1        8           0.000000000   -0.000000000   -0.005480517
      2        1          -0.000000000    0.001266785    0.002740258
      3        1          -0.000000000   -0.001266785    0.002740258
 -------------------------------------------------------------------
 Cartesian Forces:  Max     0.005480517 RMS     0.002315733
 Leave Link  716 at Wed Jul  1 22:03:39 2026, MaxMem=  4026531840 cpu:         1.2
 (Enter /home/p20190052/g09/l103.exe)

 GradGradGradGradGradGradGradGradGradGradGradGradGradGradGradGradGradGrad
 Berny optimization.
 FormGI is forming the generalized inverse of G from B-inverse, IUseBI=4.
 Internal  Forces:  Max     0.002688440 RMS     0.002628795
 Search for a local minimum.
 Step number   1 out of a maximum of   20
 All quantities printed in internal units (Hartrees-Bohrs-Radians)
 RMS Force = .26288D-02 SwitMx=.10000D-02 MixMth= 1
 Mixed Optimization -- RFO/linear search
 Second derivative matrix not updated -- first step.
 The second derivative matrix:
                          R1        R2        A1
           R1           0.54343
           R2           0.00000   0.54343
           A1           0.00000   0.00000   0.16000
 ITU=  0
     Eigenvalues ---    0.16000   0.54343   0.54343
 RFO step:  Lambda=-6.58078060D-05 EMin= 1.60000000D-01
 Linear search not attempted -- first point.
 Iteration  1 RMS(Cart)=  0.00784213 RMS(Int)=  0.00005172
 Iteration  2 RMS(Cart)=  0.00005545 RMS(Int)=  0.00000000
 Iteration  3 RMS(Cart)=  0.00000000 RMS(Int)=  0.00000000
 ITry= 1 IFail=0 DXMaxC= 9.52D-03 DCOld= 1.00D+10 DXMaxT= 3.00D-01 DXLimC= 3.00D+00 Rises=F
 ClnCor:  largest displacement from symmetrization is 8.50D-16 for atom     3.
 Variable       Old X    -DE/DX   Delta X   Delta X   Delta X     New X
                                 (Linear)    (Quad)   (Total)
    R1        1.82421   0.00269   0.00000   0.00495   0.00495   1.82915
    R2        1.82421   0.00269   0.00000   0.00495   0.00495   1.82915
    A1        1.81060  -0.00251   0.00000  -0.01565  -0.01565   1.79495
         Item               Value     Threshold  Converged?
 Maximum Force            0.002688     0.000450     NO 
 RMS     Force            0.002629     0.000300     NO 
 Maximum Displacement     0.009520     0.001800     NO 
 RMS     Displacement     0.007869     0.001200     NO 
 Predicted change in Energy=-3.291358D-05
 Lowest energy point so far.  Saving SCF results.
 GradGradGradGradGradGradGradGradGradGradGradGradGradGradGradGradGradGrad

 Leave Link  103 at Wed Jul  1 22:03:39 2026, MaxMem=  4026531840 cpu:         0.3
 (Enter /home/p20190052/g09/l202.exe)
                          Input orientation:                          
 ---------------------------------------------------------------------
 Center     Atomic      Atomic             Coordinates (Angstroms)
 Number     Number       Type             X           Y           Z
 ---------------------------------------------------------------------
      1          8           0       -0.535744   -0.000000   -0.687666
      2          1           0       -0.535744    0.756696   -0.084066
      3          1           0       -0.535744   -0.756696   -0.084066
 ---------------------------------------------------------------------
                    Distance matrix (angstroms):
                    1          2          3
     1  O    0.000000
     2  H    0.967947   0.000000
     3  H    0.967947   1.513391   0.000000
 Stoichiometry    H2O
 Framework group  C2V[C2(O),SGV(H2)]
 Deg. of freedom     2
 Full point group                 C2V     NOp   4
 RotChk:  IX=0 Diff= 4.44D-16
 Largest Abelian subgroup         C2V     NOp   4
 Largest concise Abelian subgroup C2      NOp   2
                         Standard orientation:                         
 ---------------------------------------------------------------------
 Center     Atomic      Atomic             Coordinates (Angstroms)
 Number     Number       Type             X           Y           Z
 ---------------------------------------------------------------------
      1          8           0        0.000000    0.000000    0.120720
      2          1           0        0.000000    0.756696   -0.482879
      3          1           0       -0.000000   -0.756696   -0.482879
 ---------------------------------------------------------------------
 Rotational constants (GHZ):    774.9076537    437.8844716    279.7841620
 Leave Link  202 at Wed Jul  1 22:03:39 2026, MaxMem=  4026531840 cpu:         0.3
 (Enter /home/p20190052/g09/l301.exe)
 Standard basis: CC-pVDZ (5D, 7F)
 Ernie: Thresh=  0.10000D-02 Tol=  0.10000D-05 Strict=F.
 Ernie:  2 primitive shells out of 32 were deleted.
 There are    12 symmetry adapted cartesian basis functions of A1  symmetry.
 There are     2 symmetry adapted cartesian basis functions of A2  symmetry.
 There are     4 symmetry adapted cartesian basis functions of B1  symmetry.
 There are     7 symmetry adapted cartesian basis functions of B2  symmetry.
 There are    11 symmetry adapted basis functions of A1  symmetry.
 There are     2 symmetry adapted basis functions of A2  symmetry.
 There are     4 symmetry adapted basis functions of B1  symmetry.
 There are     7 symmetry adapted basis functions of B2  symmetry.
    24 basis functions,    47 primitive gaussians,    25 cartesian basis functions
     5 alpha electrons        5 beta electrons
       nuclear repulsion energy         9.0968769006 Hartrees.
 IExCor=  402 DFT=T Ex+Corr=B3LYP ExCW=0 ScaHFX=  0.200000
 ScaDFX=  0.800000  0.720000  1.000000  0.810000 ScalE2=  1.000000  1.000000
 IRadAn=      0 IRanWt=     -1 IRanGd=            0 ICorTp=0 IEmpDi=  4
 NAtoms=    3 NActive=    3 NUniq=    2 SFac= 2.25D+00 NAtFMM=   60 NAOKFM=F Big=F
 Integral buffers will be    131072 words long.
 Raffenetti 2 integral format.
 Two-electron integral symmetry is turned on.
 Leave Link  301 at Wed Jul  1 22:03:40 2026, MaxMem=  4026531840 cpu:         1.9
 (Enter /home/p20190052/g09/l302.exe)
 NPDir=0 NMtPBC=     1 NCelOv=     1 NCel=       1 NClECP=     1 NCelD=      1
         NCelK=      1 NCelE2=     1 NClLst=     1 CellRange=     0.0.
 One-electron integrals computed using PRISM.
 One-electron integral symmetry used in STVInt
 NBasis=    24 RedAO= T EigKep=  5.50D-02  NBF=    11     2     4     7
 NBsUse=    24 1.00D-06 EigRej= -1.00D+00 NBFU=    11     2     4     7
 Precomputing XC quadrature grid using
 IXCGrd= 4 IRadAn=           0 IRanWt=          -1 IRanGd=           0 AccXCQ= 0.00D+00.
 Generated NRdTot=       0 NPtTot=           0 NUsed=           0 NTot=          32
 NSgBfM=    25    25    25    25    25 MxSgAt=     3 MxSgA2=     3.
 Leave Link  302 at Wed Jul  1 22:03:40 2026, MaxMem=  4026531840 cpu:        14.8
 (Enter /home/p20190052/g09/l303.exe)
 DipDrv:  MaxL=1.
 Leave Link  303 at Wed Jul  1 22:03:40 2026, MaxMem=  4026531840 cpu:         1.6
 (Enter /home/p20190052/g09/l401.exe)
 Initial guess from the checkpoint file:  "H2O_b3lyp_ccpvdz.chk"
 B after Tr=    -0.000000   -0.000000   -0.000000
         Rot=    1.000000   -0.000000    0.000000   -0.000000 Ang=   0.00 deg.
 Guess basis will be translated and rotated to current coordinates.
 JPrj=2 DoOrth=T DoCkMO=T.
 Initial guess orbital symmetries:
       Occupied  (A1) (A1) (B2) (A1) (B1)
       Virtual   (A1) (A1) (A1) (A1) (A1) (A1) (A1) (A1) (A2) (A2)
                 (B1) (B1) (B1) (B2) (B2) (B2) (B2) (B2) (B2)
 The electronic state of the initial guess is 1-A1.
 Leave Link  401 at Wed Jul  1 22:03:40 2026, MaxMem=  4026531840 cpu:         2.7
 (Enter /home/p20190052/g09/l502.exe)
 Closed shell SCF:
 Using DIIS extrapolation, IDIIS=  1040.
 Integral symmetry usage will be decided dynamically.
 Keep R1 ints in memory in symmetry-blocked form, NReq=927741.
 IVT=       21689 IEndB=       21689 NGot=  4026531840 MDV=  4026496453
 LenX=  4026496453 LenY=  4026495387
 Requested convergence on RMS density matrix=1.00D-08 within 128 cycles.
 Requested convergence on MAX density matrix=1.00D-06.
 Requested convergence on             energy=1.00D-06.
 No special actions if energy rises.
 FoFCou: FMM=F IPFlag=           0 FMFlag=           0 FMFlg1=           0
         NFxFlg=           0 DoJE=F BraDBF=F KetDBF=F FulRan=T
         wScrn=  0.000000 ICntrl=     600 IOpCl=  0 I1Cent=           0 NGrid=           0
         NMat0=    1 NMatS0=    300 NMatT0=    0 NMatD0=    1 NMtDS0=    0 NMtDT0=    0
 Petite list used in FoFCou.

 Cycle   1  Pass 1  IDiag  1:
 E= -76.4206071383959    
 DIIS: error= 6.25D-04 at cycle   1 NSaved=   1.
 NSaved= 1 IEnMin= 1 EnMin= -76.4206071383959     IErMin= 1 ErrMin= 6.25D-04
 ErrMax= 6.25D-04  0.00D+00 EMaxC= 1.00D-01 BMatC= 1.29D-05 BMatP= 1.29D-05
 IDIUse=3 WtCom= 9.94D-01 WtEn= 6.25D-03
 Coeff-Com:  0.100D+01
 Coeff-En:   0.100D+01
 Coeff:      0.100D+01
 Gap=     1.082 Goal=   None    Shift=    0.000
 RMSDP=2.86D-04 MaxDP=2.43D-03              OVMax= 2.06D-03

 Cycle   2  Pass 1  IDiag  1:
 E= -76.4206242743662     Delta-E=       -0.000017135970 Rises=F Damp=F
 DIIS: error= 3.30D-04 at cycle   2 NSaved=   2.
 NSaved= 2 IEnMin= 2 EnMin= -76.4206242743662     IErMin= 2 ErrMin= 3.30D-04
 ErrMax= 3.30D-04  0.00D+00 EMaxC= 1.00D-01 BMatC= 1.79D-06 BMatP= 1.29D-05
 IDIUse=3 WtCom= 9.97D-01 WtEn= 3.30D-03
 Coeff-Com:  0.146D+00 0.854D+00
 Coeff-En:   0.000D+00 0.100D+01
 Coeff:      0.145D+00 0.855D+00
 Gap=     0.338 Goal=   None    Shift=    0.000
 RMSDP=5.79D-05 MaxDP=5.92D-04 DE=-1.71D-05 OVMax= 5.70D-04

 Cycle   3  Pass 1  IDiag  1:
 E= -76.4206243253998     Delta-E=       -0.000000051034 Rises=F Damp=F
 DIIS: error= 3.07D-04 at cycle   3 NSaved=   3.
 NSaved= 3 IEnMin= 3 EnMin= -76.4206243253998     IErMin= 3 ErrMin= 3.07D-04
 ErrMax= 3.07D-04  0.00D+00 EMaxC= 1.00D-01 BMatC= 1.70D-06 BMatP= 1.79D-06
 IDIUse=3 WtCom= 9.97D-01 WtEn= 3.07D-03
 Coeff-Com: -0.199D-01 0.499D+00 0.521D+00
 Coeff-En:   0.000D+00 0.491D+00 0.509D+00
 Coeff:     -0.198D-01 0.499D+00 0.521D+00
 Gap=     0.337 Goal=   None    Shift=    0.000
 RMSDP=3.27D-05 MaxDP=3.00D-04 DE=-5.10D-08 OVMax= 3.40D-04

 Cycle   4  Pass 1  IDiag  1:
 E= -76.4206255300669     Delta-E=       -0.000001204667 Rises=F Damp=F
 DIIS: error= 1.97D-05 at cycle   4 NSaved=   4.
 NSaved= 4 IEnMin= 4 EnMin= -76.4206255300669     IErMin= 4 ErrMin= 1.97D-05
 ErrMax= 1.97D-05  0.00D+00 EMaxC= 1.00D-01 BMatC= 8.55D-09 BMatP= 1.70D-06
 IDIUse=1 WtCom= 1.00D+00 WtEn= 0.00D+00
 Coeff-Com: -0.820D-02 0.110D+00 0.149D+00 0.749D+00
 Coeff:     -0.820D-02 0.110D+00 0.149D+00 0.749D+00
 Gap=     0.337 Goal=   None    Shift=    0.000
 RMSDP=2.09D-06 MaxDP=1.67D-05 DE=-1.20D-06 OVMax= 2.76D-05

 Cycle   5  Pass 1  IDiag  1:
 E= -76.4206255361431     Delta-E=       -0.000000006076 Rises=F Damp=F
 DIIS: error= 1.01D-06 at cycle   5 NSaved=   5.
 NSaved= 5 IEnMin= 5 EnMin= -76.4206255361431     IErMin= 5 ErrMin= 1.01D-06
 ErrMax= 1.01D-06  0.00D+00 EMaxC= 1.00D-01 BMatC= 2.43D-11 BMatP= 8.55D-09
 IDIUse=1 WtCom= 1.00D+00 WtEn= 0.00D+00
 Coeff-Com:  0.213D-04-0.555D-02-0.228D-02 0.184D-01 0.989D+00
 Coeff:      0.213D-04-0.555D-02-0.228D-02 0.184D-01 0.989D+00
 Gap=     0.337 Goal=   None    Shift=    0.000
 RMSDP=2.29D-07 MaxDP=1.83D-06 DE=-6.08D-09 OVMax= 2.69D-06

 Cycle   6  Pass 1  IDiag  1:
 E= -76.4206255361679     Delta-E=       -0.000000000025 Rises=F Damp=F
 DIIS: error= 6.51D-08 at cycle   6 NSaved=   6.
 NSaved= 6 IEnMin= 6 EnMin= -76.4206255361679     IErMin= 6 ErrMin= 6.51D-08
 ErrMax= 6.51D-08  0.00D+00 EMaxC= 1.00D-01 BMatC= 7.71D-14 BMatP= 2.43D-11
 IDIUse=1 WtCom= 1.00D+00 WtEn= 0.00D+00
 Coeff-Com:  0.497D-04-0.544D-03-0.687D-03-0.369D-02-0.261D-01 0.103D+01
 Coeff:      0.497D-04-0.544D-03-0.687D-03-0.369D-02-0.261D-01 0.103D+01
 Gap=     0.337 Goal=   None    Shift=    0.000
 RMSDP=2.39D-08 MaxDP=1.60D-07 DE=-2.49D-11 OVMax= 3.61D-07

 Cycle   7  Pass 1  IDiag  1:
 E= -76.4206255361681     Delta-E=       -0.000000000000 Rises=F Damp=F
 DIIS: error= 1.20D-08 at cycle   7 NSaved=   7.
 NSaved= 7 IEnMin= 7 EnMin= -76.4206255361681     IErMin= 7 ErrMin= 1.20D-08
 ErrMax= 1.20D-08  0.00D+00 EMaxC= 1.00D-01 BMatC= 1.42D-15 BMatP= 7.71D-14
 IDIUse=1 WtCom= 1.00D+00 WtEn= 0.00D+00
 Coeff-Com: -0.838D-06 0.306D-04 0.281D-04-0.231D-03-0.510D-02-0.359D-01
 Coeff-Com:  0.104D+01
 Coeff:     -0.838D-06 0.306D-04 0.281D-04-0.231D-03-0.510D-02-0.359D-01
 Coeff:      0.104D+01
 Gap=     0.337 Goal=   None    Shift=    0.000
 RMSDP=1.99D-09 MaxDP=1.62D-08 DE=-1.71D-13 OVMax= 2.34D-08

 SCF Done:  E(RB3LYP) =  -76.4206255362     A.U. after    7 cycles
            NFock=  7  Conv=0.20D-08     -V/T= 2.0051
 KE= 7.602950179128D+01 PE=-1.990726696264D+02 EE= 3.752566539831D+01
 Leave Link  502 at Wed Jul  1 22:03:40 2026, MaxMem=  4026531840 cpu:         9.8
 (Enter /home/p20190052/g09/l701.exe)
 Compute integral first derivatives.
 ... and contract with generalized density number  0.
 Leave Link  701 at Wed Jul  1 22:03:41 2026, MaxMem=  4026531840 cpu:        15.7
 (Enter /home/p20190052/g09/l702.exe)
 L702 exits ... SP integral derivatives will be done elsewhere.
 Leave Link  702 at Wed Jul  1 22:03:41 2026, MaxMem=  4026531840 cpu:         0.7
 (Enter /home/p20190052/g09/l703.exe)
 Compute integral first derivatives, UseDBF=F ICtDFT=           0.
 Integral derivatives from FoFJK, PRISM(SPDF).
 Calling FoFJK, ICntrl=      2127 FMM=F ISym2X=1 I1Cent= 0 IOpClX= 0 NMat=1 NMatS=1 NMatT=0.
 FoFJK:  IHMeth= 1 ICntrl=    2127 DoSepK=F KAlg= 0 I1Cent=   0 FoldK=F
 IRaf=         0 NMat=   1 IRICut=       1 DoRegI=T DoRafI=F ISym2E= 1.
 FoFCou: FMM=F IPFlag=           0 FMFlag=      100000 FMFlg1=         800
         NFxFlg=           0 DoJE=F BraDBF=F KetDBF=F FulRan=T
         wScrn=  0.000000 ICntrl=    2127 IOpCl=  0 I1Cent=           0 NGrid=           0
         NMat0=    1 NMatS0=      1 NMatT0=    0 NMatD0=    1 NMtDS0=    0 NMtDT0=    0
 Petite list used in FoFCou.
 Leave Link  703 at Wed Jul  1 22:03:41 2026, MaxMem=  4026531840 cpu:         8.6
 (Enter /home/p20190052/g09/l716.exe)
 Dipole        =-1.18050627D-17 0.00000000D+00-7.61785449D-01
 ***** Axes restored to original set *****
 -------------------------------------------------------------------
 Center     Atomic                   Forces (Hartrees/Bohr)
 Number     Number              X              Y              Z
 -------------------------------------------------------------------
      1        8           0.000000000   -0.000000000   -0.000980084
      2        1          -0.000000000    0.000411698    0.000490042
      3        1          -0.000000000   -0.000411698    0.000490042
 -------------------------------------------------------------------
 Cartesian Forces:  Max     0.000980084 RMS     0.000444702
 Leave Link  716 at Wed Jul  1 22:03:41 2026, MaxMem=  4026531840 cpu:         0.7
 (Enter /home/p20190052/g09/l103.exe)

 GradGradGradGradGradGradGradGradGradGradGradGradGradGradGradGradGradGrad
 Berny optimization.
 Using GEDIIS/GDIIS optimizer.
 FormGI is forming the generalized inverse of G from B-inverse, IUseBI=4.
 Internal  Forces:  Max     0.000627430 RMS     0.000529390
 Search for a local minimum.
 Step number   2 out of a maximum of   20
 All quantities printed in internal units (Hartrees-Bohrs-Radians)
 RMS Force = .52939D-03 SwitMx=.10000D-02 MixMth= 2
 Mixed Optimization -- En-DIIS/RFO-DIIS
 Update second derivatives using D2CorX and points    1    2
 DE= -3.78D-05 DEPred=-3.29D-05 R= 1.15D+00
 TightC=F SS=  1.41D+00  RLast= 1.71D-02 DXNew= 5.0454D-01 5.1431D-02
 Trust test= 1.15D+00 RLast= 1.71D-02 DXMaxT set to 3.00D-01
 The second derivative matrix:
                          R1        R2        A1
           R1           0.50947
           R2          -0.03396   0.50947
           A1           0.01860   0.01860   0.15706
 ITU=  1  0
 Use linear search instead of GDIIS.
     Eigenvalues ---    0.15490   0.47767   0.54343
 RFO step:  Lambda=-4.36844425D-07 EMin= 1.54897195D-01
 Quartic linear search produced a step of  0.17532.
 Iteration  1 RMS(Cart)=  0.00101550 RMS(Int)=  0.00000099
 Iteration  2 RMS(Cart)=  0.00000113 RMS(Int)=  0.00000000
 Iteration  3 RMS(Cart)=  0.00000000 RMS(Int)=  0.00000000
 ITry= 1 IFail=0 DXMaxC= 1.43D-03 DCOld= 1.00D+10 DXMaxT= 3.00D-01 DXLimC= 3.00D+00 Rises=F
 ClnCor:  largest displacement from symmetrization is 2.37D-16 for atom     3.
 Variable       Old X    -DE/DX   Delta X   Delta X   Delta X     New X
                                 (Linear)    (Quad)   (Total)
    R1        1.82915   0.00063   0.00087   0.00052   0.00139   1.83054
    R2        1.82915   0.00063   0.00087   0.00052   0.00139   1.83054
    A1        1.79495  -0.00023  -0.00274   0.00095  -0.00180   1.79315
         Item               Value     Threshold  Converged?
 Maximum Force            0.000627     0.000450     NO 
 RMS     Force            0.000529     0.000300     NO 
 Maximum Displacement     0.001435     0.001800     YES
 RMS     Displacement     0.001016     0.001200     YES
 Predicted change in Energy=-1.080222D-06
 Lowest energy point so far.  Saving SCF results.
 GradGradGradGradGradGradGradGradGradGradGradGradGradGradGradGradGradGrad

 Leave Link  103 at Wed Jul  1 22:03:41 2026, MaxMem=  4026531840 cpu:         2.0
 (Enter /home/p20190052/g09/l202.exe)
                          Input orientation:                          
 ---------------------------------------------------------------------
 Center     Atomic      Atomic             Coordinates (Angstroms)
 Number     Number       Type             X           Y           Z
 ---------------------------------------------------------------------
      1          8           0       -0.535744   -0.000000   -0.688425
      2          1           0       -0.535744    0.756727   -0.083687
      3          1           0       -0.535744   -0.756727   -0.083687
 ---------------------------------------------------------------------
                    Distance matrix (angstroms):
                    1          2          3
     1  O    0.000000
     2  H    0.968682   0.000000
     3  H    0.968682   1.513455   0.000000
 Stoichiometry    H2O
 Framework group  C2V[C2(O),SGV(H2)]
 Deg. of freedom     2
 Full point group                 C2V     NOp   4
 RotChk:  IX=0 Diff= 5.72D-16
 Largest Abelian subgroup         C2V     NOp   4
 Largest concise Abelian subgroup C2      NOp   2
                         Standard orientation:                         
 ---------------------------------------------------------------------
 Center     Atomic      Atomic             Coordinates (Angstroms)
 Number     Number       Type             X           Y           Z
 ---------------------------------------------------------------------
      1          8           0        0.000000    0.000000    0.120948
      2          1           0       -0.000000    0.756727   -0.483791
      3          1           0       -0.000000   -0.756727   -0.483791
 ---------------------------------------------------------------------
 Rotational constants (GHZ):    771.9917677    437.8478973    279.3882380
 Leave Link  202 at Wed Jul  1 22:03:41 2026, MaxMem=  4026531840 cpu:         2.4
 (Enter /home/p20190052/g09/l301.exe)
 Standard basis: CC-pVDZ (5D, 7F)
 Ernie: Thresh=  0.10000D-02 Tol=  0.10000D-05 Strict=F.
 Ernie:  2 primitive shells out of 32 were deleted.
 There are    12 symmetry adapted cartesian basis functions of A1  symmetry.
 There are     2 symmetry adapted cartesian basis functions of A2  symmetry.
 There are     4 symmetry adapted cartesian basis functions of B1  symmetry.
 There are     7 symmetry adapted cartesian basis functions of B2  symmetry.
 There are    11 symmetry adapted basis functions of A1  symmetry.
 There are     2 symmetry adapted basis functions of A2  symmetry.
 There are     4 symmetry adapted basis functions of B1  symmetry.
 There are     7 symmetry adapted basis functions of B2  symmetry.
    24 basis functions,    47 primitive gaussians,    25 cartesian basis functions
     5 alpha electrons        5 beta electrons
       nuclear repulsion energy         9.0902227885 Hartrees.
 IExCor=  402 DFT=T Ex+Corr=B3LYP ExCW=0 ScaHFX=  0.200000
 ScaDFX=  0.800000  0.720000  1.000000  0.810000 ScalE2=  1.000000  1.000000
 IRadAn=      0 IRanWt=     -1 IRanGd=            0 ICorTp=0 IEmpDi=  4
 NAtoms=    3 NActive=    3 NUniq=    2 SFac= 2.25D+00 NAtFMM=   60 NAOKFM=F Big=F
 Integral buffers will be    131072 words long.
 Raffenetti 2 integral format.
 Two-electron integral symmetry is turned on.
 Leave Link  301 at Wed Jul  1 22:03:42 2026, MaxMem=  4026531840 cpu:         1.9
 (Enter /home/p20190052/g09/l302.exe)
 NPDir=0 NMtPBC=     1 NCelOv=     1 NCel=       1 NClECP=     1 NCelD=      1
         NCelK=      1 NCelE2=     1 NClLst=     1 CellRange=     0.0.
 One-electron integrals computed using PRISM.
 One-electron integral symmetry used in STVInt
 NBasis=    24 RedAO= T EigKep=  5.50D-02  NBF=    11     2     4     7
 NBsUse=    24 1.00D-06 EigRej= -1.00D+00 NBFU=    11     2     4     7
 Precomputing XC quadrature grid using
 IXCGrd= 4 IRadAn=           0 IRanWt=          -1 IRanGd=           0 AccXCQ= 0.00D+00.
 Generated NRdTot=       0 NPtTot=           0 NUsed=           0 NTot=          32
 NSgBfM=    25    25    25    25    25 MxSgAt=     3 MxSgA2=     3.
 Leave Link  302 at Wed Jul  1 22:03:42 2026, MaxMem=  4026531840 cpu:        16.3
 (Enter /home/p20190052/g09/l303.exe)
 DipDrv:  MaxL=1.
 Leave Link  303 at Wed Jul  1 22:03:42 2026, MaxMem=  4026531840 cpu:         3.5
 (Enter /home/p20190052/g09/l401.exe)
 Initial guess from the checkpoint file:  "H2O_b3lyp_ccpvdz.chk"
 B after Tr=    -0.000000    0.000000    0.000000
         Rot=    1.000000    0.000000    0.000000    0.000000 Ang=   0.00 deg.
 Guess basis will be translated and rotated to current coordinates.
 JPrj=2 DoOrth=T DoCkMO=T.
 Initial guess orbital symmetries:
       Occupied  (A1) (A1) (B2) (A1) (B1)
       Virtual   (A1) (A1) (A1) (A1) (A1) (A1) (A1) (A1) (A2) (A2)
                 (B1) (B1) (B1) (B2) (B2) (B2) (B2) (B2) (B2)
 The electronic state of the initial guess is 1-A1.
 Leave Link  401 at Wed Jul  1 22:03:43 2026, MaxMem=  4026531840 cpu:        12.6
 (Enter /home/p20190052/g09/l502.exe)
 Closed shell SCF:
 Using DIIS extrapolation, IDIIS=  1040.
 Integral symmetry usage will be decided dynamically.
 Keep R1 ints in memory in symmetry-blocked form, NReq=927741.
 IVT=       21689 IEndB=       21689 NGot=  4026531840 MDV=  4026496453
 LenX=  4026496453 LenY=  4026495387
 Requested convergence on RMS density matrix=1.00D-08 within 128 cycles.
 Requested convergence on MAX density matrix=1.00D-06.
 Requested convergence on             energy=1.00D-06.
 No special actions if energy rises.
 FoFCou: FMM=F IPFlag=           0 FMFlag=           0 FMFlg1=           0
         NFxFlg=           0 DoJE=F BraDBF=F KetDBF=F FulRan=T
         wScrn=  0.000000 ICntrl=     600 IOpCl=  0 I1Cent=           0 NGrid=           0
         NMat0=    1 NMatS0=    300 NMatT0=    0 NMatD0=    1 NMtDS0=    0 NMtDT0=    0
 Petite list used in FoFCou.

 Cycle   1  Pass 1  IDiag  1:
 E= -76.4206260570977    
 DIIS: error= 1.05D-04 at cycle   1 NSaved=   1.
 NSaved= 1 IEnMin= 1 EnMin= -76.4206260570977     IErMin= 1 ErrMin= 1.05D-04
 ErrMax= 1.05D-04  0.00D+00 EMaxC= 1.00D-01 BMatC= 4.00D-07 BMatP= 4.00D-07
 IDIUse=3 WtCom= 9.99D-01 WtEn= 1.05D-03
 Coeff-Com:  0.100D+01
 Coeff-En:   0.100D+01
 Coeff:      0.100D+01
 Gap=     1.083 Goal=   None    Shift=    0.000
 RMSDP=4.71D-05 MaxDP=4.43D-04              OVMax= 3.84D-04

 Cycle   2  Pass 1  IDiag  1:
 E= -76.4206265299012     Delta-E=       -0.000000472804 Rises=F Damp=F
 DIIS: error= 7.57D-05 at cycle   2 NSaved=   2.
 NSaved= 2 IEnMin= 2 EnMin= -76.4206265299012     IErMin= 2 ErrMin= 7.57D-05
 ErrMax= 7.57D-05  0.00D+00 EMaxC= 1.00D-01 BMatC= 9.34D-08 BMatP= 4.00D-07
 IDIUse=1 WtCom= 1.00D+00 WtEn= 0.00D+00
 Coeff-Com:  0.240D+00 0.760D+00
 Coeff:      0.240D+00 0.760D+00
 Gap=     0.337 Goal=   None    Shift=    0.000
 RMSDP=1.19D-05 MaxDP=1.21D-04 DE=-4.73D-07 OVMax= 1.20D-04

 Cycle   3  Pass 1  IDiag  1:
 E= -76.4206265557023     Delta-E=       -0.000000025801 Rises=F Damp=F
 DIIS: error= 5.55D-05 at cycle   3 NSaved=   3.
 NSaved= 3 IEnMin= 3 EnMin= -76.4206265557023     IErMin= 3 ErrMin= 5.55D-05
 ErrMax= 5.55D-05  0.00D+00 EMaxC= 1.00D-01 BMatC= 5.54D-08 BMatP= 9.34D-08
 IDIUse=1 WtCom= 1.00D+00 WtEn= 0.00D+00
 Coeff-Com: -0.504D-02 0.434D+00 0.571D+00
 Coeff:     -0.504D-02 0.434D+00 0.571D+00
 Gap=     0.337 Goal=   None    Shift=    0.000
 RMSDP=6.08D-06 MaxDP=5.66D-05 DE=-2.58D-08 OVMax= 6.42D-05

 Cycle   4  Pass 1  IDiag  1:
 E= -76.4206265950435     Delta-E=       -0.000000039341 Rises=F Damp=F
 DIIS: error= 4.40D-06 at cycle   4 NSaved=   4.
 NSaved= 4 IEnMin= 4 EnMin= -76.4206265950435     IErMin= 4 ErrMin= 4.40D-06
 ErrMax= 4.40D-06  0.00D+00 EMaxC= 1.00D-01 BMatC= 4.35D-10 BMatP= 5.54D-08
 IDIUse=1 WtCom= 1.00D+00 WtEn= 0.00D+00
 Coeff-Com: -0.901D-02 0.901D-01 0.166D+00 0.753D+00
 Coeff:     -0.901D-02 0.901D-01 0.166D+00 0.753D+00
 Gap=     0.337 Goal=   None    Shift=    0.000
 RMSDP=4.75D-07 MaxDP=3.82D-06 DE=-3.93D-08 OVMax= 6.20D-06

 Cycle   5  Pass 1  IDiag  1:
 E= -76.4206265953534     Delta-E=       -0.000000000310 Rises=F Damp=F
 DIIS: error= 1.81D-07 at cycle   5 NSaved=   5.
 NSaved= 5 IEnMin= 5 EnMin= -76.4206265953534     IErMin= 5 ErrMin= 1.81D-07
 ErrMax= 1.81D-07  0.00D+00 EMaxC= 1.00D-01 BMatC= 7.15D-13 BMatP= 4.35D-10
 IDIUse=1 WtCom= 1.00D+00 WtEn= 0.00D+00
 Coeff-Com:  0.305D-05-0.562D-02-0.508D-02-0.568D-02 0.102D+01
 Coeff:      0.305D-05-0.562D-02-0.508D-02-0.568D-02 0.102D+01
 Gap=     0.337 Goal=   None    Shift=    0.000
 RMSDP=4.89D-08 MaxDP=3.97D-07 DE=-3.10D-10 OVMax= 6.09D-07

 Cycle   6  Pass 1  IDiag  1:
 E= -76.4206265953543     Delta-E=       -0.000000000001 Rises=F Damp=F
 DIIS: error= 1.37D-08 at cycle   6 NSaved=   6.
 NSaved= 6 IEnMin= 6 EnMin= -76.4206265953543     IErMin= 6 ErrMin= 1.37D-08
 ErrMax= 1.37D-08  0.00D+00 EMaxC= 1.00D-01 BMatC= 3.30D-15 BMatP= 7.15D-13
 IDIUse=1 WtCom= 1.00D+00 WtEn= 0.00D+00
 Coeff-Com:  0.584D-04-0.546D-03-0.819D-03-0.325D-02-0.104D-01 0.101D+01
 Coeff:      0.584D-04-0.546D-03-0.819D-03-0.325D-02-0.104D-01 0.101D+01
 Gap=     0.337 Goal=   None    Shift=    0.000
 RMSDP=4.70D-09 MaxDP=3.00D-08 DE=-9.66D-13 OVMax= 6.82D-08

 SCF Done:  E(RB3LYP) =  -76.4206265954     A.U. after    6 cycles
            NFock=  6  Conv=0.47D-08     -V/T= 2.0052
 KE= 7.602720958109D+01 PE=-1.990581838646D+02 EE= 3.752012489971D+01
 Leave Link  502 at Wed Jul  1 22:03:43 2026, MaxMem=  4026531840 cpu:         8.4
 (Enter /home/p20190052/g09/l701.exe)
 Compute integral first derivatives.
 ... and contract with generalized density number  0.
 Leave Link  701 at Wed Jul  1 22:03:43 2026, MaxMem=  4026531840 cpu:        19.0
 (Enter /home/p20190052/g09/l702.exe)
 L702 exits ... SP integral derivatives will be done elsewhere.
 Leave Link  702 at Wed Jul  1 22:03:43 2026, MaxMem=  4026531840 cpu:         0.6
 (Enter /home/p20190052/g09/l703.exe)
 Compute integral first derivatives, UseDBF=F ICtDFT=           0.
 Integral derivatives from FoFJK, PRISM(SPDF).
 Calling FoFJK, ICntrl=      2127 FMM=F ISym2X=1 I1Cent= 0 IOpClX= 0 NMat=1 NMatS=1 NMatT=0.
 FoFJK:  IHMeth= 1 ICntrl=    2127 DoSepK=F KAlg= 0 I1Cent=   0 FoldK=F
 IRaf=         0 NMat=   1 IRICut=       1 DoRegI=T DoRafI=F ISym2E= 1.
 FoFCou: FMM=F IPFlag=           0 FMFlag=      100000 FMFlg1=         800
         NFxFlg=           0 DoJE=F BraDBF=F KetDBF=F FulRan=T
         wScrn=  0.000000 ICntrl=    2127 IOpCl=  0 I1Cent=           0 NGrid=           0
         NMat0=    1 NMatS0=      1 NMatT0=    0 NMatD0=    1 NMtDS0=    0 NMtDT0=    0
 Petite list used in FoFCou.
 Leave Link  703 at Wed Jul  1 22:03:44 2026, MaxMem=  4026531840 cpu:         7.9
 (Enter /home/p20190052/g09/l716.exe)
 Dipole        =-1.17848346D-17 0.00000000D+00-7.62427654D-01
 ***** Axes restored to original set *****
 -------------------------------------------------------------------
 Center     Atomic                   Forces (Hartrees/Bohr)
 Number     Number              X              Y              Z
 -------------------------------------------------------------------
      1        8           0.000000000   -0.000000000    0.000016924
      2        1           0.000000000   -0.000029538   -0.000008462
      3        1          -0.000000000    0.000029538   -0.000008462
 -------------------------------------------------------------------
 Cartesian Forces:  Max     0.000029538 RMS     0.000015544
 Leave Link  716 at Wed Jul  1 22:03:44 2026, MaxMem=  4026531840 cpu:         0.7
 (Enter /home/p20190052/g09/l103.exe)

 GradGradGradGradGradGradGradGradGradGradGradGradGradGradGradGradGradGrad
 Berny optimization.
 Using GEDIIS/GDIIS optimizer.
 FormGI is forming the generalized inverse of G from B-inverse, IUseBI=4.
 Internal  Forces:  Max     0.000028357 RMS     0.000026314
 Search for a local minimum.
 Step number   3 out of a maximum of   20
 All quantities printed in internal units (Hartrees-Bohrs-Radians)
 RMS Force = .26314D-04 SwitMx=.10000D-02 MixMth= 2
 Mixed Optimization -- En-DIIS/RFO-DIIS
 Swapping is turned off.
 Update second derivatives using D2CorX and points    1    2    3
 DE= -1.06D-06 DEPred=-1.08D-06 R= 9.81D-01
 TightC=F SS=  1.41D+00  RLast= 2.66D-03 DXNew= 5.0454D-01 7.9893D-03
 Trust test= 9.81D-01 RLast= 2.66D-03 DXMaxT set to 3.00D-01
 The second derivative matrix:
                          R1        R2        A1
           R1           0.52235
           R2          -0.02108   0.52235
           A1           0.02265   0.02265   0.15156
 ITU=  1  1  0
     Eigenvalues ---    0.14865   0.50419   0.54343
 En-DIIS/RFO-DIIS IScMMF=        0 using points:     3    2
 RFO step:  Lambda= 0.00000000D+00.
 NNeg= 0 NP= 2 Switch=  2.50D-03 Rises=F DC=  1.06D-06 SmlDif=  1.00D-05
 RMS Error=  0.4338299588D-04 NUsed= 2 EDIIS=F
 DidBck=F Rises=F RFO-DIIS coefs:    0.98186    0.01814
 Iteration  1 RMS(Cart)=  0.00009617 RMS(Int)=  0.00000000
 Iteration  2 RMS(Cart)=  0.00000000 RMS(Int)=  0.00000000
 ITry= 1 IFail=0 DXMaxC= 1.13D-04 DCOld= 1.00D+10 DXMaxT= 3.00D-01 DXLimC= 3.00D+00 Rises=F
 ClnCor:  largest displacement from symmetrization is 4.85D-16 for atom     3.
 Variable       Old X    -DE/DX   Delta X   Delta X   Delta X     New X
                                 (Linear)    (Quad)   (Total)
    R1        1.83054  -0.00003  -0.00003  -0.00003  -0.00005   1.83049
    R2        1.83054  -0.00003  -0.00003  -0.00003  -0.00005   1.83049
    A1        1.79315  -0.00002   0.00003  -0.00016  -0.00013   1.79302
         Item               Value     Threshold  Converged?
 Maximum Force            0.000028     0.000450     YES
 RMS     Force            0.000026     0.000300     YES
 Maximum Displacement     0.000113     0.001800     YES
 RMS     Displacement     0.000096     0.001200     YES
 Predicted change in Energy=-2.823126D-09
 Optimization completed.
    -- Stationary point found.
                           ----------------------------
                           !   Optimized Parameters   !
                           ! (Angstroms and Degrees)  !
 --------------------------                            --------------------------
 ! Name  Definition              Value          Derivative Info.                !
 --------------------------------------------------------------------------------
 ! R1    R(1,2)                  0.9687         -DE/DX =    0.0                 !
 ! R2    R(1,3)                  0.9687         -DE/DX =    0.0                 !
 ! A1    A(2,1,3)              102.7398         -DE/DX =    0.0                 !
 --------------------------------------------------------------------------------
 Lowest energy point so far.  Saving SCF results.
 GradGradGradGradGradGradGradGradGradGradGradGradGradGradGradGradGradGrad

 Largest change from initial coordinates is atom    2       0.007 Angstoms.
 Leave Link  103 at Wed Jul  1 22:03:44 2026, MaxMem=  4026531840 cpu:         5.7
 (Enter /home/p20190052/g09/l202.exe)
                          Input orientation:                          
 ---------------------------------------------------------------------
 Center     Atomic      Atomic             Coordinates (Angstroms)
 Number     Number       Type             X           Y           Z
 ---------------------------------------------------------------------
      1          8           0       -0.535744   -0.000000   -0.688425
      2          1           0       -0.535744    0.756727   -0.083687
      3          1           0       -0.535744   -0.756727   -0.083687
 ---------------------------------------------------------------------
                    Distance matrix (angstroms):
                    1          2          3
     1  O    0.000000
     2  H    0.968682   0.000000
     3  H    0.968682   1.513455   0.000000
 Stoichiometry    H2O
 Framework group  C2V[C2(O),SGV(H2)]
 Deg. of freedom     2
 Full point group                 C2V     NOp   4
 RotChk:  IX=0 Diff= 7.35D-16
 Largest Abelian subgroup         C2V     NOp   4
 Largest concise Abelian subgroup C2      NOp   2
                         Standard orientation:                         
 ---------------------------------------------------------------------
 Center     Atomic      Atomic             Coordinates (Angstroms)
 Number     Number       Type             X           Y           Z
 ---------------------------------------------------------------------
      1          8           0        0.000000    0.000000    0.120948
      2          1           0       -0.000000    0.756727   -0.483791
      3          1           0       -0.000000   -0.756727   -0.483791
 ---------------------------------------------------------------------
 Rotational constants (GHZ):    771.9917677    437.8478973    279.3882380
 Leave Link  202 at Wed Jul  1 22:03:44 2026, MaxMem=  4026531840 cpu:         0.3
 (Enter /home/p20190052/g09/l601.exe)
 Copying SCF densities to generalized density rwf, IOpCl= 0 IROHF=0.

 **********************************************************************

            Population analysis using the SCF density.

 **********************************************************************

 Orbital symmetries:
       Occupied  (A1) (A1) (B2) (A1) (B1)
       Virtual   (A1) (B2) (B2) (A1) (A1) (B1) (B2) (A1) (A2) (B1)
                 (A1) (B2) (B2) (A1) (B1) (A2) (A1) (A1) (B2)
 The electronic state is 1-A1.
 Alpha  occ. eigenvalues --  -19.12472  -0.99190  -0.50683  -0.36742  -0.28774
 Alpha virt. eigenvalues --    0.04922   0.12517   0.54966   0.61155   0.90385
 Alpha virt. eigenvalues --    0.91813   0.99615   1.19071   1.23634   1.41656
 Alpha virt. eigenvalues --    1.59094   1.66972   2.08997   2.13153   2.92061
 Alpha virt. eigenvalues --    2.95003   3.12424   3.44568   3.73520
          Condensed to atoms (all electrons):
               1          2          3
     1  O    7.560854   0.350919   0.350919
     2  H    0.350919   0.559456  -0.041722
     3  H    0.350919  -0.041722   0.559456
 Mulliken charges:
               1
     1  O   -0.262692
     2  H    0.131346
     3  H    0.131346
 Sum of Mulliken charges =  -0.00000
 Mulliken charges with hydrogens summed into heavy atoms:
               1
     1  O   -0.000000
 Electronic spatial extent (au):  <R**2>=             18.9754
 Charge=             -0.0000 electrons
 Dipole moment (field-independent basis, Debye):
    X=             -0.0000    Y=             -0.0000    Z=             -1.9379  Tot=              1.9379
 Quadrupole moment (field-independent basis, Debye-Ang):
   XX=             -7.0001   YY=             -4.3337   ZZ=             -5.8772
   XY=             -0.0000   XZ=              0.0000   YZ=              0.0000
 Traceless Quadrupole moment (field-independent basis, Debye-Ang):
   XX=             -1.2631   YY=              1.4033   ZZ=             -0.1402
   XY=             -0.0000   XZ=              0.0000   YZ=              0.0000
 Octapole moment (field-independent basis, Debye-Ang**2):
  XXX=              0.0000  YYY=              0.0000  ZZZ=             -1.0072  XYY=              0.0000
  XXY=              0.0000  XXZ=             -0.2448  XZZ=              0.0000  YZZ=              0.0000
  YYZ=             -1.1185  XYZ=              0.0000
 Hexadecapole moment (field-independent basis, Debye-Ang**3):
 XXXX=             -4.8375 YYYY=             -6.1507 ZZZZ=             -6.0419 XXXY=             -0.0000
 XXXZ=             -0.0000 YYYX=             -0.0000 YYYZ=             -0.0000 ZZZX=              0.0000
 ZZZY=             -0.0000 XXYY=             -2.0927 XXZZ=             -1.8714 YYZZ=             -1.6791
 XXYZ=             -0.0000 YYXZ=              0.0000 ZZXY=             -0.0000
 N-N= 9.090222788461D+00 E-N=-1.990581839937D+02  KE= 7.602720958109D+01
 Symmetry A1   KE= 6.789749471996D+01
 Symmetry A2   KE= 2.212942979674D-35
 Symmetry B1   KE= 4.607469618723D+00
 Symmetry B2   KE= 3.522245242407D+00
 No NMR shielding tensors so no spin-rotation constants.
 Leave Link  601 at Wed Jul  1 22:03:45 2026, MaxMem=  4026531840 cpu:        19.9
 (Enter /home/p20190052/g09/l9999.exe)
 1\1\ WCSS.PL-BEM-NODE1\FOpt\RB3LYP\CC-pVDZ\H2O1\P20190052\01-Jul-2026\
 0\\#p opt b3lyp/cc-pvdz geom=connectivity\\H2O b3lyp 6-31G(d)\\0,1\O,-
 0.53574355,0.,-0.6884248333\H,-0.53574355,0.7567272866,-0.0836866433\H
 ,-0.53574355,-0.7567272866,-0.0836866433\\Version=ES64L-G09RevE.01\Sta
 te=1-A1\HF=-76.4206266\RMSD=4.705e-09\RMSF=1.554e-05\Dipole=0.,0.,0.76
 24277\Quadrupole=-0.9391022,1.0433076,-0.1042054,0.,0.,0.\PG=C02V [C2(
 O1),SGV(H2)]\\@


 There are more things in heaven and earth, Horatio,
 than are dreamt of in your philosophy.
                   -- Hamlet, Act I, Scene 5
 Job cpu time:       0 days  0 hours  5 minutes  3.7 seconds.
 File lengths (MBytes):  RWF=      5 Int=      0 D2E=      0 Chk=      1 Scr=      1
 Normal termination of Gaussian 09 at Wed Jul  1 22:03:45 2026.
