 Entering Gaussian System, Link 0=g09
 Input=H2O_b3lyp_STO-3G.gjf
 Output=H2O_b3lyp_STO-3G.log
 Initial command:
 /home/p20190052/g09/l1.exe "/home/p20190052/g09/scratch/Gau-182560.inp" -scrdir="/home/p20190052/g09/scratch/"
 Entering Link 1 = /home/p20190052/g09/l1.exe PID=    182561.
  
 Copyright (c) 1988,1990,1992,1993,1995,1998,2003,2009,2015,
            Gaussian, Inc.  All Rights Reserved.
  
 This is part of the Gaussian(R) 09 program.  It is based on
 the Gaussian(R) 03 system (copyright 2003, Gaussian, Inc.),
 the Gaussian(R) 98 system (copyright 1998, Gaussian, Inc.),
 the Gaussian(R) 94 system (copyright 1995, Gaussian, Inc.),
 the Gaussian 92(TM) system (copyright 1992, Gaussian, Inc.),
 the Gaussian 90(TM) system (copyright 1990, Gaussian, Inc.),
 the Gaussian 88(TM) system (copyright 1988, Gaussian, Inc.),
 the Gaussian 86(TM) system (copyright 1986, Carnegie Mellon
 University), and the Gaussian 82(TM) system (copyright 1983,
 Carnegie Mellon University). Gaussian is a federally registered
 trademark of Gaussian, Inc.
  
 This software contains proprietary and confidential information,
 including trade secrets, belonging to Gaussian, Inc.
  
 This software is provided under written license and may be
 used, copied, transmitted, or stored only in accord with that
 written license.
  
 The following legend is applicable only to US Government
 contracts under FAR:
  
                    RESTRICTED RIGHTS LEGEND
  
 Use, reproduction and disclosure by the US Government is
 subject to restrictions as set forth in subparagraphs (a)
 and (c) of the Commercial Computer Software - Restricted
 Rights clause in FAR 52.227-19.
  
 Gaussian, Inc.
 340 Quinnipiac St., Bldg. 40, Wallingford CT 06492
  
  
 ---------------------------------------------------------------
 Warning -- This program may not be used in any manner that
 competes with the business of Gaussian, Inc. or will provide
 assistance to any competitor of Gaussian, Inc.  The licensee
 of this program is prohibited from giving any competitor of
 Gaussian, Inc. access to this program.  By using this program,
 the user acknowledges that Gaussian, Inc. is engaged in the
 business of creating and licensing software in the field of
 computational chemistry and represents and warrants to the
 licensee that it is not a competitor of Gaussian, Inc. and that
 it will not use this program in any manner prohibited above.
 ---------------------------------------------------------------
  

 Cite this work as:
 Gaussian 09, Revision E.01,
 M. J. Frisch, G. W. Trucks, H. B. Schlegel, G. E. Scuseria, 
 M. A. Robb, J. R. Cheeseman, G. Scalmani, V. Barone, B. Mennucci, 
 G. A. Petersson, H. Nakatsuji, M. Caricato, X. Li, H. P. Hratchian, 
 A. F. Izmaylov, J. Bloino, G. Zheng, J. L. Sonnenberg, M. Hada, 
 M. Ehara, K. Toyota, R. Fukuda, J. Hasegawa, M. Ishida, T. Nakajima, 
 Y. Honda, O. Kitao, H. Nakai, T. Vreven, J. A. Montgomery, Jr., 
 J. E. Peralta, F. Ogliaro, M. Bearpark, J. J. Heyd, E. Brothers, 
 K. N. Kudin, V. N. Staroverov, T. Keith, R. Kobayashi, J. Normand, 
 K. Raghavachari, A. Rendell, J. C. Burant, S. S. Iyengar, J. Tomasi, 
 M. Cossi, N. Rega, J. M. Millam, M. Klene, J. E. Knox, J. B. Cross, 
 V. Bakken, C. Adamo, J. Jaramillo, R. Gomperts, R. E. Stratmann, 
 O. Yazyev, A. J. Austin, R. Cammi, C. Pomelli, J. W. Ochterski, 
 R. L. Martin, K. Morokuma, V. G. Zakrzewski, G. A. Voth, 
 P. Salvador, J. J. Dannenberg, S. Dapprich, A. D. Daniels, 
 O. Farkas, J. B. Foresman, J. V. Ortiz, J. Cioslowski, 
 and D. J. Fox, Gaussian, Inc., Wallingford CT, 2013.
 
 ******************************************
 Gaussian 09:  ES64L-G09RevE.01 30-Nov-2015
                 1-Jul-2026 
 ******************************************
 %mem=30GB
 %nprocs=40
 Will use up to   40 processors via shared memory.
 %chk=H2O_b3lyp_STO-3G.chk
 -------------------------------------
 #p opt b3lyp/sto-3g geom=connectivity
 -------------------------------------
 1/14=-1,18=20,19=15,26=3,38=1,57=2/1,3;
 2/9=110,12=2,17=6,18=5,40=1/2;
 3/6=3,11=2,16=1,25=1,30=1,71=1,74=-5/1,2,3;
 4//1;
 5/5=2,38=5/2;
 6/7=2,8=2,9=2,10=2,28=1/1;
 7//1,2,3,16;
 1/14=-1,18=20,19=15,26=3/3(2);
 2/9=110/2;
 99//99;
 2/9=110/2;
 3/6=3,11=2,16=1,25=1,30=1,71=1,74=-5/1,2,3;
 4/5=5,16=3,69=1/1;
 5/5=2,38=5/2;
 7//1,2,3,16;
 1/14=-1,18=20,19=15,26=3/3(-5);
 2/9=110/2;
 6/7=2,8=2,9=2,10=2,19=2,28=1/1;
 99/9=1/99;
 Leave Link    1 at Wed Jul  1 22:03:45 2026, MaxMem=  4026531840 cpu:         1.6
 (Enter /home/p20190052/g09/l101.exe)
 ----------------
 H2O b3lyp STO-3G
 ----------------
 Symbolic Z-matrix:
 Charge =  0 Multiplicity = 1
 O                    -0.53574   0.       -0.68263 
 H                    -0.53574   0.75934  -0.08659 
 H                    -0.53574  -0.75934  -0.08659 
 
 NAtoms=      3 NQM=        3 NQMF=       0 NMMI=      0 NMMIF=      0
                NMic=       0 NMicF=      0.
                    Isotopes and Nuclear Properties:
 (Nuclear quadrupole moments (NQMom) in fm**2, nuclear magnetic moments (NMagM)
  in nuclear magnetons)

  Atom         1           2           3
 IAtWgt=          16           1           1
 AtmWgt=  15.9949146   1.0078250   1.0078250
 NucSpn=           0           1           1
 AtZEff=   0.0000000   0.0000000   0.0000000
 NQMom=    0.0000000   0.0000000   0.0000000
 NMagM=    0.0000000   2.7928460   2.7928460
 AtZNuc=   8.0000000   1.0000000   1.0000000
 Leave Link  101 at Wed Jul  1 22:03:45 2026, MaxMem=  4026531840 cpu:        12.6
 (Enter /home/p20190052/g09/l103.exe)

 GradGradGradGradGradGradGradGradGradGradGradGradGradGradGradGradGradGrad
 Berny optimization.
 Initialization pass.
                           ----------------------------
                           !    Initial Parameters    !
                           ! (Angstroms and Degrees)  !
 --------------------------                            --------------------------
 ! Name  Definition              Value          Derivative Info.                !
 --------------------------------------------------------------------------------
 ! R1    R(1,2)                  0.9653         estimate D2E/DX2                !
 ! R2    R(1,3)                  0.9653         estimate D2E/DX2                !
 ! A1    A(2,1,3)              103.7396         estimate D2E/DX2                !
 --------------------------------------------------------------------------------
 Trust Radius=3.00D-01 FncErr=1.00D-07 GrdErr=1.00D-06
 Number of steps in this run=     20 maximum allowed number of steps=    100.
 GradGradGradGradGradGradGradGradGradGradGradGradGradGradGradGradGradGrad

 Leave Link  103 at Wed Jul  1 22:03:45 2026, MaxMem=  4026531840 cpu:         0.2
 (Enter /home/p20190052/g09/l202.exe)
                          Input orientation:                          
 ---------------------------------------------------------------------
 Center     Atomic      Atomic             Coordinates (Angstroms)
 Number     Number       Type             X           Y           Z
 ---------------------------------------------------------------------
      1          8           0       -0.535744    0.000000   -0.682628
      2          1           0       -0.535744    0.759337   -0.086585
      3          1           0       -0.535744   -0.759337   -0.086585
 ---------------------------------------------------------------------
                    Distance matrix (angstroms):
                    1          2          3
     1  O    0.000000
     2  H    0.965329   0.000000
     3  H    0.965329   1.518674   0.000000
 Stoichiometry    H2O
 Framework group  C2V[C2(O),SGV(H2)]
 Deg. of freedom     2
 Full point group                 C2V     NOp   4
 Largest Abelian subgroup         C2V     NOp   4
 Largest concise Abelian subgroup C2      NOp   2
                         Standard orientation:                         
 ---------------------------------------------------------------------
 Center     Atomic      Atomic             Coordinates (Angstroms)
 Number     Number       Type             X           Y           Z
 ---------------------------------------------------------------------
      1          8           0       -0.000000    0.000000    0.119209
      2          1           0        0.000000    0.759337   -0.476834
      3          1           0       -0.000000   -0.759337   -0.476834
 ---------------------------------------------------------------------
 Rotational constants (GHZ):    794.6799884    434.8434502    281.0531114
 Leave Link  202 at Wed Jul  1 22:03:45 2026, MaxMem=  4026531840 cpu:         0.3
 (Enter /home/p20190052/g09/l301.exe)
 Standard basis: STO-3G (5D, 7F)
 Ernie: Thresh=  0.10000D-02 Tol=  0.10000D-05 Strict=F.
 There are     4 symmetry adapted cartesian basis functions of A1  symmetry.
 There are     0 symmetry adapted cartesian basis functions of A2  symmetry.
 There are     1 symmetry adapted cartesian basis functions of B1  symmetry.
 There are     2 symmetry adapted cartesian basis functions of B2  symmetry.
 There are     4 symmetry adapted basis functions of A1  symmetry.
 There are     0 symmetry adapted basis functions of A2  symmetry.
 There are     1 symmetry adapted basis functions of B1  symmetry.
 There are     2 symmetry adapted basis functions of B2  symmetry.
     7 basis functions,    21 primitive gaussians,     7 cartesian basis functions
     5 alpha electrons        5 beta electrons
       nuclear repulsion energy         9.1193798695 Hartrees.
 IExCor=  402 DFT=T Ex+Corr=B3LYP ExCW=0 ScaHFX=  0.200000
 ScaDFX=  0.800000  0.720000  1.000000  0.810000 ScalE2=  1.000000  1.000000
 IRadAn=      0 IRanWt=     -1 IRanGd=            0 ICorTp=0 IEmpDi=  4
 NAtoms=    3 NActive=    3 NUniq=    2 SFac= 2.25D+00 NAtFMM=   60 NAOKFM=F Big=F
 Integral buffers will be    131072 words long.
 Raffenetti 2 integral format.
 Two-electron integral symmetry is turned on.
 Leave Link  301 at Wed Jul  1 22:03:45 2026, MaxMem=  4026531840 cpu:         1.9
 (Enter /home/p20190052/g09/l302.exe)
 NPDir=0 NMtPBC=     1 NCelOv=     1 NCel=       1 NClECP=     1 NCelD=      1
         NCelK=      1 NCelE2=     1 NClLst=     1 CellRange=     0.0.
 One-electron integrals computed using PRISM.
 One-electron integral symmetry used in STVInt
 NBasis=     7 RedAO= T EigKep=  4.87D-01  NBF=     4     0     1     2
 NBsUse=     7 1.00D-06 EigRej= -1.00D+00 NBFU=     4     0     1     2
 Precomputing XC quadrature grid using
 IXCGrd= 4 IRadAn=           0 IRanWt=          -1 IRanGd=           0 AccXCQ= 0.00D+00.
 Generated NRdTot=       0 NPtTot=           0 NUsed=           0 NTot=          32
 NSgBfM=     7     7     7     7     7 MxSgAt=     3 MxSgA2=     3.
 Leave Link  302 at Wed Jul  1 22:03:46 2026, MaxMem=  4026531840 cpu:        12.4
 (Enter /home/p20190052/g09/l303.exe)
 DipDrv:  MaxL=1.
 Leave Link  303 at Wed Jul  1 22:03:46 2026, MaxMem=  4026531840 cpu:         0.7
 (Enter /home/p20190052/g09/l401.exe)
 ExpMin= 1.69D-01 ExpMax= 1.31D+02 ExpMxC= 1.31D+02 IAcc=1 IRadAn=         1 AccDes= 0.00D+00
 Harris functional with IExCor=  402 and IRadAn=       1 diagonalized for initial guess.
 HarFok:  IExCor=  402 AccDes= 0.00D+00 IRadAn=         1 IDoV= 1 UseB2=F ITyADJ=14
 ICtDFT=  3500011 ScaDFX=  1.000000  1.000000  1.000000  1.000000
 FoFCou: FMM=F IPFlag=           0 FMFlag=      100000 FMFlg1=           0
         NFxFlg=           0 DoJE=T BraDBF=F KetDBF=T FulRan=T
         wScrn=  0.000000 ICntrl=     500 IOpCl=  0 I1Cent=   200000004 NGrid=           0
         NMat0=    1 NMatS0=      1 NMatT0=    0 NMatD0=    1 NMtDS0=    0 NMtDT0=    0
 Petite list used in FoFCou.
 Harris En= -75.3707303608090    
 JPrj=0 DoOrth=F DoCkMO=F.
 Initial guess orbital symmetries:
       Occupied  (A1) (A1) (B2) (A1) (B1)
       Virtual   (A1) (B2)
 The electronic state of the initial guess is 1-A1.
 Leave Link  401 at Wed Jul  1 22:03:46 2026, MaxMem=  4026531840 cpu:        12.3
 (Enter /home/p20190052/g09/l502.exe)
 Closed shell SCF:
 Using DIIS extrapolation, IDIIS=  1040.
 Integral symmetry usage will be decided dynamically.
 Keep R1 ints in memory in symmetry-blocked form, NReq=868328.
 IVT=       20887 IEndB=       20887 NGot=  4026531840 MDV=  4026510531
 LenX=  4026510531 LenY=  4026509649
 Requested convergence on RMS density matrix=1.00D-08 within 128 cycles.
 Requested convergence on MAX density matrix=1.00D-06.
 Requested convergence on             energy=1.00D-06.
 No special actions if energy rises.
 FoFCou: FMM=F IPFlag=           0 FMFlag=           0 FMFlg1=           0
         NFxFlg=           0 DoJE=F BraDBF=F KetDBF=F FulRan=T
         wScrn=  0.000000 ICntrl=     600 IOpCl=  0 I1Cent=           0 NGrid=           0
         NMat0=    1 NMatS0=     28 NMatT0=    0 NMatD0=    1 NMtDS0=    0 NMtDT0=    0
 Petite list used in FoFCou.
 Integral accuracy reduced to 1.0D-05 until final iterations.

 Cycle   1  Pass 0  IDiag  1:
 E= -75.2656610321296    
 DIIS: error= 7.39D-02 at cycle   1 NSaved=   1.
 NSaved= 1 IEnMin= 1 EnMin= -75.2656610321296     IErMin= 1 ErrMin= 7.39D-02
 ErrMax= 7.39D-02  0.00D+00 EMaxC= 1.00D-01 BMatC= 3.49D-02 BMatP= 3.49D-02
 IDIUse=3 WtCom= 2.61D-01 WtEn= 7.39D-01
 Coeff-Com:  0.100D+01
 Coeff-En:   0.100D+01
 Coeff:      0.100D+01
 Gap=     0.402 Goal=   None    Shift=    0.000
 GapD=    0.402 DampG=2.000 DampE=0.500 DampFc=1.0000 IDamp=-1.
 RMSDP=6.57D-02 MaxDP=2.00D-01              OVMax= 0.00D+00

 Cycle   2  Pass 0  IDiag  1:
 E= -75.2890551611311     Delta-E=       -0.023394129001 Rises=F Damp=F
 DIIS: error= 5.07D-02 at cycle   2 NSaved=   2.
 NSaved= 2 IEnMin= 2 EnMin= -75.2890551611311     IErMin= 2 ErrMin= 5.07D-02
 ErrMax= 5.07D-02  0.00D+00 EMaxC= 1.00D-01 BMatC= 1.95D-02 BMatP= 3.49D-02
 IDIUse=3 WtCom= 4.93D-01 WtEn= 5.07D-01
 Coeff-Com:  0.428D+00 0.572D+00
 Coeff-En:   0.306D+00 0.694D+00
 Coeff:      0.366D+00 0.634D+00
 Gap=     0.497 Goal=   None    Shift=    0.000
 RMSDP=3.02D-02 MaxDP=9.77D-02 DE=-2.34D-02 OVMax= 0.00D+00

 Cycle   3  Pass 0  IDiag  1:
 E= -75.3144005568473     Delta-E=       -0.025345395716 Rises=F Damp=F
 DIIS: error= 5.69D-03 at cycle   3 NSaved=   3.
 NSaved= 3 IEnMin= 3 EnMin= -75.3144005568473     IErMin= 3 ErrMin= 5.69D-03
 ErrMax= 5.69D-03  0.00D+00 EMaxC= 1.00D-01 BMatC= 2.33D-04 BMatP= 1.95D-02
 IDIUse=3 WtCom= 9.43D-01 WtEn= 5.69D-02
 Coeff-Com: -0.175D-01 0.793D-01 0.938D+00
 Coeff-En:   0.000D+00 0.000D+00 0.100D+01
 Coeff:     -0.165D-01 0.748D-01 0.942D+00
 Gap=     0.494 Goal=   None    Shift=    0.000
 RMSDP=2.96D-03 MaxDP=9.40D-03 DE=-2.53D-02 OVMax= 0.00D+00

 Cycle   4  Pass 0  IDiag  1:
 E= -75.3147034330105     Delta-E=       -0.000302876163 Rises=F Damp=F
 DIIS: error= 1.59D-04 at cycle   4 NSaved=   4.
 NSaved= 4 IEnMin= 4 EnMin= -75.3147034330105     IErMin= 4 ErrMin= 1.59D-04
 ErrMax= 1.59D-04  0.00D+00 EMaxC= 1.00D-01 BMatC= 2.25D-07 BMatP= 2.33D-04
 IDIUse=3 WtCom= 9.98D-01 WtEn= 1.59D-03
 Coeff-Com: -0.697D-03-0.493D-02-0.541D-02 0.101D+01
 Coeff-En:   0.000D+00 0.000D+00 0.000D+00 0.100D+01
 Coeff:     -0.696D-03-0.493D-02-0.540D-02 0.101D+01
 Gap=     0.494 Goal=   None    Shift=    0.000
 RMSDP=1.00D-04 MaxDP=3.34D-04 DE=-3.03D-04 OVMax= 0.00D+00

 Cycle   5  Pass 0  IDiag  1:
 E= -75.3147037395327     Delta-E=       -0.000000306522 Rises=F Damp=F
 DIIS: error= 1.18D-06 at cycle   5 NSaved=   5.
 NSaved= 5 IEnMin= 5 EnMin= -75.3147037395327     IErMin= 5 ErrMin= 1.18D-06
 ErrMax= 1.18D-06  0.00D+00 EMaxC= 1.00D-01 BMatC= 1.78D-11 BMatP= 2.25D-07
 IDIUse=1 WtCom= 1.00D+00 WtEn= 0.00D+00
 Coeff-Com:  0.877D-04-0.339D-03-0.535D-02-0.356D-01 0.104D+01
 Coeff:      0.877D-04-0.339D-03-0.535D-02-0.356D-01 0.104D+01
 Gap=     0.494 Goal=   None    Shift=    0.000
 RMSDP=2.38D-06 MaxDP=8.22D-06 DE=-3.07D-07 OVMax= 0.00D+00

 Initial convergence to 1.0D-05 achieved.  Increase integral accuracy.
 Cycle   6  Pass 1  IDiag  1:
 E= -75.3147049309173     Delta-E=       -0.000001191385 Rises=F Damp=F
 DIIS: error= 5.26D-07 at cycle   1 NSaved=   1.
 NSaved= 1 IEnMin= 1 EnMin= -75.3147049309173     IErMin= 1 ErrMin= 5.26D-07
 ErrMax= 5.26D-07  0.00D+00 EMaxC= 1.00D-01 BMatC= 2.35D-12 BMatP= 2.35D-12
 IDIUse=1 WtCom= 1.00D+00 WtEn= 0.00D+00
 Coeff-Com:  0.100D+01
 Coeff:      0.100D+01
 Gap=     0.494 Goal=   None    Shift=    0.000
 RMSDP=2.38D-06 MaxDP=8.22D-06 DE=-1.19D-06 OVMax= 0.00D+00

 Cycle   7  Pass 1  IDiag  1:
 E= -75.3147049309180     Delta-E=       -0.000000000001 Rises=F Damp=F
 DIIS: error= 5.17D-08 at cycle   2 NSaved=   2.
 NSaved= 2 IEnMin= 2 EnMin= -75.3147049309180     IErMin= 2 ErrMin= 5.17D-08
 ErrMax= 5.17D-08  0.00D+00 EMaxC= 1.00D-01 BMatC= 2.54D-14 BMatP= 2.35D-12
 IDIUse=1 WtCom= 1.00D+00 WtEn= 0.00D+00
 Coeff-Com:  0.263D-01 0.974D+00
 Coeff:      0.263D-01 0.974D+00
 Gap=     0.494 Goal=   None    Shift=    0.000
 RMSDP=6.33D-08 MaxDP=2.12D-07 DE=-7.39D-13 OVMax= 0.00D+00

 Cycle   8  Pass 1  IDiag  1:
 E= -75.3147049309181     Delta-E=       -0.000000000000 Rises=F Damp=F
 DIIS: error= 4.30D-08 at cycle   3 NSaved=   3.
 NSaved= 3 IEnMin= 3 EnMin= -75.3147049309181     IErMin= 3 ErrMin= 4.30D-08
 ErrMax= 4.30D-08  0.00D+00 EMaxC= 1.00D-01 BMatC= 1.30D-14 BMatP= 2.54D-14
 IDIUse=1 WtCom= 1.00D+00 WtEn= 0.00D+00
 Coeff-Com: -0.289D-02 0.413D+00 0.590D+00
 Coeff:     -0.289D-02 0.413D+00 0.590D+00
 Gap=     0.494 Goal=   None    Shift=    0.000
 RMSDP=2.05D-08 MaxDP=6.65D-08 DE=-5.68D-14 OVMax= 0.00D+00

 Cycle   9  Pass 1  IDiag  1:
 E= -75.3147049309181     Delta-E=       -0.000000000000 Rises=F Damp=F
 DIIS: error= 1.23D-09 at cycle   4 NSaved=   4.
 NSaved= 4 IEnMin= 4 EnMin= -75.3147049309181     IErMin= 4 ErrMin= 1.23D-09
 ErrMax= 1.23D-09  0.00D+00 EMaxC= 1.00D-01 BMatC= 8.57D-18 BMatP= 1.30D-14
 IDIUse=1 WtCom= 1.00D+00 WtEn= 0.00D+00
 Coeff-Com: -0.122D-03-0.494D-01-0.845D-01 0.113D+01
 Coeff:     -0.122D-03-0.494D-01-0.845D-01 0.113D+01
 Gap=     0.494 Goal=   None    Shift=    0.000
 RMSDP=1.30D-09 MaxDP=3.86D-09 DE=-5.68D-14 OVMax= 0.00D+00

 SCF Done:  E(RB3LYP) =  -75.3147049309     A.U. after    9 cycles
            NFock=  9  Conv=0.13D-08     -V/T= 2.0098
 KE= 7.458058734227D+01 PE=-1.968073279874D+02 EE= 3.779265584472D+01
 Leave Link  502 at Wed Jul  1 22:03:46 2026, MaxMem=  4026531840 cpu:         9.0
 (Enter /home/p20190052/g09/l601.exe)
 Copying SCF densities to generalized density rwf, IOpCl= 0 IROHF=0.

 **********************************************************************

            Population analysis using the SCF density.

 **********************************************************************

 Orbital symmetries:
       Occupied  (A1) (A1) (B2) (A1) (B1)
       Virtual   (A1) (B2)
 The electronic state is 1-A1.
 Alpha  occ. eigenvalues --  -18.83705  -0.93273  -0.43928  -0.23305  -0.14428
 Alpha virt. eigenvalues --    0.34950   0.46176
          Condensed to atoms (all electrons):
               1          2          3
     1  O    7.855998   0.251958   0.251958
     2  H    0.251958   0.612784  -0.044699
     3  H    0.251958  -0.044699   0.612784
 Mulliken charges:
               1
     1  O   -0.359914
     2  H    0.179957
     3  H    0.179957
 Sum of Mulliken charges =   0.00000
 Mulliken charges with hydrogens summed into heavy atoms:
               1
     1  O    0.000000
 Electronic spatial extent (au):  <R**2>=             17.9579
 Charge=              0.0000 electrons
 Dipole moment (field-independent basis, Debye):
    X=             -0.0000    Y=              0.0000    Z=             -1.6699  Tot=              1.6699
 Quadrupole moment (field-independent basis, Debye-Ang):
   XX=             -6.1060   YY=             -4.3973   ZZ=             -5.3813
   XY=              0.0000   XZ=              0.0000   YZ=              0.0000
 Traceless Quadrupole moment (field-independent basis, Debye-Ang):
   XX=             -0.8111   YY=              0.8976   ZZ=             -0.0864
   XY=              0.0000   XZ=              0.0000   YZ=              0.0000
 Octapole moment (field-independent basis, Debye-Ang**2):
  XXX=              0.0000  YYY=              0.0000  ZZZ=             -0.1492  XYY=              0.0000
  XXY=             -0.0000  XXZ=              0.0107  XZZ=              0.0000  YZZ=              0.0000
  YYZ=             -0.5264  XYZ=             -0.0000
 Hexadecapole moment (field-independent basis, Debye-Ang**3):
 XXXX=             -3.2434 YYYY=             -6.6016 ZZZZ=             -4.9580 XXXY=             -0.0000
 XXXZ=             -0.0000 YYYX=             -0.0000 YYYZ=              0.0000 ZZZX=             -0.0000
 ZZZY=              0.0000 XXYY=             -1.7900 XXZZ=             -1.4034 YYZZ=             -1.7122
 XXYZ=              0.0000 YYXZ=              0.0000 ZZXY=             -0.0000
 N-N= 9.119379869505D+00 E-N=-1.968073279788D+02  KE= 7.458058734227D+01
 Symmetry A1   KE= 6.658087460460D+01
 Symmetry A2   KE= 0.000000000000D+00
 Symmetry B1   KE= 5.057462452019D+00
 Symmetry B2   KE= 2.942250285645D+00
 No NMR shielding tensors so no spin-rotation constants.
 Leave Link  601 at Wed Jul  1 22:03:47 2026, MaxMem=  4026531840 cpu:        16.2
 (Enter /home/p20190052/g09/l701.exe)
 Compute integral first derivatives.
 ... and contract with generalized density number  0.
 Leave Link  701 at Wed Jul  1 22:03:47 2026, MaxMem=  4026531840 cpu:        14.6
 (Enter /home/p20190052/g09/l702.exe)
 L702 exits ... SP integral derivatives will be done elsewhere.
 Leave Link  702 at Wed Jul  1 22:03:47 2026, MaxMem=  4026531840 cpu:         0.6
 (Enter /home/p20190052/g09/l703.exe)
 Compute integral first derivatives, UseDBF=F ICtDFT=           0.
 Integral derivatives from FoFJK, PRISM(SPDF).
 Calling FoFJK, ICntrl=      2127 FMM=F ISym2X=1 I1Cent= 0 IOpClX= 0 NMat=1 NMatS=1 NMatT=0.
 FoFJK:  IHMeth= 1 ICntrl=    2127 DoSepK=F KAlg= 0 I1Cent=   0 FoldK=F
 IRaf=         0 NMat=   1 IRICut=       1 DoRegI=T DoRafI=F ISym2E= 1.
 FoFCou: FMM=F IPFlag=           0 FMFlag=      100000 FMFlg1=         800
         NFxFlg=           0 DoJE=F BraDBF=F KetDBF=F FulRan=T
         wScrn=  0.000000 ICntrl=    2127 IOpCl=  0 I1Cent=           0 NGrid=           0
         NMat0=    1 NMatS0=      1 NMatT0=    0 NMatD0=    1 NMtDS0=    0 NMtDT0=    0
 Petite list used in FoFCou.
 Leave Link  703 at Wed Jul  1 22:03:48 2026, MaxMem=  4026531840 cpu:         5.8
 (Enter /home/p20190052/g09/l716.exe)
 Dipole        =-1.76489894D-17 0.00000000D+00-6.56969951D-01
 ***** Axes restored to original set *****
 -------------------------------------------------------------------
 Center     Atomic                   Forces (Hartrees/Bohr)
 Number     Number              X              Y              Z
 -------------------------------------------------------------------
      1        8           0.000000000   -0.000000000   -0.094925558
      2        1          -0.000000000    0.040905698    0.047462779
      3        1          -0.000000000   -0.040905698    0.047462779
 -------------------------------------------------------------------
 Cartesian Forces:  Max     0.094925558 RMS     0.043285672
 Leave Link  716 at Wed Jul  1 22:03:48 2026, MaxMem=  4026531840 cpu:         0.9
 (Enter /home/p20190052/g09/l103.exe)

 GradGradGradGradGradGradGradGradGradGradGradGradGradGradGradGradGradGrad
 Berny optimization.
 FormGI is forming the generalized inverse of G from B-inverse, IUseBI=4.
 Internal  Forces:  Max     0.061482740 RMS     0.051786909
 Search for a local minimum.
 Step number   1 out of a maximum of   20
 All quantities printed in internal units (Hartrees-Bohrs-Radians)
 RMS Force = .51787D-01 SwitMx=.10000D-02 MixMth= 1
 Mixed Optimization -- RFO/linear search
 Second derivative matrix not updated -- first step.
 The second derivative matrix:
                          R1        R2        A1
           R1           0.54343
           R2           0.00000   0.54343
           A1           0.00000   0.00000   0.16000
 ITU=  0
     Eigenvalues ---    0.16000   0.54343   0.54343
 RFO step:  Lambda=-1.62617762D-02 EMin= 1.60000000D-01
 Linear search not attempted -- first point.
 Iteration  1 RMS(Cart)=  0.07539251 RMS(Int)=  0.00499664
 Iteration  2 RMS(Cart)=  0.00601637 RMS(Int)=  0.00001264
 Iteration  3 RMS(Cart)=  0.00000830 RMS(Int)=  0.00000000
 Iteration  4 RMS(Cart)=  0.00000000 RMS(Int)=  0.00000000
 ITry= 1 IFail=0 DXMaxC= 1.07D-01 DCOld= 1.00D+10 DXMaxT= 3.00D-01 DXLimC= 3.00D+00 Rises=F
 ClnCor:  largest displacement from symmetrization is 2.48D-16 for atom     3.
 Variable       Old X    -DE/DX   Delta X   Delta X   Delta X     New X
                                 (Linear)    (Quad)   (Total)
    R1        1.82421   0.06148   0.00000   0.10985   0.10985   1.93406
    R2        1.82421   0.06148   0.00000   0.10985   0.10985   1.93406
    A1        1.81060  -0.02203   0.00000  -0.12499  -0.12499   1.68560
         Item               Value     Threshold  Converged?
 Maximum Force            0.061483     0.000450     NO 
 RMS     Force            0.051787     0.000300     NO 
 Maximum Displacement     0.107010     0.001800     NO 
 RMS     Displacement     0.076012     0.001200     NO 
 Predicted change in Energy=-8.454157D-03
 Lowest energy point so far.  Saving SCF results.
 GradGradGradGradGradGradGradGradGradGradGradGradGradGradGradGradGradGrad

 Leave Link  103 at Wed Jul  1 22:03:48 2026, MaxMem=  4026531840 cpu:         1.2
 (Enter /home/p20190052/g09/l202.exe)
                          Input orientation:                          
 ---------------------------------------------------------------------
 Center     Atomic      Atomic             Coordinates (Angstroms)
 Number     Number       Type             X           Y           Z
 ---------------------------------------------------------------------
      1          8           0       -0.535744   -0.000000   -0.739255
      2          1           0       -0.535744    0.764023   -0.058271
      3          1           0       -0.535744   -0.764023   -0.058271
 ---------------------------------------------------------------------
                    Distance matrix (angstroms):
                    1          2          3
     1  O    0.000000
     2  H    1.023460   0.000000
     3  H    1.023460   1.528046   0.000000
 Stoichiometry    H2O
 Framework group  C2V[C2(O),SGV(H2)]
 Deg. of freedom     2
 Full point group                 C2V     NOp   4
 RotChk:  IX=0 Diff= 1.20D-15
 Largest Abelian subgroup         C2V     NOp   4
 Largest concise Abelian subgroup C2      NOp   2
                         Standard orientation:                         
 ---------------------------------------------------------------------
 Center     Atomic      Atomic             Coordinates (Angstroms)
 Number     Number       Type             X           Y           Z
 ---------------------------------------------------------------------
      1          8           0       -0.000000    0.000000    0.136197
      2          1           0        0.000000    0.764023   -0.544787
      3          1           0       -0.000000   -0.764023   -0.544787
 ---------------------------------------------------------------------
 Rotational constants (GHZ):    608.7992259    429.5256836    251.8430419
 Leave Link  202 at Wed Jul  1 22:03:48 2026, MaxMem=  4026531840 cpu:         0.3
 (Enter /home/p20190052/g09/l301.exe)
 Standard basis: STO-3G (5D, 7F)
 Ernie: Thresh=  0.10000D-02 Tol=  0.10000D-05 Strict=F.
 There are     4 symmetry adapted cartesian basis functions of A1  symmetry.
 There are     0 symmetry adapted cartesian basis functions of A2  symmetry.
 There are     1 symmetry adapted cartesian basis functions of B1  symmetry.
 There are     2 symmetry adapted cartesian basis functions of B2  symmetry.
 There are     4 symmetry adapted basis functions of A1  symmetry.
 There are     0 symmetry adapted basis functions of A2  symmetry.
 There are     1 symmetry adapted basis functions of B1  symmetry.
 There are     2 symmetry adapted basis functions of B2  symmetry.
     7 basis functions,    21 primitive gaussians,     7 cartesian basis functions
     5 alpha electrons        5 beta electrons
       nuclear repulsion energy         8.6190678584 Hartrees.
 IExCor=  402 DFT=T Ex+Corr=B3LYP ExCW=0 ScaHFX=  0.200000
 ScaDFX=  0.800000  0.720000  1.000000  0.810000 ScalE2=  1.000000  1.000000
 IRadAn=      0 IRanWt=     -1 IRanGd=            0 ICorTp=0 IEmpDi=  4
 NAtoms=    3 NActive=    3 NUniq=    2 SFac= 2.25D+00 NAtFMM=   60 NAOKFM=F Big=F
 Integral buffers will be    131072 words long.
 Raffenetti 2 integral format.
 Two-electron integral symmetry is turned on.
 Leave Link  301 at Wed Jul  1 22:03:48 2026, MaxMem=  4026531840 cpu:         1.9
 (Enter /home/p20190052/g09/l302.exe)
 NPDir=0 NMtPBC=     1 NCelOv=     1 NCel=       1 NClECP=     1 NCelD=      1
         NCelK=      1 NCelE2=     1 NClLst=     1 CellRange=     0.0.
 One-electron integrals computed using PRISM.
 One-electron integral symmetry used in STVInt
 NBasis=     7 RedAO= T EigKep=  5.41D-01  NBF=     4     0     1     2
 NBsUse=     7 1.00D-06 EigRej= -1.00D+00 NBFU=     4     0     1     2
 Precomputing XC quadrature grid using
 IXCGrd= 4 IRadAn=           0 IRanWt=          -1 IRanGd=           0 AccXCQ= 0.00D+00.
 Generated NRdTot=       0 NPtTot=           0 NUsed=           0 NTot=          32
 NSgBfM=     7     7     7     7     7 MxSgAt=     3 MxSgA2=     3.
 Leave Link  302 at Wed Jul  1 22:03:48 2026, MaxMem=  4026531840 cpu:        10.0
 (Enter /home/p20190052/g09/l303.exe)
 DipDrv:  MaxL=1.
 Leave Link  303 at Wed Jul  1 22:03:48 2026, MaxMem=  4026531840 cpu:         0.7
 (Enter /home/p20190052/g09/l401.exe)
 Initial guess from the checkpoint file:  "H2O_b3lyp_STO-3G.chk"
 B after Tr=     0.000000    0.000000   -0.000000
         Rot=    1.000000    0.000000   -0.000000    0.000000 Ang=   0.00 deg.
 Guess basis will be translated and rotated to current coordinates.
 JPrj=2 DoOrth=T DoCkMO=T.
 Initial guess orbital symmetries:
       Occupied  (A1) (A1) (B2) (A1) (B1)
       Virtual   (A1) (B2)
 The electronic state of the initial guess is 1-A1.
 Generating alternative initial guess.
 ExpMin= 1.69D-01 ExpMax= 1.31D+02 ExpMxC= 1.31D+02 IAcc=1 IRadAn=         1 AccDes= 0.00D+00
 Harris functional with IExCor=  402 and IRadAn=       1 diagonalized for initial guess.
 HarFok:  IExCor=  402 AccDes= 0.00D+00 IRadAn=         1 IDoV= 1 UseB2=F ITyADJ=14
 ICtDFT=  3500011 ScaDFX=  1.000000  1.000000  1.000000  1.000000
 FoFCou: FMM=F IPFlag=           0 FMFlag=      100000 FMFlg1=           0
         NFxFlg=           0 DoJE=T BraDBF=F KetDBF=T FulRan=T
         wScrn=  0.000000 ICntrl=     500 IOpCl=  0 I1Cent=   200000004 NGrid=           0
         NMat0=    1 NMatS0=      1 NMatT0=    0 NMatD0=    1 NMtDS0=    0 NMtDT0=    0
 Petite list used in FoFCou.
 Harris En= -75.3708341334641    
 Leave Link  401 at Wed Jul  1 22:03:49 2026, MaxMem=  4026531840 cpu:        12.4
 (Enter /home/p20190052/g09/l502.exe)
 Closed shell SCF:
 Using DIIS extrapolation, IDIIS=  1040.
 Integral symmetry usage will be decided dynamically.
 Keep R1 ints in memory in symmetry-blocked form, NReq=868328.
 IVT=       20887 IEndB=       20887 NGot=  4026531840 MDV=  4026510531
 LenX=  4026510531 LenY=  4026509649
 Requested convergence on RMS density matrix=1.00D-08 within 128 cycles.
 Requested convergence on MAX density matrix=1.00D-06.
 Requested convergence on             energy=1.00D-06.
 No special actions if energy rises.
 FoFCou: FMM=F IPFlag=           0 FMFlag=           0 FMFlg1=           0
         NFxFlg=           0 DoJE=F BraDBF=F KetDBF=F FulRan=T
         wScrn=  0.000000 ICntrl=     600 IOpCl=  0 I1Cent=           0 NGrid=           0
         NMat0=    1 NMatS0=     28 NMatT0=    0 NMatD0=    1 NMtDS0=    0 NMtDT0=    0
 Petite list used in FoFCou.
 Integral accuracy reduced to 1.0D-05 until final iterations.

 Cycle   1  Pass 0  IDiag  1:
 E= -75.3206375696273    
 DIIS: error= 1.16D-02 at cycle   1 NSaved=   1.
 NSaved= 1 IEnMin= 1 EnMin= -75.3206375696273     IErMin= 1 ErrMin= 1.16D-02
 ErrMax= 1.16D-02  0.00D+00 EMaxC= 1.00D-01 BMatC= 1.06D-03 BMatP= 1.06D-03
 IDIUse=3 WtCom= 8.84D-01 WtEn= 1.16D-01
 Coeff-Com:  0.100D+01
 Coeff-En:   0.100D+01
 Coeff:      0.100D+01
 Recover alternate guess density for next cycle.
 RMSDP=3.17D-02 MaxDP=1.25D-01              OVMax= 0.00D+00

 Cycle   2  Pass 0  IDiag  1:
 E= -75.2714327910175     Delta-E=        0.049204778610 Rises=F Damp=F
 Switch densities from cycles 1 and 2 for lowest energy.
 DIIS: error= 7.25D-02 at cycle   2 NSaved=   2.
 NSaved= 2 IEnMin= 1 EnMin= -75.3206375696273     IErMin= 1 ErrMin= 1.16D-02
 ErrMax= 7.25D-02  0.00D+00 EMaxC= 1.00D+00 BMatC= 3.49D-02 BMatP= 1.06D-03
 IDIUse=1 WtCom= 1.00D+00 WtEn= 0.00D+00
 Coeff-Com:  0.110D+01-0.974D-01
 Coeff:      0.110D+01-0.974D-01
 Gap=     0.449 Goal=   None    Shift=    0.000
 RMSDP=1.31D-02 MaxDP=4.49D-02 DE= 4.92D-02 OVMax= 0.00D+00

 Cycle   3  Pass 0  IDiag  1:
 E= -75.3226255581017     Delta-E=       -0.051192767084 Rises=F Damp=F
 DIIS: error= 3.46D-03 at cycle   3 NSaved=   3.
 NSaved= 3 IEnMin= 3 EnMin= -75.3226255581017     IErMin= 3 ErrMin= 3.46D-03
 ErrMax= 3.46D-03  0.00D+00 EMaxC= 1.00D+00 BMatC= 6.26D-05 BMatP= 1.06D-03
 IDIUse=1 WtCom= 1.00D+00 WtEn= 0.00D+00
 Coeff-Com: -0.810D-01 0.507D-01 0.103D+01
 Coeff:     -0.810D-01 0.507D-01 0.103D+01
 Gap=     0.454 Goal=   None    Shift=    0.000
 RMSDP=1.53D-03 MaxDP=6.48D-03 DE=-5.12D-02 OVMax= 0.00D+00

 Cycle   4  Pass 0  IDiag  1:
 E= -75.3227148399835     Delta-E=       -0.000089281882 Rises=F Damp=F
 DIIS: error= 1.06D-04 at cycle   4 NSaved=   4.
 NSaved= 4 IEnMin= 4 EnMin= -75.3227148399835     IErMin= 4 ErrMin= 1.06D-04
 ErrMax= 1.06D-04  0.00D+00 EMaxC= 1.00D+00 BMatC= 5.45D-08 BMatP= 6.26D-05
 IDIUse=1 WtCom= 1.00D+00 WtEn= 0.00D+00
 Coeff-Com:  0.206D-02-0.183D-02-0.689D-01 0.107D+01
 Coeff:      0.206D-02-0.183D-02-0.689D-01 0.107D+01
 Gap=     0.454 Goal=   None    Shift=    0.000
 RMSDP=6.15D-05 MaxDP=2.29D-04 DE=-8.93D-05 OVMax= 0.00D+00

 Cycle   5  Pass 0  IDiag  1:
 E= -75.3227149304213     Delta-E=       -0.000000090438 Rises=F Damp=F
 DIIS: error= 6.14D-07 at cycle   5 NSaved=   5.
 NSaved= 5 IEnMin= 5 EnMin= -75.3227149304213     IErMin= 5 ErrMin= 6.14D-07
 ErrMax= 6.14D-07  0.00D+00 EMaxC= 1.00D+00 BMatC= 2.87D-12 BMatP= 5.45D-08
 IDIUse=1 WtCom= 1.00D+00 WtEn= 0.00D+00
 Coeff-Com:  0.729D-04-0.622D-04-0.221D-02 0.385D-01 0.964D+00
 Coeff:      0.729D-04-0.622D-04-0.221D-02 0.385D-01 0.964D+00
 Gap=     0.454 Goal=   None    Shift=    0.000
 RMSDP=3.97D-07 MaxDP=1.27D-06 DE=-9.04D-08 OVMax= 0.00D+00

 Initial convergence to 1.0D-05 achieved.  Increase integral accuracy.
 Cycle   6  Pass 1  IDiag  1:
 E= -75.3227296323551     Delta-E=       -0.000014701934 Rises=F Damp=F
 DIIS: error= 1.01D-06 at cycle   1 NSaved=   1.
 NSaved= 1 IEnMin= 1 EnMin= -75.3227296323551     IErMin= 1 ErrMin= 1.01D-06
 ErrMax= 1.01D-06  0.00D+00 EMaxC= 1.00D+00 BMatC= 7.91D-12 BMatP= 7.91D-12
 IDIUse=1 WtCom= 1.00D+00 WtEn= 0.00D+00
 Coeff-Com:  0.100D+01
 Coeff:      0.100D+01
 Gap=     0.454 Goal=   None    Shift=    0.000
 RMSDP=3.97D-07 MaxDP=1.27D-06 DE=-1.47D-05 OVMax= 0.00D+00

 Cycle   7  Pass 1  IDiag  1:
 E= -75.3227296323592     Delta-E=       -0.000000000004 Rises=F Damp=F
 DIIS: error= 5.73D-07 at cycle   2 NSaved=   2.
 NSaved= 2 IEnMin= 2 EnMin= -75.3227296323592     IErMin= 2 ErrMin= 5.73D-07
 ErrMax= 5.73D-07  0.00D+00 EMaxC= 1.00D+00 BMatC= 2.30D-12 BMatP= 7.91D-12
 IDIUse=1 WtCom= 1.00D+00 WtEn= 0.00D+00
 Coeff-Com:  0.321D+00 0.679D+00
 Coeff:      0.321D+00 0.679D+00
 Gap=     0.454 Goal=   None    Shift=    0.000
 RMSDP=3.58D-07 MaxDP=1.18D-06 DE=-4.12D-12 OVMax= 0.00D+00

 Cycle   8  Pass 1  IDiag  1:
 E= -75.3227296323620     Delta-E=       -0.000000000003 Rises=F Damp=F
 DIIS: error= 1.51D-07 at cycle   3 NSaved=   3.
 NSaved= 3 IEnMin= 3 EnMin= -75.3227296323620     IErMin= 3 ErrMin= 1.51D-07
 ErrMax= 1.51D-07  0.00D+00 EMaxC= 1.00D+00 BMatC= 1.83D-13 BMatP= 2.30D-12
 IDIUse=1 WtCom= 1.00D+00 WtEn= 0.00D+00
 Coeff-Com: -0.103D-01 0.212D+00 0.799D+00
 Coeff:     -0.103D-01 0.212D+00 0.799D+00
 Gap=     0.454 Goal=   None    Shift=    0.000
 RMSDP=8.99D-08 MaxDP=2.95D-07 DE=-2.81D-12 OVMax= 0.00D+00

 Cycle   9  Pass 1  IDiag  1:
 E= -75.3227296323622     Delta-E=       -0.000000000000 Rises=F Damp=F
 DIIS: error= 4.93D-09 at cycle   4 NSaved=   4.
 NSaved= 4 IEnMin= 4 EnMin= -75.3227296323622     IErMin= 4 ErrMin= 4.93D-09
 ErrMax= 4.93D-09  0.00D+00 EMaxC= 1.00D+00 BMatC= 1.15D-16 BMatP= 1.83D-13
 IDIUse=1 WtCom= 1.00D+00 WtEn= 0.00D+00
 Coeff-Com:  0.587D-04-0.139D-01-0.254D-01 0.104D+01
 Coeff:      0.587D-04-0.139D-01-0.254D-01 0.104D+01
 Gap=     0.454 Goal=   None    Shift=    0.000
 RMSDP=2.25D-09 MaxDP=9.71D-09 DE=-2.27D-13 OVMax= 0.00D+00

 SCF Done:  E(RB3LYP) =  -75.3227296324     A.U. after    9 cycles
            NFock=  9  Conv=0.23D-08     -V/T= 2.0113
 KE= 7.447892474165D+01 PE=-1.957704542793D+02 EE= 3.734973204690D+01
 Leave Link  502 at Wed Jul  1 22:03:49 2026, MaxMem=  4026531840 cpu:         6.2
 (Enter /home/p20190052/g09/l701.exe)
 Compute integral first derivatives.
 ... and contract with generalized density number  0.
 Leave Link  701 at Wed Jul  1 22:03:49 2026, MaxMem=  4026531840 cpu:        15.1
 (Enter /home/p20190052/g09/l702.exe)
 L702 exits ... SP integral derivatives will be done elsewhere.
 Leave Link  702 at Wed Jul  1 22:03:49 2026, MaxMem=  4026531840 cpu:         0.6
 (Enter /home/p20190052/g09/l703.exe)
 Compute integral first derivatives, UseDBF=F ICtDFT=           0.
 Integral derivatives from FoFJK, PRISM(SPDF).
 Calling FoFJK, ICntrl=      2127 FMM=F ISym2X=1 I1Cent= 0 IOpClX= 0 NMat=1 NMatS=1 NMatT=0.
 FoFJK:  IHMeth= 1 ICntrl=    2127 DoSepK=F KAlg= 0 I1Cent=   0 FoldK=F
 IRaf=         0 NMat=   1 IRICut=       1 DoRegI=T DoRafI=F ISym2E= 1.
 FoFCou: FMM=F IPFlag=           0 FMFlag=      100000 FMFlg1=         800
         NFxFlg=           0 DoJE=F BraDBF=F KetDBF=F FulRan=T
         wScrn=  0.000000 ICntrl=    2127 IOpCl=  0 I1Cent=           0 NGrid=           0
         NMat0=    1 NMatS0=      1 NMatT0=    0 NMatD0=    1 NMtDS0=    0 NMtDT0=    0
 Petite list used in FoFCou.
 Leave Link  703 at Wed Jul  1 22:03:49 2026, MaxMem=  4026531840 cpu:         5.5
 (Enter /home/p20190052/g09/l716.exe)
 Dipole        =-1.15731438D-17 0.00000000D+00-6.30613899D-01
 ***** Axes restored to original set *****
 -------------------------------------------------------------------
 Center     Atomic                   Forces (Hartrees/Bohr)
 Number     Number              X              Y              Z
 -------------------------------------------------------------------
      1        8           0.000000000    0.000000000   -0.002260258
      2        1          -0.000000000    0.003961589    0.001130129
      3        1          -0.000000000   -0.003961589    0.001130129
 -------------------------------------------------------------------
 Cartesian Forces:  Max     0.003961589 RMS     0.002083041
 Leave Link  716 at Wed Jul  1 22:03:49 2026, MaxMem=  4026531840 cpu:         0.7
 (Enter /home/p20190052/g09/l103.exe)

 GradGradGradGradGradGradGradGradGradGradGradGradGradGradGradGradGradGrad
 Berny optimization.
 Using GEDIIS/GDIIS optimizer.
 FormGI is forming the generalized inverse of G from B-inverse, IUseBI=4.
 Internal  Forces:  Max     0.003709325 RMS     0.003630152
 Search for a local minimum.
 Step number   2 out of a maximum of   20
 All quantities printed in internal units (Hartrees-Bohrs-Radians)
 RMS Force = .36302D-02 SwitMx=.10000D-02 MixMth= 1
 Mixed Optimization -- RFO/linear search
 Update second derivatives using D2CorX and points    1    2
 DE= -8.02D-03 DEPred=-8.45D-03 R= 9.49D-01
 TightC=F SS=  1.41D+00  RLast= 1.99D-01 DXNew= 5.0454D-01 5.9818D-01
 Trust test= 9.49D-01 RLast= 1.99D-01 DXMaxT set to 5.05D-01
 The second derivative matrix:
                          R1        R2        A1
           R1           0.52540
           R2          -0.01803   0.52540
           A1          -0.01631  -0.01631   0.17533
 ITU=  1  0
 Use linear search instead of GDIIS.
     Eigenvalues ---    0.17373   0.50896   0.54343
 RFO step:  Lambda=-1.19249824D-04 EMin= 1.73733241D-01
 Quartic linear search produced a step of  0.02710.
 Iteration  1 RMS(Cart)=  0.01633573 RMS(Int)=  0.00009615
 Iteration  2 RMS(Cart)=  0.00006329 RMS(Int)=  0.00000000
 Iteration  3 RMS(Cart)=  0.00000000 RMS(Int)=  0.00000000
 ITry= 1 IFail=0 DXMaxC= 1.93D-02 DCOld= 1.00D+10 DXMaxT= 5.05D-01 DXLimC= 3.00D+00 Rises=F
 ClnCor:  largest displacement from symmetrization is 3.34D-16 for atom     3.
 Variable       Old X    -DE/DX   Delta X   Delta X   Delta X     New X
                                 (Linear)    (Quad)   (Total)
    R1        1.93406   0.00371   0.00298   0.00525   0.00823   1.94229
    R2        1.93406   0.00371   0.00298   0.00525   0.00823   1.94229
    A1        1.68560   0.00347  -0.00339   0.02380   0.02041   1.70602
         Item               Value     Threshold  Converged?
 Maximum Force            0.003709     0.000450     NO 
 RMS     Force            0.003630     0.000300     NO 
 Maximum Displacement     0.019260     0.001800     NO 
 RMS     Displacement     0.016337     0.001200     NO 
 Predicted change in Energy=-6.640057D-05
 Lowest energy point so far.  Saving SCF results.
 GradGradGradGradGradGradGradGradGradGradGradGradGradGradGradGradGradGrad

 Leave Link  103 at Wed Jul  1 22:03:50 2026, MaxMem=  4026531840 cpu:         1.2
 (Enter /home/p20190052/g09/l202.exe)
                          Input orientation:                          
 ---------------------------------------------------------------------
 Center     Atomic      Atomic             Coordinates (Angstroms)
 Number     Number       Type             X           Y           Z
 ---------------------------------------------------------------------
      1          8           0       -0.535744   -0.000000   -0.735942
      2          1           0       -0.535744    0.774215   -0.059928
      3          1           0       -0.535744   -0.774215   -0.059928
 ---------------------------------------------------------------------
                    Distance matrix (angstroms):
                    1          2          3
     1  O    0.000000
     2  H    1.027815   0.000000
     3  H    1.027815   1.548430   0.000000
 Stoichiometry    H2O
 Framework group  C2V[C2(O),SGV(H2)]
 Deg. of freedom     2
 Full point group                 C2V     NOp   4
 RotChk:  IX=0 Diff= 8.68D-16
 Largest Abelian subgroup         C2V     NOp   4
 Largest concise Abelian subgroup C2      NOp   2
                         Standard orientation:                         
 ---------------------------------------------------------------------
 Center     Atomic      Atomic             Coordinates (Angstroms)
 Number     Number       Type             X           Y           Z
 ---------------------------------------------------------------------
      1          8           0        0.000000    0.000000    0.135203
      2          1           0       -0.000000    0.774215   -0.540812
      3          1           0       -0.000000   -0.774215   -0.540812
 ---------------------------------------------------------------------
 Rotational constants (GHZ):    617.7821678    418.2915682    249.4157151
 Leave Link  202 at Wed Jul  1 22:03:50 2026, MaxMem=  4026531840 cpu:         1.0
 (Enter /home/p20190052/g09/l301.exe)
 Standard basis: STO-3G (5D, 7F)
 Ernie: Thresh=  0.10000D-02 Tol=  0.10000D-05 Strict=F.
 There are     4 symmetry adapted cartesian basis functions of A1  symmetry.
 There are     0 symmetry adapted cartesian basis functions of A2  symmetry.
 There are     1 symmetry adapted cartesian basis functions of B1  symmetry.
 There are     2 symmetry adapted cartesian basis functions of B2  symmetry.
 There are     4 symmetry adapted basis functions of A1  symmetry.
 There are     0 symmetry adapted basis functions of A2  symmetry.
 There are     1 symmetry adapted basis functions of B1  symmetry.
 There are     2 symmetry adapted basis functions of B2  symmetry.
     7 basis functions,    21 primitive gaussians,     7 cartesian basis functions
     5 alpha electrons        5 beta electrons
       nuclear repulsion energy         8.5794522777 Hartrees.
 IExCor=  402 DFT=T Ex+Corr=B3LYP ExCW=0 ScaHFX=  0.200000
 ScaDFX=  0.800000  0.720000  1.000000  0.810000 ScalE2=  1.000000  1.000000
 IRadAn=      0 IRanWt=     -1 IRanGd=            0 ICorTp=0 IEmpDi=  4
 NAtoms=    3 NActive=    3 NUniq=    2 SFac= 2.25D+00 NAtFMM=   60 NAOKFM=F Big=F
 Integral buffers will be    131072 words long.
 Raffenetti 2 integral format.
 Two-electron integral symmetry is turned on.
 Leave Link  301 at Wed Jul  1 22:03:50 2026, MaxMem=  4026531840 cpu:         2.6
 (Enter /home/p20190052/g09/l302.exe)
 NPDir=0 NMtPBC=     1 NCelOv=     1 NCel=       1 NClECP=     1 NCelD=      1
         NCelK=      1 NCelE2=     1 NClLst=     1 CellRange=     0.0.
 One-electron integrals computed using PRISM.
 One-electron integral symmetry used in STVInt
 NBasis=     7 RedAO= T EigKep=  5.44D-01  NBF=     4     0     1     2
 NBsUse=     7 1.00D-06 EigRej= -1.00D+00 NBFU=     4     0     1     2
 Precomputing XC quadrature grid using
 IXCGrd= 4 IRadAn=           0 IRanWt=          -1 IRanGd=           0 AccXCQ= 0.00D+00.
 Generated NRdTot=       0 NPtTot=           0 NUsed=           0 NTot=          32
 NSgBfM=     7     7     7     7     7 MxSgAt=     3 MxSgA2=     3.
 Leave Link  302 at Wed Jul  1 22:03:50 2026, MaxMem=  4026531840 cpu:         9.9
 (Enter /home/p20190052/g09/l303.exe)
 DipDrv:  MaxL=1.
 Leave Link  303 at Wed Jul  1 22:03:50 2026, MaxMem=  4026531840 cpu:         0.7
 (Enter /home/p20190052/g09/l401.exe)
 Initial guess from the checkpoint file:  "H2O_b3lyp_STO-3G.chk"
 B after Tr=    -0.000000    0.000000    0.000000
         Rot=    1.000000    0.000000   -0.000000   -0.000000 Ang=   0.00 deg.
 Guess basis will be translated and rotated to current coordinates.
 JPrj=2 DoOrth=T DoCkMO=T.
 Initial guess orbital symmetries:
       Occupied  (A1) (A1) (B2) (A1) (B1)
       Virtual   (A1) (B2)
 The electronic state of the initial guess is 1-A1.
 Leave Link  401 at Wed Jul  1 22:03:50 2026, MaxMem=  4026531840 cpu:         2.6
 (Enter /home/p20190052/g09/l502.exe)
 Closed shell SCF:
 Using DIIS extrapolation, IDIIS=  1040.
 Integral symmetry usage will be decided dynamically.
 Keep R1 ints in memory in symmetry-blocked form, NReq=868328.
 IVT=       20887 IEndB=       20887 NGot=  4026531840 MDV=  4026510531
 LenX=  4026510531 LenY=  4026509649
 Requested convergence on RMS density matrix=1.00D-08 within 128 cycles.
 Requested convergence on MAX density matrix=1.00D-06.
 Requested convergence on             energy=1.00D-06.
 No special actions if energy rises.
 FoFCou: FMM=F IPFlag=           0 FMFlag=           0 FMFlg1=           0
         NFxFlg=           0 DoJE=F BraDBF=F KetDBF=F FulRan=T
         wScrn=  0.000000 ICntrl=     600 IOpCl=  0 I1Cent=           0 NGrid=           0
         NMat0=    1 NMatS0=     28 NMatT0=    0 NMatD0=    1 NMtDS0=    0 NMtDT0=    0
 Petite list used in FoFCou.

 Cycle   1  Pass 1  IDiag  1:
 E= -75.3227565827730    
 DIIS: error= 5.37D-04 at cycle   1 NSaved=   1.
 NSaved= 1 IEnMin= 1 EnMin= -75.3227565827730     IErMin= 1 ErrMin= 5.37D-04
 ErrMax= 5.37D-04  0.00D+00 EMaxC= 1.00D-01 BMatC= 2.56D-06 BMatP= 2.56D-06
 IDIUse=3 WtCom= 9.95D-01 WtEn= 5.37D-03
 Coeff-Com:  0.100D+01
 Coeff-En:   0.100D+01
 Coeff:      0.100D+01
 Gap=     0.449 Goal=   None    Shift=    0.000
 RMSDP=3.96D-04 MaxDP=1.30D-03              OVMax= 0.00D+00

 Cycle   2  Pass 1  IDiag  1:
 E= -75.3227589979530     Delta-E=       -0.000002415180 Rises=F Damp=F
 DIIS: error= 1.16D-04 at cycle   2 NSaved=   2.
 NSaved= 2 IEnMin= 2 EnMin= -75.3227589979530     IErMin= 2 ErrMin= 1.16D-04
 ErrMax= 1.16D-04  0.00D+00 EMaxC= 1.00D-01 BMatC= 1.35D-07 BMatP= 2.56D-06
 IDIUse=3 WtCom= 9.99D-01 WtEn= 1.16D-03
 Coeff-Com:  0.984D-01 0.902D+00
 Coeff-En:   0.000D+00 0.100D+01
 Coeff:      0.983D-01 0.902D+00
 Gap=     0.449 Goal=   None    Shift=    0.000
 RMSDP=1.33D-04 MaxDP=4.75D-04 DE=-2.42D-06 OVMax= 0.00D+00

 Cycle   3  Pass 1  IDiag  1:
 E= -75.3227591135216     Delta-E=       -0.000000115569 Rises=F Damp=F
 DIIS: error= 1.03D-04 at cycle   3 NSaved=   3.
 NSaved= 3 IEnMin= 3 EnMin= -75.3227591135216     IErMin= 3 ErrMin= 1.03D-04
 ErrMax= 1.03D-04  0.00D+00 EMaxC= 1.00D-01 BMatC= 7.04D-08 BMatP= 1.35D-07
 IDIUse=3 WtCom= 9.99D-01 WtEn= 1.03D-03
 Coeff-Com: -0.976D-02 0.413D+00 0.597D+00
 Coeff-En:   0.000D+00 0.271D+00 0.729D+00
 Coeff:     -0.975D-02 0.413D+00 0.597D+00
 Gap=     0.449 Goal=   None    Shift=    0.000
 RMSDP=4.85D-05 MaxDP=1.64D-04 DE=-1.16D-07 OVMax= 0.00D+00

 Cycle   4  Pass 1  IDiag  1:
 E= -75.3227592080484     Delta-E=       -0.000000094527 Rises=F Damp=F
 DIIS: error= 1.76D-06 at cycle   4 NSaved=   4.
 NSaved= 4 IEnMin= 4 EnMin= -75.3227592080484     IErMin= 4 ErrMin= 1.76D-06
 ErrMax= 1.76D-06  0.00D+00 EMaxC= 1.00D-01 BMatC= 2.18D-11 BMatP= 7.04D-08
 IDIUse=1 WtCom= 1.00D+00 WtEn= 0.00D+00
 Coeff-Com: -0.113D-02-0.368D-01-0.469D-01 0.108D+01
 Coeff:     -0.113D-02-0.368D-01-0.469D-01 0.108D+01
 Gap=     0.449 Goal=   None    Shift=    0.000
 RMSDP=2.72D-06 MaxDP=8.51D-06 DE=-9.45D-08 OVMax= 0.00D+00

 Cycle   5  Pass 1  IDiag  1:
 E= -75.3227592081280     Delta-E=       -0.000000000080 Rises=F Damp=F
 DIIS: error= 9.30D-08 at cycle   5 NSaved=   5.
 NSaved= 5 IEnMin= 5 EnMin= -75.3227592081280     IErMin= 5 ErrMin= 9.30D-08
 ErrMax= 9.30D-08  0.00D+00 EMaxC= 1.00D-01 BMatC= 4.93D-14 BMatP= 2.18D-11
 IDIUse=1 WtCom= 1.00D+00 WtEn= 0.00D+00
 Coeff-Com:  0.166D-04-0.829D-03-0.194D-02 0.143D-01 0.988D+00
 Coeff:      0.166D-04-0.829D-03-0.194D-02 0.143D-01 0.988D+00
 Gap=     0.449 Goal=   None    Shift=    0.000
 RMSDP=4.27D-08 MaxDP=1.65D-07 DE=-7.97D-11 OVMax= 0.00D+00

 Cycle   6  Pass 1  IDiag  1:
 E= -75.3227592081280     Delta-E=        0.000000000000 Rises=F Damp=F
 DIIS: error= 1.68D-12 at cycle   6 NSaved=   6.
 NSaved= 6 IEnMin= 5 EnMin= -75.3227592081280     IErMin= 6 ErrMin= 1.68D-12
 ErrMax= 1.68D-12  0.00D+00 EMaxC= 1.00D-01 BMatC= 1.92D-23 BMatP= 4.93D-14
 IDIUse=1 WtCom= 1.00D+00 WtEn= 0.00D+00
 Coeff-Com:  0.116D-08 0.475D-07 0.513D-07-0.174D-05-0.448D-05 0.100D+01
 Coeff:      0.116D-08 0.475D-07 0.513D-07-0.174D-05-0.448D-05 0.100D+01
 Gap=     0.449 Goal=   None    Shift=    0.000
 RMSDP=1.43D-12 MaxDP=4.39D-12 DE= 0.00D+00 OVMax= 0.00D+00

 SCF Done:  E(RB3LYP) =  -75.3227592081     A.U. after    6 cycles
            NFock=  6  Conv=0.14D-11     -V/T= 2.0115
 KE= 7.446986075460D+01 PE=-1.956957494729D+02 EE= 3.732367723246D+01
 Leave Link  502 at Wed Jul  1 22:03:50 2026, MaxMem=  4026531840 cpu:         7.5
 (Enter /home/p20190052/g09/l701.exe)
 Compute integral first derivatives.
 ... and contract with generalized density number  0.
 Leave Link  701 at Wed Jul  1 22:03:51 2026, MaxMem=  4026531840 cpu:        11.8
 (Enter /home/p20190052/g09/l702.exe)
 L702 exits ... SP integral derivatives will be done elsewhere.
 Leave Link  702 at Wed Jul  1 22:03:51 2026, MaxMem=  4026531840 cpu:         0.6
 (Enter /home/p20190052/g09/l703.exe)
 Compute integral first derivatives, UseDBF=F ICtDFT=           0.
 Integral derivatives from FoFJK, PRISM(SPDF).
 Calling FoFJK, ICntrl=      2127 FMM=F ISym2X=1 I1Cent= 0 IOpClX= 0 NMat=1 NMatS=1 NMatT=0.
 FoFJK:  IHMeth= 1 ICntrl=    2127 DoSepK=F KAlg= 0 I1Cent=   0 FoldK=F
 IRaf=         0 NMat=   1 IRICut=       1 DoRegI=T DoRafI=F ISym2E= 1.
 FoFCou: FMM=F IPFlag=           0 FMFlag=      100000 FMFlg1=         800
         NFxFlg=           0 DoJE=F BraDBF=F KetDBF=F FulRan=T
         wScrn=  0.000000 ICntrl=    2127 IOpCl=  0 I1Cent=           0 NGrid=           0
         NMat0=    1 NMatS0=      1 NMatT0=    0 NMatD0=    1 NMtDS0=    0 NMtDT0=    0
 Petite list used in FoFCou.
 Leave Link  703 at Wed Jul  1 22:03:51 2026, MaxMem=  4026531840 cpu:         5.5
 (Enter /home/p20190052/g09/l716.exe)
 Dipole        =-1.17130155D-17 0.00000000D+00-6.25559101D-01
 ***** Axes restored to original set *****
 -------------------------------------------------------------------
 Center     Atomic                   Forces (Hartrees/Bohr)
 Number     Number              X              Y              Z
 -------------------------------------------------------------------
      1        8           0.000000000   -0.000000000   -0.000949479
      2        1          -0.000000000   -0.001628785    0.000474739
      3        1          -0.000000000    0.001628785    0.000474739
 -------------------------------------------------------------------
 Cartesian Forces:  Max     0.001628785 RMS     0.000860113
 Leave Link  716 at Wed Jul  1 22:03:51 2026, MaxMem=  4026531840 cpu:         0.7
 (Enter /home/p20190052/g09/l103.exe)

 GradGradGradGradGradGradGradGradGradGradGradGradGradGradGradGradGradGrad
 Berny optimization.
 Using GEDIIS/GDIIS optimizer.
 FormGI is forming the generalized inverse of G from B-inverse, IUseBI=4.
 Internal  Forces:  Max     0.002775314 RMS     0.001767820
 Search for a local minimum.
 Step number   3 out of a maximum of   20
 All quantities printed in internal units (Hartrees-Bohrs-Radians)
 RMS Force = .17678D-02 SwitMx=.10000D-02 MixMth= 1
 Mixed Optimization -- RFO/linear search
 Update second derivatives using D2CorX and points    1    2    3
 DE= -2.96D-05 DEPred=-6.64D-05 R= 4.45D-01
 Trust test= 4.45D-01 RLast= 2.35D-02 DXMaxT set to 5.05D-01
 The second derivative matrix:
                          R1        R2        A1
           R1           0.51109
           R2          -0.03234   0.51109
           A1           0.03348   0.03348   0.27875
 ITU=  0  1  0
 Use linear search instead of GDIIS.
     Eigenvalues ---    0.26811   0.48940   0.54343
 RFO step:  Lambda=-3.85571974D-06 EMin= 2.68108606D-01
 Quartic linear search produced a step of -0.35557.
 Iteration  1 RMS(Cart)=  0.00656165 RMS(Int)=  0.00001917
 Iteration  2 RMS(Cart)=  0.00001442 RMS(Int)=  0.00000000
 Iteration  3 RMS(Cart)=  0.00000000 RMS(Int)=  0.00000000
 ITry= 1 IFail=0 DXMaxC= 7.18D-03 DCOld= 1.00D+10 DXMaxT= 5.05D-01 DXLimC= 3.00D+00 Rises=F
 ClnCor:  largest displacement from symmetrization is 4.03D-17 for atom     1.
 Variable       Old X    -DE/DX   Delta X   Delta X   Delta X     New X
                                 (Linear)    (Quad)   (Total)
    R1        1.94229  -0.00091  -0.00293   0.00168  -0.00125   1.94104
    R2        1.94229  -0.00091  -0.00293   0.00168  -0.00125   1.94104
    A1        1.70602  -0.00278  -0.00726  -0.00248  -0.00974   1.69627
         Item               Value     Threshold  Converged?
 Maximum Force            0.002775     0.000450     NO 
 RMS     Force            0.001768     0.000300     NO 
 Maximum Displacement     0.007178     0.001800     NO 
 RMS     Displacement     0.006567     0.001200     NO 
 Predicted change in Energy=-1.453242D-05
 Lowest energy point so far.  Saving SCF results.
 GradGradGradGradGradGradGradGradGradGradGradGradGradGradGradGradGradGrad

 Leave Link  103 at Wed Jul  1 22:03:51 2026, MaxMem=  4026531840 cpu:         0.4
 (Enter /home/p20190052/g09/l202.exe)
                          Input orientation:                          
 ---------------------------------------------------------------------
 Center     Atomic      Atomic             Coordinates (Angstroms)
 Number     Number       Type             X           Y           Z
 ---------------------------------------------------------------------
      1          8           0       -0.535744   -0.000000   -0.738160
      2          1           0       -0.535744    0.770416   -0.058819
      3          1           0       -0.535744   -0.770416   -0.058819
 ---------------------------------------------------------------------
                    Distance matrix (angstroms):
                    1          2          3
     1  O    0.000000
     2  H    1.027154   0.000000
     3  H    1.027154   1.540833   0.000000
 Stoichiometry    H2O
 Framework group  C2V[C2(O),SGV(H2)]
 Deg. of freedom     2
 Full point group                 C2V     NOp   4
 RotChk:  IX=0 Diff= 6.77D-16
 Largest Abelian subgroup         C2V     NOp   4
 Largest concise Abelian subgroup C2      NOp   2
                         Standard orientation:                         
 ---------------------------------------------------------------------
 Center     Atomic      Atomic             Coordinates (Angstroms)
 Number     Number       Type             X           Y           Z
 ---------------------------------------------------------------------
      1          8           0       -0.000000    0.000000    0.135868
      2          1           0        0.000000    0.770416   -0.543473
      3          1           0       -0.000000   -0.770416   -0.543473
 ---------------------------------------------------------------------
 Rotational constants (GHZ):    611.7471107    422.4264618    249.8789124
 Leave Link  202 at Wed Jul  1 22:03:51 2026, MaxMem=  4026531840 cpu:         1.6
 (Enter /home/p20190052/g09/l301.exe)
 Standard basis: STO-3G (5D, 7F)
 Ernie: Thresh=  0.10000D-02 Tol=  0.10000D-05 Strict=F.
 There are     4 symmetry adapted cartesian basis functions of A1  symmetry.
 There are     0 symmetry adapted cartesian basis functions of A2  symmetry.
 There are     1 symmetry adapted cartesian basis functions of B1  symmetry.
 There are     2 symmetry adapted cartesian basis functions of B2  symmetry.
 There are     4 symmetry adapted basis functions of A1  symmetry.
 There are     0 symmetry adapted basis functions of A2  symmetry.
 There are     1 symmetry adapted basis functions of B1  symmetry.
 There are     2 symmetry adapted basis functions of B2  symmetry.
     7 basis functions,    21 primitive gaussians,     7 cartesian basis functions
     5 alpha electrons        5 beta electrons
       nuclear repulsion energy         8.5864405637 Hartrees.
 IExCor=  402 DFT=T Ex+Corr=B3LYP ExCW=0 ScaHFX=  0.200000
 ScaDFX=  0.800000  0.720000  1.000000  0.810000 ScalE2=  1.000000  1.000000
 IRadAn=      0 IRanWt=     -1 IRanGd=            0 ICorTp=0 IEmpDi=  4
 NAtoms=    3 NActive=    3 NUniq=    2 SFac= 2.25D+00 NAtFMM=   60 NAOKFM=F Big=F
 Integral buffers will be    131072 words long.
 Raffenetti 2 integral format.
 Two-electron integral symmetry is turned on.
 Leave Link  301 at Wed Jul  1 22:03:51 2026, MaxMem=  4026531840 cpu:         1.8
 (Enter /home/p20190052/g09/l302.exe)
 NPDir=0 NMtPBC=     1 NCelOv=     1 NCel=       1 NClECP=     1 NCelD=      1
         NCelK=      1 NCelE2=     1 NClLst=     1 CellRange=     0.0.
 One-electron integrals computed using PRISM.
 One-electron integral symmetry used in STVInt
 NBasis=     7 RedAO= T EigKep=  5.44D-01  NBF=     4     0     1     2
 NBsUse=     7 1.00D-06 EigRej= -1.00D+00 NBFU=     4     0     1     2
 Precomputing XC quadrature grid using
 IXCGrd= 4 IRadAn=           0 IRanWt=          -1 IRanGd=           0 AccXCQ= 0.00D+00.
 Generated NRdTot=       0 NPtTot=           0 NUsed=           0 NTot=          32
 NSgBfM=     7     7     7     7     7 MxSgAt=     3 MxSgA2=     3.
 Leave Link  302 at Wed Jul  1 22:03:52 2026, MaxMem=  4026531840 cpu:        11.1
 (Enter /home/p20190052/g09/l303.exe)
 DipDrv:  MaxL=1.
 Leave Link  303 at Wed Jul  1 22:03:52 2026, MaxMem=  4026531840 cpu:         1.8
 (Enter /home/p20190052/g09/l401.exe)
 Initial guess from the checkpoint file:  "H2O_b3lyp_STO-3G.chk"
 B after Tr=    -0.000000   -0.000000   -0.000000
         Rot=    1.000000    0.000000    0.000000    0.000000 Ang=   0.00 deg.
 Guess basis will be translated and rotated to current coordinates.
 JPrj=2 DoOrth=T DoCkMO=T.
 Initial guess orbital symmetries:
       Occupied  (A1) (A1) (B2) (A1) (B1)
       Virtual   (A1) (B2)
 The electronic state of the initial guess is 1-A1.
 Leave Link  401 at Wed Jul  1 22:03:52 2026, MaxMem=  4026531840 cpu:         2.6
 (Enter /home/p20190052/g09/l502.exe)
 Closed shell SCF:
 Using DIIS extrapolation, IDIIS=  1040.
 Integral symmetry usage will be decided dynamically.
 Keep R1 ints in memory in symmetry-blocked form, NReq=868328.
 IVT=       20887 IEndB=       20887 NGot=  4026531840 MDV=  4026510531
 LenX=  4026510531 LenY=  4026509649
 Requested convergence on RMS density matrix=1.00D-08 within 128 cycles.
 Requested convergence on MAX density matrix=1.00D-06.
 Requested convergence on             energy=1.00D-06.
 No special actions if energy rises.
 FoFCou: FMM=F IPFlag=           0 FMFlag=           0 FMFlg1=           0
         NFxFlg=           0 DoJE=F BraDBF=F KetDBF=F FulRan=T
         wScrn=  0.000000 ICntrl=     600 IOpCl=  0 I1Cent=           0 NGrid=           0
         NMat0=    1 NMatS0=     28 NMatT0=    0 NMatD0=    1 NMtDS0=    0 NMtDT0=    0
 Petite list used in FoFCou.

 Cycle   1  Pass 1  IDiag  1:
 E= -75.3227725834822    
 DIIS: error= 2.59D-04 at cycle   1 NSaved=   1.
 NSaved= 1 IEnMin= 1 EnMin= -75.3227725834822     IErMin= 1 ErrMin= 2.59D-04
 ErrMax= 2.59D-04  0.00D+00 EMaxC= 1.00D-01 BMatC= 4.02D-07 BMatP= 4.02D-07
 IDIUse=3 WtCom= 9.97D-01 WtEn= 2.59D-03
 Coeff-Com:  0.100D+01
 Coeff-En:   0.100D+01
 Coeff:      0.100D+01
 Gap=     0.450 Goal=   None    Shift=    0.000
 RMSDP=3.44D-04 MaxDP=1.07D-03              OVMax= 0.00D+00

 Cycle   2  Pass 1  IDiag  1:
 E= -75.3227738194103     Delta-E=       -0.000001235928 Rises=F Damp=F
 DIIS: error= 9.02D-05 at cycle   2 NSaved=   2.
 NSaved= 2 IEnMin= 2 EnMin= -75.3227738194103     IErMin= 2 ErrMin= 9.02D-05
 ErrMax= 9.02D-05  0.00D+00 EMaxC= 1.00D-01 BMatC= 3.99D-08 BMatP= 4.02D-07
 IDIUse=1 WtCom= 1.00D+00 WtEn= 0.00D+00
 Coeff-Com:  0.549D-01 0.945D+00
 Coeff:      0.549D-01 0.945D+00
 Gap=     0.450 Goal=   None    Shift=    0.000
 RMSDP=6.09D-05 MaxDP=2.49D-04 DE=-1.24D-06 OVMax= 0.00D+00

 Cycle   3  Pass 1  IDiag  1:
 E= -75.3227738505694     Delta-E=       -0.000000031159 Rises=F Damp=F
 DIIS: error= 4.89D-05 at cycle   3 NSaved=   3.
 NSaved= 3 IEnMin= 3 EnMin= -75.3227738505694     IErMin= 3 ErrMin= 4.89D-05
 ErrMax= 4.89D-05  0.00D+00 EMaxC= 1.00D-01 BMatC= 2.01D-08 BMatP= 3.99D-08
 IDIUse=1 WtCom= 1.00D+00 WtEn= 0.00D+00
 Coeff-Com: -0.405D-01 0.429D+00 0.611D+00
 Coeff:     -0.405D-01 0.429D+00 0.611D+00
 Gap=     0.450 Goal=   None    Shift=    0.000
 RMSDP=2.94D-05 MaxDP=9.93D-05 DE=-3.12D-08 OVMax= 0.00D+00

 Cycle   4  Pass 1  IDiag  1:
 E= -75.3227738788506     Delta-E=       -0.000000028281 Rises=F Damp=F
 DIIS: error= 1.29D-06 at cycle   4 NSaved=   4.
 NSaved= 4 IEnMin= 4 EnMin= -75.3227738788506     IErMin= 4 ErrMin= 1.29D-06
 ErrMax= 1.29D-06  0.00D+00 EMaxC= 1.00D-01 BMatC= 1.01D-11 BMatP= 2.01D-08
 IDIUse=1 WtCom= 1.00D+00 WtEn= 0.00D+00
 Coeff-Com: -0.274D-02-0.221D-02 0.171D-01 0.988D+00
 Coeff:     -0.274D-02-0.221D-02 0.171D-01 0.988D+00
 Gap=     0.450 Goal=   None    Shift=    0.000
 RMSDP=8.81D-07 MaxDP=2.80D-06 DE=-2.83D-08 OVMax= 0.00D+00

 Cycle   5  Pass 1  IDiag  1:
 E= -75.3227738788668     Delta-E=       -0.000000000016 Rises=F Damp=F
 DIIS: error= 6.97D-09 at cycle   5 NSaved=   5.
 NSaved= 5 IEnMin= 5 EnMin= -75.3227738788668     IErMin= 5 ErrMin= 6.97D-09
 ErrMax= 6.97D-09  0.00D+00 EMaxC= 1.00D-01 BMatC= 3.25D-16 BMatP= 1.01D-11
 IDIUse=1 WtCom= 1.00D+00 WtEn= 0.00D+00
 Coeff-Com:  0.192D-04 0.102D-03-0.189D-03-0.100D-01 0.101D+01
 Coeff:      0.192D-04 0.102D-03-0.189D-03-0.100D-01 0.101D+01
 Gap=     0.450 Goal=   None    Shift=    0.000
 RMSDP=3.66D-09 MaxDP=1.13D-08 DE=-1.62D-11 OVMax= 0.00D+00

 SCF Done:  E(RB3LYP) =  -75.3227738789     A.U. after    5 cycles
            NFock=  5  Conv=0.37D-08     -V/T= 2.0114
 KE= 7.447172731804D+01 PE=-1.957073037492D+02 EE= 3.732636198860D+01
 Leave Link  502 at Wed Jul  1 22:03:52 2026, MaxMem=  4026531840 cpu:         5.6
 (Enter /home/p20190052/g09/l701.exe)
 Compute integral first derivatives.
 ... and contract with generalized density number  0.
 Leave Link  701 at Wed Jul  1 22:03:52 2026, MaxMem=  4026531840 cpu:        11.0
 (Enter /home/p20190052/g09/l702.exe)
 L702 exits ... SP integral derivatives will be done elsewhere.
 Leave Link  702 at Wed Jul  1 22:03:52 2026, MaxMem=  4026531840 cpu:         0.6
 (Enter /home/p20190052/g09/l703.exe)
 Compute integral first derivatives, UseDBF=F ICtDFT=           0.
 Integral derivatives from FoFJK, PRISM(SPDF).
 Calling FoFJK, ICntrl=      2127 FMM=F ISym2X=1 I1Cent= 0 IOpClX= 0 NMat=1 NMatS=1 NMatT=0.
 FoFJK:  IHMeth= 1 ICntrl=    2127 DoSepK=F KAlg= 0 I1Cent=   0 FoldK=F
 IRaf=         0 NMat=   1 IRICut=       1 DoRegI=T DoRafI=F ISym2E= 1.
 FoFCou: FMM=F IPFlag=           0 FMFlag=      100000 FMFlg1=         800
         NFxFlg=           0 DoJE=F BraDBF=F KetDBF=F FulRan=T
         wScrn=  0.000000 ICntrl=    2127 IOpCl=  0 I1Cent=           0 NGrid=           0
         NMat0=    1 NMatS0=      1 NMatT0=    0 NMatD0=    1 NMtDS0=    0 NMtDT0=    0
 Petite list used in FoFCou.
 Leave Link  703 at Wed Jul  1 22:03:53 2026, MaxMem=  4026531840 cpu:         5.6
 (Enter /home/p20190052/g09/l716.exe)
 Dipole        =-1.15700635D-17 0.00000000D+00-6.26983353D-01
 ***** Axes restored to original set *****
 -------------------------------------------------------------------
 Center     Atomic                   Forces (Hartrees/Bohr)
 Number     Number              X              Y              Z
 -------------------------------------------------------------------
      1        8           0.000000000    0.000000000    0.000002709
      2        1          -0.000000000    0.000000979   -0.000001355
      3        1          -0.000000000   -0.000000979   -0.000001355
 -------------------------------------------------------------------
 Cartesian Forces:  Max     0.000002709 RMS     0.000001199
 Leave Link  716 at Wed Jul  1 22:03:53 2026, MaxMem=  4026531840 cpu:         0.7
 (Enter /home/p20190052/g09/l103.exe)

 GradGradGradGradGradGradGradGradGradGradGradGradGradGradGradGradGradGrad
 Berny optimization.
 Using GEDIIS/GDIIS optimizer.
 FormGI is forming the generalized inverse of G from B-inverse, IUseBI=4.
 Internal  Forces:  Max     0.000003229 RMS     0.000001869
 Search for a local minimum.
 Step number   4 out of a maximum of   20
 All quantities printed in internal units (Hartrees-Bohrs-Radians)
 RMS Force = .18691D-05 SwitMx=.10000D-02 MixMth= 2
 Mixed Optimization -- En-DIIS/RFO-DIIS
 Update second derivatives using D2CorX and points    1    2    3    4
 DE= -1.47D-05 DEPred=-1.45D-05 R= 1.01D+00
 TightC=F SS=  1.41D+00  RLast= 9.90D-03 DXNew= 8.4853D-01 2.9707D-02
 Trust test= 1.01D+00 RLast= 9.90D-03 DXMaxT set to 5.05D-01
 The second derivative matrix:
                          R1        R2        A1
           R1           0.51582
           R2          -0.02761   0.51582
           A1           0.03124   0.03124   0.27716
 ITU=  1  0  1  0
 Use linear search instead of GDIIS.
     Eigenvalues ---    0.26828   0.49709   0.54343
 RFO step:  Lambda= 0.00000000D+00 EMin= 2.68281620D-01
 Quartic linear search produced a step of -0.00105.
 Iteration  1 RMS(Cart)=  0.00000708 RMS(Int)=  0.00000000
 Iteration  2 RMS(Cart)=  0.00000000 RMS(Int)=  0.00000000
 ITry= 1 IFail=0 DXMaxC= 6.78D-06 DCOld= 1.00D+10 DXMaxT= 5.05D-01 DXLimC= 3.00D+00 Rises=F
 ClnCor:  largest displacement from symmetrization is 1.39D-16 for atom     3.
 Variable       Old X    -DE/DX   Delta X   Delta X   Delta X     New X
                                 (Linear)    (Quad)   (Total)
    R1        1.94104  -0.00000   0.00000  -0.00000  -0.00000   1.94104
    R2        1.94104  -0.00000   0.00000  -0.00000  -0.00000   1.94104
    A1        1.69627   0.00000   0.00001   0.00000   0.00001   1.69629
         Item               Value     Threshold  Converged?
 Maximum Force            0.000003     0.000450     YES
 RMS     Force            0.000002     0.000300     YES
 Maximum Displacement     0.000007     0.001800     YES
 RMS     Displacement     0.000007     0.001200     YES
 Predicted change in Energy=-1.938707D-11
 Optimization completed.
    -- Stationary point found.
                           ----------------------------
                           !   Optimized Parameters   !
                           ! (Angstroms and Degrees)  !
 --------------------------                            --------------------------
 ! Name  Definition              Value          Derivative Info.                !
 --------------------------------------------------------------------------------
 ! R1    R(1,2)                  1.0272         -DE/DX =    0.0                 !
 ! R2    R(1,3)                  1.0272         -DE/DX =    0.0                 !
 ! A1    A(2,1,3)               97.1893         -DE/DX =    0.0                 !
 --------------------------------------------------------------------------------
 Lowest energy point so far.  Saving SCF results.
 GradGradGradGradGradGradGradGradGradGradGradGradGradGradGradGradGradGrad

 Largest change from initial coordinates is atom    2       0.068 Angstoms.
 Leave Link  103 at Wed Jul  1 22:03:53 2026, MaxMem=  4026531840 cpu:         0.2
 (Enter /home/p20190052/g09/l202.exe)
                          Input orientation:                          
 ---------------------------------------------------------------------
 Center     Atomic      Atomic             Coordinates (Angstroms)
 Number     Number       Type             X           Y           Z
 ---------------------------------------------------------------------
      1          8           0       -0.535744   -0.000000   -0.738160
      2          1           0       -0.535744    0.770416   -0.058819
      3          1           0       -0.535744   -0.770416   -0.058819
 ---------------------------------------------------------------------
                    Distance matrix (angstroms):
                    1          2          3
     1  O    0.000000
     2  H    1.027154   0.000000
     3  H    1.027154   1.540833   0.000000
 Stoichiometry    H2O
 Framework group  C2V[C2(O),SGV(H2)]
 Deg. of freedom     2
 Full point group                 C2V     NOp   4
 RotChk:  IX=0 Diff= 9.52D-16
 Largest Abelian subgroup         C2V     NOp   4
 Largest concise Abelian subgroup C2      NOp   2
                         Standard orientation:                         
 ---------------------------------------------------------------------
 Center     Atomic      Atomic             Coordinates (Angstroms)
 Number     Number       Type             X           Y           Z
 ---------------------------------------------------------------------
      1          8           0       -0.000000    0.000000    0.135868
      2          1           0       -0.000000    0.770416   -0.543473
      3          1           0       -0.000000   -0.770416   -0.543473
 ---------------------------------------------------------------------
 Rotational constants (GHZ):    611.7471107    422.4264618    249.8789124
 Leave Link  202 at Wed Jul  1 22:03:53 2026, MaxMem=  4026531840 cpu:         0.5
 (Enter /home/p20190052/g09/l601.exe)
 Copying SCF densities to generalized density rwf, IOpCl= 0 IROHF=0.

 **********************************************************************

            Population analysis using the SCF density.

 **********************************************************************

 Orbital symmetries:
       Occupied  (A1) (A1) (B2) (A1) (B1)
       Virtual   (A1) (B2)
 The electronic state is 1-A1.
 Alpha  occ. eigenvalues --  -18.85228  -0.91218  -0.40448  -0.25484  -0.14608
 Alpha virt. eigenvalues --    0.30420   0.38673
          Condensed to atoms (all electrons):
               1          2          3
     1  O    7.833171   0.232519   0.232519
     2  H    0.232519   0.656019  -0.037642
     3  H    0.232519  -0.037642   0.656019
 Mulliken charges:
               1
     1  O   -0.298209
     2  H    0.149104
     3  H    0.149104
 Sum of Mulliken charges =  -0.00000
 Mulliken charges with hydrogens summed into heavy atoms:
               1
     1  O   -0.000000
 Electronic spatial extent (au):  <R**2>=             18.7969
 Charge=             -0.0000 electrons
 Dipole moment (field-independent basis, Debye):
    X=             -0.0000    Y=              0.0000    Z=             -1.5936  Tot=              1.5936
 Quadrupole moment (field-independent basis, Debye-Ang):
   XX=             -6.1630   YY=             -4.5850   ZZ=             -5.2859
   XY=              0.0000   XZ=             -0.0000   YZ=              0.0000
 Traceless Quadrupole moment (field-independent basis, Debye-Ang):
   XX=             -0.8184   YY=              0.7597   ZZ=              0.0587
   XY=              0.0000   XZ=             -0.0000   YZ=              0.0000
 Octapole moment (field-independent basis, Debye-Ang**2):
  XXX=              0.0000  YYY=              0.0000  ZZZ=             -0.0665  XYY=              0.0000
  XXY=             -0.0000  XXZ=              0.0571  XZZ=              0.0000  YZZ=              0.0000
  YYZ=             -0.4953  XYZ=             -0.0000
 Hexadecapole moment (field-independent basis, Debye-Ang**3):
 XXXX=             -3.3068 YYYY=             -7.0768 ZZZZ=             -5.5899 XXXY=             -0.0000
 XXXZ=             -0.0000 YYYX=             -0.0000 YYYZ=              0.0000 ZZZX=             -0.0000
 ZZZY=              0.0000 XXYY=             -1.8696 XXZZ=             -1.5377 YYZZ=             -1.8268
 XXYZ=              0.0000 YYXZ=             -0.0000 ZZXY=             -0.0000
 N-N= 8.586440563708D+00 E-N=-1.957073036346D+02  KE= 7.447172731804D+01
 Symmetry A1   KE= 6.646925104052D+01
 Symmetry A2   KE= 0.000000000000D+00
 Symmetry B1   KE= 5.057462452019D+00
 Symmetry B2   KE= 2.945013825496D+00
 No NMR shielding tensors so no spin-rotation constants.
 Leave Link  601 at Wed Jul  1 22:03:53 2026, MaxMem=  4026531840 cpu:        12.3
 (Enter /home/p20190052/g09/l9999.exe)
 1\1\ WCSS.PL-BEM-NODE1\FOpt\RB3LYP\STO-3G\H2O1\P20190052\01-Jul-2026\0
 \\#p opt b3lyp/sto-3g geom=connectivity\\H2O b3lyp STO-3G\\0,1\O,-0.53
 574355,0.,-0.7381599782\H,-0.53574355,0.7704163143,-0.0588190709\H,-0.
 53574355,-0.7704163143,-0.0588190709\\Version=ES64L-G09RevE.01\State=1
 -A1\HF=-75.3227739\RMSD=3.656e-09\RMSF=1.199e-06\Dipole=0.,0.,0.626983
 4\Quadrupole=-0.6084258,0.5647941,0.0436317,0.,0.,0.\PG=C02V [C2(O1),S
 GV(H2)]\\@


 Where a calculator on the ENIAC is equipped with 18,000
 vacuum tubes and weighs 30 tons, computers inthe future
 may  have only 1,000 vacuum tubes and weigh only 1 1/2 tons.
              ---Popular Mechanics, March 1949
 Job cpu time:       0 days  0 hours  4 minutes 47.2 seconds.
 File lengths (MBytes):  RWF=      5 Int=      0 D2E=      0 Chk=      1 Scr=      1
 Normal termination of Gaussian 09 at Wed Jul  1 22:03:53 2026.
