 Entering Gaussian System, Link 0=g16
 Input=Propane-DFT-ccpvdz.gjf
 Output=Propane-DFT-ccpvdz.log
 Initial command:
 /home/user/gaussian16_I/g16/l1.exe "/home/user/gaussian16_I/temp/Gau-3561664.inp" -scrdir="/home/user/gaussian16_I/temp/"
 Entering Link 1 = /home/user/gaussian16_I/g16/l1.exe PID=   3561665.
  
 Copyright (c) 1988-2021, Gaussian, Inc.  All Rights Reserved.
  
 This is part of the Gaussian(R) 16 program.  It is based on
 the Gaussian(R) 09 system (copyright 2009, Gaussian, Inc.),
 the Gaussian(R) 03 system (copyright 2003, Gaussian, Inc.),
 the Gaussian(R) 98 system (copyright 1998, Gaussian, Inc.),
 the Gaussian(R) 94 system (copyright 1995, Gaussian, Inc.),
 the Gaussian 92(TM) system (copyright 1992, Gaussian, Inc.),
 the Gaussian 90(TM) system (copyright 1990, Gaussian, Inc.),
 the Gaussian 88(TM) system (copyright 1988, Gaussian, Inc.),
 the Gaussian 86(TM) system (copyright 1986, Carnegie Mellon
 University), and the Gaussian 82(TM) system (copyright 1983,
 Carnegie Mellon University). Gaussian is a federally registered
 trademark of Gaussian, Inc.
  
 This software contains proprietary and confidential information,
 including trade secrets, belonging to Gaussian, Inc.
  
 This software is provided under written license and may be
 used, copied, transmitted, or stored only in accord with that
 written license.
  
 The following legend is applicable only to US Government
 contracts under FAR:
  
                    RESTRICTED RIGHTS LEGEND
  
 Use, reproduction and disclosure by the US Government is
 subject to restrictions as set forth in subparagraphs (a)
 and (c) of the Commercial Computer Software - Restricted
 Rights clause in FAR 52.227-19.
  
 Gaussian, Inc.
 340 Quinnipiac St., Bldg. 40, Wallingford CT 06492
  
  
 ---------------------------------------------------------------
 Warning -- This program may not be used in any manner that
 competes with the business of Gaussian, Inc. or will provide
 assistance to any competitor of Gaussian, Inc.  The licensee
 of this program is prohibited from giving any competitor of
 Gaussian, Inc. access to this program.  By using this program,
 the user acknowledges that Gaussian, Inc. is engaged in the
 business of creating and licensing software in the field of
 computational chemistry and represents and warrants to the
 licensee that it is not a competitor of Gaussian, Inc. and that
 it will not use this program in any manner prohibited above.
 ---------------------------------------------------------------
  

 Cite this work as:
 Gaussian 16, Revision C.02,
 M. J. Frisch, G. W. Trucks, H. B. Schlegel, G. E. Scuseria, 
 M. A. Robb, J. R. Cheeseman, G. Scalmani, V. Barone, 
 G. A. Petersson, H. Nakatsuji, X. Li, M. Caricato, A. V. Marenich, 
 J. Bloino, B. G. Janesko, R. Gomperts, B. Mennucci, H. P. Hratchian, 
 J. V. Ortiz, A. F. Izmaylov, J. L. Sonnenberg, D. Williams-Young, 
 F. Ding, F. Lipparini, F. Egidi, J. Goings, B. Peng, A. Petrone, 
 T. Henderson, D. Ranasinghe, V. G. Zakrzewski, J. Gao, N. Rega, 
 G. Zheng, W. Liang, M. Hada, M. Ehara, K. Toyota, R. Fukuda, 
 J. Hasegawa, M. Ishida, T. Nakajima, Y. Honda, O. Kitao, H. Nakai, 
 T. Vreven, K. Throssell, J. A. Montgomery, Jr., J. E. Peralta, 
 F. Ogliaro, M. J. Bearpark, J. J. Heyd, E. N. Brothers, K. N. Kudin, 
 V. N. Staroverov, T. A. Keith, R. Kobayashi, J. Normand, 
 K. Raghavachari, A. P. Rendell, J. C. Burant, S. S. Iyengar, 
 J. Tomasi, M. Cossi, J. M. Millam, M. Klene, C. Adamo, R. Cammi, 
 J. W. Ochterski, R. L. Martin, K. Morokuma, O. Farkas, 
 J. B. Foresman, and D. J. Fox, Gaussian, Inc., Wallingford CT, 2019.
 
 ******************************************
 Gaussian 16:  ES64L-G16RevC.02  7-Dec-2021
                21-Mar-2026 
 ******************************************
 %mem=10GB
 %CPU=0-23
 SetSPE:  set environment variable "OMP_PROC_BIND" = "true"
 SetSPE:  set environment variable "OMP_PLACES" = "{0},{1},{2},{3},{4},{5},{6},{7},{8},{9},{10},{11},{12},{13},{14},{15},{16},{17},{18},{19},{20},{21},{22},{23}"
 Will use up to   24 processors via shared memory.
 %chk=Propane-DFT-ccpvdz.chk
 --------------------------------------------------
 # opt freq b3lyp/cc-pvdz pop=nbo geom=connectivity
 --------------------------------------------------
 1/18=20,19=15,26=3,38=1,57=2/1,3;
 2/9=110,12=2,17=6,18=5,40=1/2;
 3/5=16,11=2,25=1,30=1,71=1,74=-5/1,2,3;
 4//1;
 5/5=2,38=5/2;
 6/7=2,8=2,9=2,10=2,28=1,40=1/1,7;
 7//1,2,3,16;
 1/18=20,19=15,26=3/3(2);
 2/9=110/2;
 99//99;
 2/9=110/2;
 3/5=16,11=2,25=1,30=1,71=1,74=-5/1,2,3;
 4/5=5,16=3,69=1/1;
 5/5=2,38=5/2;
 7//1,2,3,16;
 1/18=20,19=15,26=3/3(-5);
 2/9=110/2;
 6/7=2,8=2,9=2,10=2,19=2,28=1,40=1/1,7;
 99/9=1/99;
 -------------------
 Propane-dft-cc-pvdz
 -------------------
 Symbolic Z-matrix:
 Charge =  0 Multiplicity = 1
 C                    -0.86401  -0.04457  -0.73872 
 H                    -0.98605   0.17217   0.30197 
 H                    -0.10708   0.59076  -1.14898 
 H                    -1.78856   0.12643  -1.24947 
 C                    -0.44711  -1.51703  -0.91095 
 C                    -0.27146  -1.82897  -2.40876 
 H                     0.47744  -1.68803  -0.4002 
 H                    -1.20404  -2.15236  -0.50069 
 H                     0.48547  -1.19364  -2.81903 
 H                    -1.19601  -1.65797  -2.91952 
 H                     0.01821  -2.85204  -2.52844 
 

 GradGradGradGradGradGradGradGradGradGradGradGradGradGradGradGradGradGrad
 Berny optimization.
 Initialization pass.
                           ----------------------------
                           !    Initial Parameters    !
                           ! (Angstroms and Degrees)  !
 --------------------------                            --------------------------
 ! Name  Definition              Value          Derivative Info.                !
 --------------------------------------------------------------------------------
 ! R1    R(1,2)                  1.07           estimate D2E/DX2                !
 ! R2    R(1,3)                  1.07           estimate D2E/DX2                !
 ! R3    R(1,4)                  1.07           estimate D2E/DX2                !
 ! R4    R(1,5)                  1.54           estimate D2E/DX2                !
 ! R5    R(5,6)                  1.54           estimate D2E/DX2                !
 ! R6    R(5,7)                  1.07           estimate D2E/DX2                !
 ! R7    R(5,8)                  1.07           estimate D2E/DX2                !
 ! R8    R(6,9)                  1.07           estimate D2E/DX2                !
 ! R9    R(6,10)                 1.07           estimate D2E/DX2                !
 ! R10   R(6,11)                 1.07           estimate D2E/DX2                !
 ! A1    A(2,1,3)              109.4712         estimate D2E/DX2                !
 ! A2    A(2,1,4)              109.4712         estimate D2E/DX2                !
 ! A3    A(2,1,5)              109.4712         estimate D2E/DX2                !
 ! A4    A(3,1,4)              109.4712         estimate D2E/DX2                !
 ! A5    A(3,1,5)              109.4712         estimate D2E/DX2                !
 ! A6    A(4,1,5)              109.4712         estimate D2E/DX2                !
 ! A7    A(1,5,6)              109.4712         estimate D2E/DX2                !
 ! A8    A(1,5,7)              109.4712         estimate D2E/DX2                !
 ! A9    A(1,5,8)              109.4712         estimate D2E/DX2                !
 ! A10   A(6,5,7)              109.4712         estimate D2E/DX2                !
 ! A11   A(6,5,8)              109.4712         estimate D2E/DX2                !
 ! A12   A(7,5,8)              109.4712         estimate D2E/DX2                !
 ! A13   A(5,6,9)              109.4712         estimate D2E/DX2                !
 ! A14   A(5,6,10)             109.4712         estimate D2E/DX2                !
 ! A15   A(5,6,11)             109.4712         estimate D2E/DX2                !
 ! A16   A(9,6,10)             109.4712         estimate D2E/DX2                !
 ! A17   A(9,6,11)             109.4712         estimate D2E/DX2                !
 ! A18   A(10,6,11)            109.4712         estimate D2E/DX2                !
 ! D1    D(2,1,5,6)            180.0            estimate D2E/DX2                !
 ! D2    D(2,1,5,7)            -60.0            estimate D2E/DX2                !
 ! D3    D(2,1,5,8)             60.0            estimate D2E/DX2                !
 ! D4    D(3,1,5,6)            -60.0            estimate D2E/DX2                !
 ! D5    D(3,1,5,7)             60.0            estimate D2E/DX2                !
 ! D6    D(3,1,5,8)            180.0            estimate D2E/DX2                !
 ! D7    D(4,1,5,6)             60.0            estimate D2E/DX2                !
 ! D8    D(4,1,5,7)           -180.0            estimate D2E/DX2                !
 ! D9    D(4,1,5,8)            -60.0            estimate D2E/DX2                !
 ! D10   D(1,5,6,9)             60.0            estimate D2E/DX2                !
 ! D11   D(1,5,6,10)           -60.0            estimate D2E/DX2                !
 ! D12   D(1,5,6,11)           180.0            estimate D2E/DX2                !
 ! D13   D(7,5,6,9)            -60.0            estimate D2E/DX2                !
 ! D14   D(7,5,6,10)           180.0            estimate D2E/DX2                !
 ! D15   D(7,5,6,11)            60.0            estimate D2E/DX2                !
 ! D16   D(8,5,6,9)            180.0            estimate D2E/DX2                !
 ! D17   D(8,5,6,10)            60.0            estimate D2E/DX2                !
 ! D18   D(8,5,6,11)           -60.0            estimate D2E/DX2                !
 --------------------------------------------------------------------------------
 Trust Radius=3.00D-01 FncErr=1.00D-07 GrdErr=1.00D-06 EigMax=2.50D+02 EigMin=1.00D-04
 Number of steps in this run=     56 maximum allowed number of steps=    100.
 GradGradGradGradGradGradGradGradGradGradGradGradGradGradGradGradGradGrad

                          Input orientation:                          
 ---------------------------------------------------------------------
 Center     Atomic      Atomic             Coordinates (Angstroms)
 Number     Number       Type             X           Y           Z
 ---------------------------------------------------------------------
      1          6           0       -0.864010   -0.044571   -0.738716
      2          1           0       -0.986054    0.172170    0.301970
      3          1           0       -0.107082    0.590758   -1.148981
      4          1           0       -1.788560    0.126429   -1.249467
      5          6           0       -0.447108   -1.517027   -0.910954
      6          6           0       -0.271456   -1.828972   -2.408765
      7          1           0        0.477442   -1.688027   -0.400203
      8          1           0       -1.204036   -2.152356   -0.500690
      9          1           0        0.485472   -1.193642   -2.819029
     10          1           0       -1.196006   -1.657971   -2.919516
     11          1           0        0.018210   -2.852042   -2.528436
 ---------------------------------------------------------------------
                    Distance matrix (angstroms):
                    1          2          3          4          5
     1  C    0.000000
     2  H    1.070000   0.000000
     3  H    1.070000   1.747303   0.000000
     4  H    1.070000   1.747303   1.747303   0.000000
     5  C    1.540000   2.148263   2.148263   2.148263   0.000000
     6  C    2.514809   3.444314   2.732978   2.732978   1.540000
     7  H    2.148263   2.468846   2.468846   3.024610   1.070000
     8  H    2.148263   2.468846   3.024610   2.468846   1.070000
     9  H    2.732978   3.710993   2.514809   3.062243   2.148263
    10  H    2.732978   3.710993   3.062243   2.514809   2.148263
    11  H    3.444314   4.262112   3.710993   3.710993   2.148263
                    6          7          8          9         10
     6  C    0.000000
     7  H    2.148263   0.000000
     8  H    2.148263   1.747303   0.000000
     9  H    1.070000   2.468846   3.024610   0.000000
    10  H    1.070000   3.024610   2.468846   1.747303   0.000000
    11  H    1.070000   2.468846   2.468846   1.747303   1.747303
                   11
    11  H    0.000000
 Stoichiometry    C3H8
 Framework group  C2V[C2(C),SGV(C2H2),SGV'(H2),X(H4)]
 Deg. of freedom     9
 Full point group                 C2V     NOp   4
 Largest Abelian subgroup         C2V     NOp   4
 Largest concise Abelian subgroup C2V     NOp   4
                         Standard orientation:                         
 ---------------------------------------------------------------------
 Center     Atomic      Atomic             Coordinates (Angstroms)
 Number     Number       Type             X           Y           Z
 ---------------------------------------------------------------------
      1          6           0       -0.000000    1.257405   -0.273575
      2          1           0       -0.000000    2.131056    0.344190
      3          1           0        0.873651    1.257405   -0.891340
      4          1           0       -0.873651    1.257405   -0.891340
      5          6           0        0.000000    0.000000    0.615544
      6          6           0       -0.000000   -1.257405   -0.273575
      7          1           0        0.873651    0.000000    1.233309
      8          1           0       -0.873651    0.000000    1.233309
      9          1           0        0.873651   -1.257405   -0.891340
     10          1           0       -0.873651   -1.257405   -0.891340
     11          1           0       -0.000000   -2.131056    0.344190
 ---------------------------------------------------------------------
 Rotational constants (GHZ):          28.9413801           8.7001315           7.6203163
 Standard basis: CC-pVDZ (5D, 7F)
 There are    32 symmetry adapted cartesian basis functions of A1  symmetry.
 There are    12 symmetry adapted cartesian basis functions of A2  symmetry.
 There are    17 symmetry adapted cartesian basis functions of B1  symmetry.
 There are    24 symmetry adapted cartesian basis functions of B2  symmetry.
 There are    30 symmetry adapted basis functions of A1  symmetry.
 There are    12 symmetry adapted basis functions of A2  symmetry.
 There are    17 symmetry adapted basis functions of B1  symmetry.
 There are    23 symmetry adapted basis functions of B2  symmetry.
    82 basis functions,   155 primitive gaussians,    85 cartesian basis functions
    13 alpha electrons       13 beta electrons
       nuclear repulsion energy        83.3207430581 Hartrees.
 NAtoms=   11 NActive=   11 NUniq=    5 SFac= 4.00D+00 NAtFMM=   60 NAOKFM=F Big=F
 Integral buffers will be    131072 words long.
 Raffenetti 2 integral format.
 Two-electron integral symmetry is turned on.
 One-electron integrals computed using PRISM.
 NBasis=    82 RedAO= T EigKep=  5.80D-03  NBF=    30    12    17    23
 NBsUse=    82 1.00D-06 EigRej= -1.00D+00 NBFU=    30    12    17    23
 ExpMin= 1.22D-01 ExpMax= 6.67D+03 ExpMxC= 2.28D+02 IAcc=3 IRadAn=         5 AccDes= 0.00D+00
 Harris functional with IExCor=  402 and IRadAn=       5 diagonalized for initial guess.
 HarFok:  IExCor=  402 AccDes= 0.00D+00 IRadAn=         5 IDoV= 1 UseB2=F ITyADJ=14
 ICtDFT=  3500011 ScaDFX=  1.000000  1.000000  1.000000  1.000000
 FoFCou: FMM=F IPFlag=           0 FMFlag=      100000 FMFlg1=           0
         NFxFlg=           0 DoJE=T BraDBF=F KetDBF=T FulRan=T
         wScrn=  0.000000 ICntrl=       500 IOpCl=  0 I1Cent=   200000004 NGrid=           0
         NMat0=    1 NMatS0=      1 NMatT0=    0 NMatD0=    1 NMtDS0=    0 NMtDT0=    0
 Petite list used in FoFCou.
 Initial guess orbital symmetries:
       Occupied  (B2) (A1) (A1) (A1) (B2) (A1) (B1) (A1) (B2) (A2)
                 (B2) (A1) (B1)
       Virtual   (A1) (B2) (B1) (A1) (A1) (B2) (A1) (B1) (A2) (B2)
                 (A1) (B1) (B2) (A2) (A1) (A1) (B2) (B2) (B1) (B1)
                 (A1) (B2) (A2) (B1) (A1) (A1) (B2) (A1) (A2) (A1)
                 (B2) (A2) (B1) (B2) (A1) (B1) (A1) (A2) (B2) (A1)
                 (B1) (A2) (B2) (A1) (B1) (B2) (A1) (B1) (A2) (B1)
                 (A1) (B2) (B2) (A1) (B2) (A2) (A1) (B1) (B2) (A1)
                 (A2) (B1) (A1) (B2) (B2) (A1) (A1) (A2) (B1)
 The electronic state of the initial guess is 1-A1.
 Keep R1 ints in memory in symmetry-blocked form, NReq=27645467.
 Requested convergence on RMS density matrix=1.00D-08 within 128 cycles.
 Requested convergence on MAX density matrix=1.00D-06.
 Requested convergence on             energy=1.00D-06.
 No special actions if energy rises.
 Integral accuracy reduced to 1.0D-05 until final iterations.
 Initial convergence to 1.0D-05 achieved.  Increase integral accuracy.
 SCF Done:  E(RB3LYP) =  -119.137048924     A.U. after   11 cycles
            NFock= 11  Conv=0.31D-08     -V/T= 2.0066

 **********************************************************************

            Population analysis using the SCF Density.

 **********************************************************************

 Orbital symmetries:
       Occupied  (A1) (B2) (A1) (A1) (B2) (A1) (B1) (A1) (B2) (A2)
                 (A1) (B1) (B2)
       Virtual   (A1) (B2) (B1) (A1) (A1) (B1) (B2) (A2) (A1) (B2)
                 (A1) (B1) (A2) (B2) (A1) (B2) (A1) (B1) (B2) (B2)
                 (B1) (B1) (A2) (A1) (A1) (A1) (B2) (A1) (A2) (A1)
                 (B2) (A2) (B1) (B2) (A1) (B1) (A2) (A1) (B2) (A1)
                 (B1) (A2) (B2) (B1) (A1) (B2) (B1) (A2) (A1) (B1)
                 (A1) (B2) (B2) (A1) (B2) (A2) (A1) (B1) (B2) (A1)
                 (A2) (B1) (A1) (B2) (B2) (A1) (A1) (A2) (B1)
 The electronic state is 1-A1.
 Alpha  occ. eigenvalues --  -10.17300 -10.16452 -10.16450  -0.78134  -0.68149
 Alpha  occ. eigenvalues --   -0.58711  -0.46219  -0.43564  -0.39739  -0.38387
 Alpha  occ. eigenvalues --   -0.33611  -0.33547  -0.32708
 Alpha virt. eigenvalues --    0.06425   0.11067   0.11373   0.11451   0.14137
 Alpha virt. eigenvalues --    0.15878   0.16776   0.18031   0.20916   0.24644
 Alpha virt. eigenvalues --    0.40019   0.42679   0.43189   0.43573   0.44692
 Alpha virt. eigenvalues --    0.59389   0.59678   0.60652   0.63242   0.66922
 Alpha virt. eigenvalues --    0.67607   0.67963   0.68167   0.68274   0.69550
 Alpha virt. eigenvalues --    0.73700   0.75598   0.89382   0.90546   0.98371
 Alpha virt. eigenvalues --    1.13502   1.22358   1.23200   1.29619   1.37187
 Alpha virt. eigenvalues --    1.43356   1.44293   1.44305   1.58199   1.58350
 Alpha virt. eigenvalues --    1.62408   1.64822   1.66635   1.68955   1.69776
 Alpha virt. eigenvalues --    1.69880   1.71608   1.72407   1.73154   1.78769
 Alpha virt. eigenvalues --    1.86012   1.87823   2.00036   2.03254   2.04661
 Alpha virt. eigenvalues --    2.07176   2.22275   2.25105   2.29385   2.33846
 Alpha virt. eigenvalues --    2.33887   2.46875   2.48873   2.50172   2.53813
 Alpha virt. eigenvalues --    2.60100   2.66036   2.66169   2.72430
          Condensed to atoms (all electrons):
               1          2          3          4          5          6
     1  C    4.469139   0.380226   0.395136   0.395136   0.453327  -0.046516
     2  H    0.380226   0.694762  -0.029855  -0.029855  -0.015075   0.006343
     3  H    0.395136  -0.029855   0.683565  -0.031681  -0.026164  -0.004985
     4  H    0.395136  -0.029855  -0.031681   0.683565  -0.026164  -0.004985
     5  C    0.453327  -0.015075  -0.026164  -0.026164   4.523537   0.453327
     6  C   -0.046516   0.006343  -0.004985  -0.004985   0.453327   4.469139
     7  H   -0.024014  -0.004528  -0.009535   0.009512   0.378272  -0.024014
     8  H   -0.024014  -0.004528   0.009512  -0.009535   0.378272  -0.024014
     9  H   -0.004985   0.000211   0.007108  -0.001914  -0.026164   0.395136
    10  H   -0.004985   0.000211  -0.001914   0.007108  -0.026164   0.395136
    11  H    0.006343  -0.000655   0.000211   0.000211  -0.015075   0.380226
               7          8          9         10         11
     1  C   -0.024014  -0.024014  -0.004985  -0.004985   0.006343
     2  H   -0.004528  -0.004528   0.000211   0.000211  -0.000655
     3  H   -0.009535   0.009512   0.007108  -0.001914   0.000211
     4  H    0.009512  -0.009535  -0.001914   0.007108   0.000211
     5  C    0.378272   0.378272  -0.026164  -0.026164  -0.015075
     6  C   -0.024014  -0.024014   0.395136   0.395136   0.380226
     7  H    0.722105  -0.044063  -0.009535   0.009512  -0.004528
     8  H   -0.044063   0.722105   0.009512  -0.009535  -0.004528
     9  H   -0.009535   0.009512   0.683565  -0.031681  -0.029855
    10  H    0.009512  -0.009535  -0.031681   0.683565  -0.029855
    11  H   -0.004528  -0.004528  -0.029855  -0.029855   0.694762
 Mulliken charges:
               1
     1  C    0.005207
     2  H    0.002741
     3  H    0.008601
     4  H    0.008601
     5  C   -0.051927
     6  C    0.005207
     7  H    0.000814
     8  H    0.000814
     9  H    0.008601
    10  H    0.008601
    11  H    0.002741
 Sum of Mulliken charges =  -0.00000
 Mulliken charges with hydrogens summed into heavy atoms:
               1
     1  C    0.025150
     5  C   -0.050299
     6  C    0.025150
 Electronic spatial extent (au):  <R**2>=            221.8545
 Charge=             -0.0000 electrons
 Dipole moment (field-independent basis, Debye):
    X=              0.0000    Y=             -0.0000    Z=              0.0729  Tot=              0.0729
 Quadrupole moment (field-independent basis, Debye-Ang):
   XX=            -21.0714   YY=            -22.2571   ZZ=            -21.6956
   XY=              0.0000   XZ=              0.0000   YZ=              0.0000
 Traceless Quadrupole moment (field-independent basis, Debye-Ang):
   XX=              0.6033   YY=             -0.5824   ZZ=             -0.0209
   XY=              0.0000   XZ=              0.0000   YZ=              0.0000
 Octapole moment (field-independent basis, Debye-Ang**2):
  XXX=              0.0000  YYY=              0.0000  ZZZ=              0.1091  XYY=              0.0000
  XXY=             -0.0000  XXZ=             -0.2835  XZZ=              0.0000  YZZ=             -0.0000
  YYZ=              1.4705  XYZ=             -0.0000
 Hexadecapole moment (field-independent basis, Debye-Ang**3):
 XXXX=            -42.1728 YYYY=           -196.5559 ZZZZ=            -70.6925 XXXY=             -0.0000
 XXXZ=             -0.0000 YYYX=             -0.0000 YYYZ=             -0.0000 ZZZX=              0.0000
 ZZZY=             -0.0000 XXYY=            -40.0036 XXZZ=            -17.3072 YYZZ=            -44.0607
 XXYZ=             -0.0000 YYXZ=             -0.0000 ZZXY=              0.0000
 N-N= 8.332074305807D+01 E-N=-4.415561344590D+02  KE= 1.183547683313D+02
 Symmetry A1   KE= 7.322899344171D+01
 Symmetry A2   KE= 2.034878163172D+00
 Symmetry B1   KE= 3.857466980663D+00
 Symmetry B2   KE= 3.923342974579D+01
 ******************************Gaussian NBO Version 3.1******************************
             N A T U R A L   A T O M I C   O R B I T A L   A N D
          N A T U R A L   B O N D   O R B I T A L   A N A L Y S I S
 ******************************Gaussian NBO Version 3.1******************************
       /RESON  / : Allow strongly delocalized NBO set

 Analyzing the SCF density

 Job title: Propane-dft-cc-pvdz                                             

 Storage needed:     20628 in NPA,     27277 in NBO (1342176565 available)
 GSVD:  LWork=        3370 too small for GESVD, short by        2987 words or        2987 for optimal perf.


 NATURAL POPULATIONS:  Natural atomic orbital occupancies 
                                                          
   NAO  Atom  No  lang   Type(AO)    Occupancy      Energy
 ----------------------------------------------------------
     1    C    1  S      Cor( 1S)     1.99939     -10.03738
     2    C    1  S      Val( 2S)     1.09826      -0.22126
     3    C    1  S      Ryd( 3S)     0.00045       1.19643
     4    C    1  px     Val( 2p)     1.21287      -0.05026
     5    C    1  px     Ryd( 3p)     0.00095       0.57185
     6    C    1  py     Val( 2p)     1.12860      -0.05409
     7    C    1  py     Ryd( 3p)     0.00236       0.57180
     8    C    1  pz     Val( 2p)     1.16846      -0.05151
     9    C    1  pz     Ryd( 3p)     0.00123       0.55580
    10    C    1  dxy    Ryd( 3d)     0.00022       1.67738
    11    C    1  dxz    Ryd( 3d)     0.00071       1.99291
    12    C    1  dyz    Ryd( 3d)     0.00065       1.89184
    13    C    1  dx2y2  Ryd( 3d)     0.00059       1.93945
    14    C    1  dz2    Ryd( 3d)     0.00018       1.65929
 
    15    H    2  S      Val( 1S)     0.78868       0.09670
    16    H    2  S      Ryd( 2S)     0.00158       0.37002
    17    H    2  px     Ryd( 2p)     0.00023       1.71013
    18    H    2  py     Ryd( 2p)     0.00059       2.06282
    19    H    2  pz     Ryd( 2p)     0.00038       1.85045
 
    20    H    3  S      Val( 1S)     0.79491       0.09098
    21    H    3  S      Ryd( 2S)     0.00204       0.37942
    22    H    3  px     Ryd( 2p)     0.00060       2.06824
    23    H    3  py     Ryd( 2p)     0.00017       1.68686
    24    H    3  pz     Ryd( 2p)     0.00041       1.87957
 
    25    H    4  S      Val( 1S)     0.79491       0.09098
    26    H    4  S      Ryd( 2S)     0.00204       0.37942
    27    H    4  px     Ryd( 2p)     0.00060       2.06824
    28    H    4  py     Ryd( 2p)     0.00017       1.68686
    29    H    4  pz     Ryd( 2p)     0.00041       1.87957
 
    30    C    5  S      Cor( 1S)     1.99933     -10.04578
    31    C    5  S      Val( 2S)     1.03922      -0.20863
    32    C    5  S      Ryd( 3S)     0.00045       1.28617
    33    C    5  px     Val( 2p)     1.20884      -0.04216
    34    C    5  px     Ryd( 3p)     0.00204       0.67118
    35    C    5  py     Val( 2p)     1.02201      -0.05496
    36    C    5  py     Ryd( 3p)     0.00093       0.52818
    37    C    5  pz     Val( 2p)     1.11889      -0.04934
    38    C    5  pz     Ryd( 3p)     0.00109       0.52947
    39    C    5  dxy    Ryd( 3d)     0.00042       1.67192
    40    C    5  dxz    Ryd( 3d)     0.00090       2.05437
    41    C    5  dyz    Ryd( 3d)     0.00089       1.82831
    42    C    5  dx2y2  Ryd( 3d)     0.00090       1.92413
    43    C    5  dz2    Ryd( 3d)     0.00036       1.66443
 
    44    C    6  S      Cor( 1S)     1.99939     -10.03738
    45    C    6  S      Val( 2S)     1.09826      -0.22126
    46    C    6  S      Ryd( 3S)     0.00045       1.19643
    47    C    6  px     Val( 2p)     1.21287      -0.05026
    48    C    6  px     Ryd( 3p)     0.00095       0.57185
    49    C    6  py     Val( 2p)     1.12860      -0.05409
    50    C    6  py     Ryd( 3p)     0.00236       0.57180
    51    C    6  pz     Val( 2p)     1.16846      -0.05151
    52    C    6  pz     Ryd( 3p)     0.00123       0.55580
    53    C    6  dxy    Ryd( 3d)     0.00022       1.67738
    54    C    6  dxz    Ryd( 3d)     0.00071       1.99291
    55    C    6  dyz    Ryd( 3d)     0.00065       1.89184
    56    C    6  dx2y2  Ryd( 3d)     0.00059       1.93945
    57    C    6  dz2    Ryd( 3d)     0.00018       1.65929
 
    58    H    7  S      Val( 1S)     0.79519       0.10073
    59    H    7  S      Ryd( 2S)     0.00290       0.37264
    60    H    7  px     Ryd( 2p)     0.00061       2.08377
    61    H    7  py     Ryd( 2p)     0.00015       1.68303
    62    H    7  pz     Ryd( 2p)     0.00040       1.89681
 
    63    H    8  S      Val( 1S)     0.79519       0.10073
    64    H    8  S      Ryd( 2S)     0.00290       0.37264
    65    H    8  px     Ryd( 2p)     0.00061       2.08377
    66    H    8  py     Ryd( 2p)     0.00015       1.68303
    67    H    8  pz     Ryd( 2p)     0.00040       1.89681
 
    68    H    9  S      Val( 1S)     0.79491       0.09098
    69    H    9  S      Ryd( 2S)     0.00204       0.37942
    70    H    9  px     Ryd( 2p)     0.00060       2.06824
    71    H    9  py     Ryd( 2p)     0.00017       1.68686
    72    H    9  pz     Ryd( 2p)     0.00041       1.87957
 
    73    H   10  S      Val( 1S)     0.79491       0.09098
    74    H   10  S      Ryd( 2S)     0.00204       0.37942
    75    H   10  px     Ryd( 2p)     0.00060       2.06824
    76    H   10  py     Ryd( 2p)     0.00017       1.68686
    77    H   10  pz     Ryd( 2p)     0.00041       1.87957
 
    78    H   11  S      Val( 1S)     0.78868       0.09670
    79    H   11  S      Ryd( 2S)     0.00158       0.37002
    80    H   11  px     Ryd( 2p)     0.00023       1.71013
    81    H   11  py     Ryd( 2p)     0.00059       2.06282
    82    H   11  pz     Ryd( 2p)     0.00038       1.85045


 Summary of Natural Population Analysis:                  
                                                          
                                       Natural Population 
                Natural  -----------------------------------------------
    Atom  No    Charge         Core      Valence    Rydberg      Total
 -----------------------------------------------------------------------
      C    1   -0.61490      1.99939     4.60819    0.00732     6.61490
      H    2    0.20855      0.00000     0.78868    0.00277     0.79145
      H    3    0.20186      0.00000     0.79491    0.00323     0.79814
      H    4    0.20186      0.00000     0.79491    0.00323     0.79814
      C    5   -0.39627      1.99933     4.38896    0.00798     6.39627
      C    6   -0.61490      1.99939     4.60819    0.00732     6.61490
      H    7    0.20075      0.00000     0.79519    0.00406     0.79925
      H    8    0.20075      0.00000     0.79519    0.00406     0.79925
      H    9    0.20186      0.00000     0.79491    0.00323     0.79814
      H   10    0.20186      0.00000     0.79491    0.00323     0.79814
      H   11    0.20855      0.00000     0.78868    0.00277     0.79145
 =======================================================================
   * Total *    0.00000      5.99811    19.95270    0.04920    26.00000

                                 Natural Population      
 --------------------------------------------------------
   Core                       5.99811 ( 99.9684% of   6)
   Valence                   19.95270 ( 99.7635% of  20)
   Natural Minimal Basis     25.95080 ( 99.8108% of  26)
   Natural Rydberg Basis      0.04920 (  0.1892% of  26)
 --------------------------------------------------------

    Atom  No          Natural Electron Configuration
 ----------------------------------------------------------------------------
      C    1      [core]2S( 1.10)2p( 3.51)
      H    2            1S( 0.79)
      H    3            1S( 0.79)
      H    4            1S( 0.79)
      C    5      [core]2S( 1.04)2p( 3.35)
      C    6      [core]2S( 1.10)2p( 3.51)
      H    7            1S( 0.80)
      H    8            1S( 0.80)
      H    9            1S( 0.79)
      H   10            1S( 0.79)
      H   11            1S( 0.79)


 NATURAL BOND ORBITAL ANALYSIS:

                       Occupancies       Lewis Structure    Low   High
           Occ.    -------------------  -----------------   occ   occ
  Cycle   Thresh.   Lewis   Non-Lewis     CR  BD  3C  LP    (L)   (NL)   Dev
 =============================================================================
   1(1)    1.90    25.87232   0.12768      3  10   0   0     0      0    0.03
 -----------------------------------------------------------------------------

 Structure accepted: No low occupancy Lewis orbitals

 --------------------------------------------------------
   Core                      5.99810 ( 99.968% of   6)
   Valence Lewis            19.87422 ( 99.371% of  20)
  ==================       ============================
   Total Lewis              25.87232 ( 99.509% of  26)
  -----------------------------------------------------
   Valence non-Lewis         0.09182 (  0.353% of  26)
   Rydberg non-Lewis         0.03586 (  0.138% of  26)
  ==================       ============================
   Total non-Lewis           0.12768 (  0.491% of  26)
 --------------------------------------------------------


       (Occupancy)   Bond orbital/ Coefficients/ Hybrids
 ---------------------------------------------------------------------------------
     1. (1.98890) BD ( 1) C   1 - H   2  
                ( 60.49%)   0.7777* C   1 s( 23.89%)p 3.18( 76.08%)d 0.00(  0.03%)
                                            0.0001  0.4888  0.0021  0.0000 -0.0000
                                            0.7233  0.0026  0.4873 -0.0114  0.0000
                                           -0.0000  0.0145 -0.0089 -0.0007
                ( 39.51%)   0.6286* H   2 s( 99.91%)p 0.00(  0.09%)
                                            0.9995 -0.0006  0.0000 -0.0251 -0.0167
     2. (1.98970) BD ( 1) C   1 - H   3  
                ( 60.26%)   0.7763* C   1 s( 24.11%)p 3.15( 75.86%)d 0.00(  0.03%)
                                            0.0001  0.4910 -0.0029  0.7070 -0.0014
                                            0.0106  0.0161 -0.5083 -0.0052  0.0005
                                           -0.0142  0.0008  0.0101  0.0005
                ( 39.74%)   0.6304* H   3 s( 99.91%)p 0.00(  0.09%)
                                            0.9996 -0.0017 -0.0241 -0.0014  0.0175
     3. (1.98970) BD ( 1) C   1 - H   4  
                ( 60.26%)   0.7763* C   1 s( 24.11%)p 3.15( 75.86%)d 0.00(  0.03%)
                                           -0.0001 -0.4910  0.0029  0.7070 -0.0014
                                           -0.0106 -0.0161  0.5083  0.0052  0.0005
                                           -0.0142 -0.0008 -0.0101 -0.0005
                ( 39.74%)   0.6304* H   4 s( 99.91%)p 0.00(  0.09%)
                                           -0.9996  0.0017 -0.0241  0.0014 -0.0175
     4. (1.98841) BD ( 1) C   1 - C   5  
                ( 50.12%)   0.7079* C   1 s( 27.83%)p 2.59( 72.14%)d 0.00(  0.04%)
                                            0.0004  0.5275  0.0051  0.0000 -0.0000
                                           -0.6899  0.0115  0.4952  0.0075  0.0000
                                           -0.0000 -0.0157 -0.0113 -0.0002
                ( 49.88%)   0.7063* C   5 s( 26.40%)p 2.79( 73.56%)d 0.00(  0.04%)
                                            0.0003  0.5137  0.0077 -0.0000  0.0000
                                            0.7068  0.0106 -0.4855  0.0140  0.0000
                                           -0.0000 -0.0169 -0.0120  0.0008
     5. (1.98841) BD ( 1) C   5 - C   6  
                ( 49.88%)   0.7063* C   5 s( 26.40%)p 2.79( 73.56%)d 0.00(  0.04%)
                                            0.0003  0.5137  0.0077 -0.0000  0.0000
                                           -0.7068 -0.0106 -0.4855  0.0140  0.0000
                                           -0.0000  0.0169 -0.0120  0.0008
                ( 50.12%)   0.7079* C   6 s( 27.83%)p 2.59( 72.14%)d 0.00(  0.04%)
                                            0.0004  0.5275  0.0051 -0.0000  0.0000
                                            0.6899 -0.0115  0.4952  0.0075  0.0000
                                            0.0000  0.0157 -0.0113 -0.0002
     6. (1.98040) BD ( 1) C   5 - H   7  
                ( 60.27%)   0.7763* C   5 s( 23.58%)p 3.24( 76.38%)d 0.00(  0.03%)
                                           -0.0000  0.4856 -0.0066  0.7069 -0.0108
                                           -0.0000 -0.0000  0.5138  0.0095  0.0000
                                            0.0146  0.0000  0.0110  0.0002
                ( 39.73%)   0.6303* H   7 s( 99.91%)p 0.00(  0.09%)
                                            0.9995 -0.0035 -0.0241  0.0000 -0.0189
     7. (1.98040) BD ( 1) C   5 - H   8  
                ( 60.27%)   0.7763* C   5 s( 23.58%)p 3.24( 76.38%)d 0.00(  0.03%)
                                            0.0000 -0.4856  0.0066  0.7069 -0.0108
                                            0.0000  0.0000 -0.5138 -0.0095  0.0000
                                            0.0146 -0.0000 -0.0110 -0.0002
                ( 39.73%)   0.6303* H   8 s( 99.91%)p 0.00(  0.09%)
                                           -0.9995  0.0035 -0.0241  0.0000  0.0189
     8. (1.98970) BD ( 1) C   6 - H   9  
                ( 60.26%)   0.7763* C   6 s( 24.11%)p 3.15( 75.86%)d 0.00(  0.03%)
                                            0.0001  0.4910 -0.0029  0.7070 -0.0014
                                           -0.0106 -0.0161 -0.5083 -0.0052 -0.0005
                                           -0.0142 -0.0008  0.0101  0.0005
                ( 39.74%)   0.6304* H   9 s( 99.91%)p 0.00(  0.09%)
                                            0.9996 -0.0017 -0.0241  0.0014  0.0175
     9. (1.98970) BD ( 1) C   6 - H  10  
                ( 60.26%)   0.7763* C   6 s( 24.11%)p 3.15( 75.86%)d 0.00(  0.03%)
                                           -0.0001 -0.4910  0.0029  0.7070 -0.0014
                                            0.0106  0.0161  0.5083  0.0052 -0.0005
                                           -0.0142  0.0008 -0.0101 -0.0005
                ( 39.74%)   0.6304* H  10 s( 99.91%)p 0.00(  0.09%)
                                           -0.9996  0.0017 -0.0241 -0.0014 -0.0175
    10. (1.98890) BD ( 1) C   6 - H  11  
                ( 60.49%)   0.7777* C   6 s( 23.89%)p 3.18( 76.08%)d 0.00(  0.03%)
                                           -0.0001 -0.4888 -0.0021  0.0000 -0.0000
                                            0.7233  0.0026 -0.4873  0.0114 -0.0000
                                           -0.0000  0.0145  0.0089  0.0007
                ( 39.51%)   0.6286* H  11 s( 99.91%)p 0.00(  0.09%)
                                           -0.9995  0.0006  0.0000 -0.0251  0.0167
    11. (1.99939) CR ( 1) C   1           s(100.00%)p 0.00(  0.00%)
                                            1.0000 -0.0003 -0.0000 -0.0000  0.0000
                                            0.0002 -0.0000 -0.0002 -0.0000 -0.0000
                                            0.0000  0.0000  0.0000  0.0000
    12. (1.99933) CR ( 1) C   5           s(100.00%)p 0.00(  0.00%)
                                            1.0000 -0.0003 -0.0000  0.0000 -0.0000
                                            0.0000  0.0000  0.0003 -0.0000  0.0000
                                            0.0000 -0.0000  0.0000 -0.0000
    13. (1.99939) CR ( 1) C   6           s(100.00%)p 0.00(  0.00%)
                                            1.0000 -0.0003 -0.0000  0.0000 -0.0000
                                           -0.0002  0.0000 -0.0002 -0.0000 -0.0000
                                           -0.0000 -0.0000  0.0000  0.0000
    14. (0.00306) RY*( 1) C   1           s(  9.00%)p 8.90( 80.09%)d 1.21( 10.91%)
                                           -0.0000  0.0130  0.2997  0.0000 -0.0000
                                           -0.0134 -0.7242 -0.0110 -0.5255  0.0000
                                           -0.0000  0.1412 -0.2038 -0.2181
    15. (0.00141) RY*( 2) C   1           s(  0.00%)p 1.00( 67.25%)d 0.49( 32.75%)
                                            0.0000  0.0000 -0.0000  0.0103  0.8200
                                            0.0000  0.0000 -0.0000 -0.0000 -0.3894
                                            0.4194  0.0000  0.0000  0.0000
    16. (0.00026) RY*( 3) C   1           s( 41.88%)p 0.89( 37.18%)d 0.50( 20.94%)
                                            0.0000  0.0094  0.6471  0.0000 -0.0000
                                            0.0151 -0.2812 -0.0087  0.5408  0.0000
                                           -0.0000 -0.3767  0.0179  0.2591
    17. (0.00011) RY*( 4) C   1           s( 13.55%)p 4.47( 60.57%)d 1.91( 25.87%)
                                            0.0000 -0.0152  0.3678 -0.0000  0.0000
                                            0.0038  0.4503  0.0032 -0.6348 -0.0000
                                            0.0000 -0.4205 -0.0204  0.2855
    18. (0.00004) RY*( 5) C   1           s( 12.50%)p 0.10(  1.20%)d 6.90( 86.30%)
    19. (0.00002) RY*( 6) C   1           s(  0.00%)p 1.00(  3.63%)d26.54( 96.37%)
    20. (0.00000) RY*( 7) C   1           s(  0.00%)p 1.00( 29.16%)d 2.43( 70.84%)
    21. (0.00000) RY*( 8) C   1           s(  4.37%)p 1.93(  8.44%)d19.96( 87.19%)
    22. (0.00001) RY*( 9) C   1           s( 18.75%)p 0.67( 12.54%)d 3.66( 68.71%)
    23. (0.00163) RY*( 1) H   2           s( 96.62%)p 0.03(  3.38%)
                                            0.0055  0.9829  0.0000  0.1828  0.0193
    24. (0.00023) RY*( 2) H   2           s(  0.00%)p 1.00(100.00%)
                                            0.0000  0.0000  1.0000  0.0000  0.0000
    25. (0.00016) RY*( 3) H   2           s(  0.11%)p99.99( 99.89%)
                                            0.0091  0.0326  0.0000 -0.2770  0.9603
    26. (0.00003) RY*( 4) H   2           s(  3.35%)p28.81( 96.65%)
    27. (0.00209) RY*( 1) H   3           s( 97.65%)p 0.02(  2.35%)
                                            0.0059  0.9882  0.0835  0.0443 -0.1206
    28. (0.00023) RY*( 2) H   3           s(  0.04%)p99.99( 99.96%)
                                            0.0007  0.0197  0.5061  0.5062  0.6980
    29. (0.00016) RY*( 3) H   3           s(  0.05%)p99.99( 99.95%)
                                            0.0074  0.0209  0.5157 -0.8265  0.2249
    30. (0.00004) RY*( 4) H   3           s(  2.35%)p41.56( 97.65%)
    31. (0.00209) RY*( 1) H   4           s( 97.65%)p 0.02(  2.35%)
                                            0.0059  0.9882 -0.0835  0.0443 -0.1206
    32. (0.00023) RY*( 2) H   4           s(  0.04%)p99.99( 99.96%)
                                            0.0007  0.0197 -0.5061  0.5062  0.6980
    33. (0.00016) RY*( 3) H   4           s(  0.05%)p99.99( 99.95%)
                                            0.0074  0.0209 -0.5157 -0.8265  0.2249
    34. (0.00004) RY*( 4) H   4           s(  2.35%)p41.56( 97.65%)
    35. (0.00234) RY*( 1) C   5           s(  0.00%)p 1.00( 80.20%)d 0.25( 19.80%)
                                            0.0000 -0.0000  0.0000  0.0229  0.8953
                                           -0.0000 -0.0000 -0.0000  0.0000  0.0000
                                           -0.4450  0.0000 -0.0000 -0.0000
    36. (0.00130) RY*( 2) C   5           s( 13.14%)p 2.59( 34.04%)d 4.02( 52.81%)
                                            0.0000 -0.0147  0.3623 -0.0000  0.0000
                                           -0.0000 -0.0000  0.0191  0.5832  0.0000
                                            0.0000  0.0000 -0.5230 -0.5046
    37. (0.00089) RY*( 3) C   5           s(  0.00%)p 1.00( 75.64%)d 0.32( 24.36%)
                                           -0.0000  0.0000 -0.0000 -0.0000  0.0000
                                           -0.0013  0.8697 -0.0000  0.0000  0.0000
                                           -0.0000  0.4936 -0.0000  0.0000
    38. (0.00042) RY*( 4) C   5           s(  0.00%)p 0.00(  0.00%)d 1.00(100.00%)
                                            0.0000  0.0000  0.0000  0.0000  0.0000
                                            0.0000  0.0000  0.0000  0.0000  1.0000
                                            0.0000  0.0000  0.0000  0.0000
    39. (0.00016) RY*( 5) C   5           s( 41.94%)p 1.22( 51.05%)d 0.17(  7.02%)
                                           -0.0000  0.0156  0.6474 -0.0000  0.0000
                                            0.0000 -0.0000  0.0119 -0.7144  0.0000
                                           -0.0000 -0.0000 -0.2400 -0.1121
    40. (0.00015) RY*( 6) C   5           s(  0.00%)p 1.00( 24.42%)d 3.10( 75.58%)
                                            0.0000  0.0000  0.0000 -0.0000 -0.0000
                                            0.0281 -0.4933 -0.0000 -0.0000  0.0000
                                            0.0000  0.8694 -0.0000 -0.0000
    41. (0.00003) RY*( 7) C   5           s( 14.72%)p 0.58(  8.47%)d 5.22( 76.81%)
    42. (0.00000) RY*( 8) C   5           s( 30.24%)p 0.21(  6.46%)d 2.09( 63.31%)
    43. (0.00000) RY*( 9) C   5           s(  0.00%)p 1.00( 19.84%)d 4.04( 80.16%)
    44. (0.00306) RY*( 1) C   6           s(  9.00%)p 8.90( 80.09%)d 1.21( 10.91%)
                                           -0.0000  0.0130  0.2997 -0.0000  0.0000
                                            0.0134  0.7242 -0.0110 -0.5255  0.0000
                                            0.0000 -0.1412 -0.2038 -0.2181
    45. (0.00141) RY*( 2) C   6           s(  0.00%)p 1.00( 67.25%)d 0.49( 32.75%)
                                           -0.0000 -0.0000  0.0000  0.0103  0.8200
                                            0.0000  0.0000  0.0000  0.0000  0.3894
                                            0.4194  0.0000 -0.0000 -0.0000
    46. (0.00026) RY*( 3) C   6           s( 41.88%)p 0.89( 37.18%)d 0.50( 20.94%)
                                            0.0000  0.0094  0.6471 -0.0000  0.0000
                                           -0.0151  0.2812 -0.0087  0.5408  0.0000
                                            0.0000  0.3767  0.0179  0.2591
    47. (0.00011) RY*( 4) C   6           s( 13.55%)p 4.47( 60.57%)d 1.91( 25.87%)
                                            0.0000 -0.0152  0.3678  0.0000 -0.0000
                                           -0.0038 -0.4503  0.0032 -0.6348 -0.0000
                                           -0.0000  0.4205 -0.0204  0.2855
    48. (0.00004) RY*( 5) C   6           s( 12.50%)p 0.10(  1.20%)d 6.90( 86.30%)
    49. (0.00002) RY*( 6) C   6           s(  0.00%)p 1.00(  3.63%)d26.54( 96.37%)
    50. (0.00000) RY*( 7) C   6           s(  0.00%)p 1.00( 29.16%)d 2.43( 70.84%)
    51. (0.00000) RY*( 8) C   6           s(  4.37%)p 1.93(  8.44%)d19.96( 87.19%)
    52. (0.00001) RY*( 9) C   6           s( 18.75%)p 0.67( 12.54%)d 3.66( 68.71%)
    53. (0.00294) RY*( 1) H   7           s( 99.10%)p 0.01(  0.90%)
                                            0.0063  0.9955  0.0629  0.0000  0.0713
    54. (0.00019) RY*( 2) H   7           s(  0.00%)p 1.00(100.00%)
                                            0.0053  0.0009  0.7434  0.0000 -0.6688
    55. (0.00015) RY*( 3) H   7           s(  0.00%)p 1.00(100.00%)
                                            0.0000  0.0000  0.0000  1.0000  0.0000
    56. (0.00004) RY*( 4) H   7           s(  0.99%)p99.56( 99.01%)
    57. (0.00294) RY*( 1) H   8           s( 99.10%)p 0.01(  0.90%)
                                            0.0063  0.9955 -0.0629  0.0000  0.0713
    58. (0.00019) RY*( 2) H   8           s(  0.00%)p 1.00(100.00%)
                                            0.0053  0.0009 -0.7434 -0.0000 -0.6688
    59. (0.00015) RY*( 3) H   8           s(  0.00%)p 1.00(100.00%)
                                            0.0000  0.0000  0.0000  1.0000  0.0000
    60. (0.00004) RY*( 4) H   8           s(  0.99%)p99.56( 99.01%)
    61. (0.00209) RY*( 1) H   9           s( 97.65%)p 0.02(  2.35%)
                                            0.0059  0.9882  0.0835 -0.0443 -0.1206
    62. (0.00023) RY*( 2) H   9           s(  0.04%)p99.99( 99.96%)
                                            0.0007  0.0197  0.5061 -0.5062  0.6980
    63. (0.00016) RY*( 3) H   9           s(  0.05%)p99.99( 99.95%)
                                            0.0074  0.0209  0.5157  0.8265  0.2249
    64. (0.00004) RY*( 4) H   9           s(  2.35%)p41.56( 97.65%)
    65. (0.00209) RY*( 1) H  10           s( 97.65%)p 0.02(  2.35%)
                                            0.0059  0.9882 -0.0835 -0.0443 -0.1206
    66. (0.00023) RY*( 2) H  10           s(  0.04%)p99.99( 99.96%)
                                            0.0007  0.0197 -0.5061 -0.5062  0.6980
    67. (0.00016) RY*( 3) H  10           s(  0.05%)p99.99( 99.95%)
                                            0.0074  0.0209 -0.5157  0.8265  0.2249
    68. (0.00004) RY*( 4) H  10           s(  2.35%)p41.56( 97.65%)
    69. (0.00163) RY*( 1) H  11           s( 96.62%)p 0.03(  3.38%)
                                            0.0055  0.9829  0.0000 -0.1828  0.0193
    70. (0.00023) RY*( 2) H  11           s(  0.00%)p 1.00(100.00%)
                                            0.0000  0.0000  1.0000  0.0000  0.0000
    71. (0.00016) RY*( 3) H  11           s(  0.11%)p99.99( 99.89%)
                                            0.0091  0.0326  0.0000  0.2770  0.9603
    72. (0.00003) RY*( 4) H  11           s(  3.35%)p28.81( 96.65%)
    73. (0.00587) BD*( 1) C   1 - H   2  
                ( 39.51%)   0.6286* C   1 s( 23.89%)p 3.18( 76.08%)d 0.00(  0.03%)
                                           -0.0001 -0.4888 -0.0021 -0.0000  0.0000
                                           -0.7233 -0.0026 -0.4873  0.0114 -0.0000
                                            0.0000 -0.0145  0.0089  0.0007
                ( 60.49%)  -0.7777* H   2 s( 99.91%)p 0.00(  0.09%)
                                           -0.9995  0.0006 -0.0000  0.0251  0.0167
    74. (0.00814) BD*( 1) C   1 - H   3  
                ( 39.74%)   0.6304* C   1 s( 24.11%)p 3.15( 75.86%)d 0.00(  0.03%)
                                           -0.0001 -0.4910  0.0029 -0.7070  0.0014
                                           -0.0106 -0.0161  0.5083  0.0052 -0.0005
                                            0.0142 -0.0008 -0.0101 -0.0005
                ( 60.26%)  -0.7763* H   3 s( 99.91%)p 0.00(  0.09%)
                                           -0.9996  0.0017  0.0241  0.0014 -0.0175
    75. (0.00814) BD*( 1) C   1 - H   4  
                ( 39.74%)   0.6304* C   1 s( 24.11%)p 3.15( 75.86%)d 0.00(  0.03%)
                                            0.0001  0.4910 -0.0029 -0.7070  0.0014
                                            0.0106  0.0161 -0.5083 -0.0052 -0.0005
                                            0.0142  0.0008  0.0101  0.0005
                ( 60.26%)  -0.7763* H   4 s( 99.91%)p 0.00(  0.09%)
                                            0.9996 -0.0017  0.0241 -0.0014  0.0175
    76. (0.00867) BD*( 1) C   1 - C   5  
                ( 49.88%)   0.7063* C   1 s( 27.83%)p 2.59( 72.14%)d 0.00(  0.04%)
                                           -0.0004 -0.5275 -0.0051 -0.0000  0.0000
                                            0.6899 -0.0115 -0.4952 -0.0075 -0.0000
                                            0.0000  0.0157  0.0113  0.0002
                ( 50.12%)  -0.7079* C   5 s( 26.40%)p 2.79( 73.56%)d 0.00(  0.04%)
                                           -0.0003 -0.5137 -0.0077  0.0000 -0.0000
                                           -0.7068 -0.0106  0.4855 -0.0140 -0.0000
                                            0.0000  0.0169  0.0120 -0.0008
    77. (0.00867) BD*( 1) C   5 - C   6  
                ( 50.12%)   0.7079* C   5 s( 26.40%)p 2.79( 73.56%)d 0.00(  0.04%)
                                            0.0003  0.5137  0.0077 -0.0000  0.0000
                                           -0.7068 -0.0106 -0.4855  0.0140  0.0000
                                           -0.0000  0.0169 -0.0120  0.0008
                ( 49.88%)  -0.7063* C   6 s( 27.83%)p 2.59( 72.14%)d 0.00(  0.04%)
                                            0.0004  0.5275  0.0051 -0.0000  0.0000
                                            0.6899 -0.0115  0.4952  0.0075  0.0000
                                            0.0000  0.0157 -0.0113 -0.0002
    78. (0.01509) BD*( 1) C   5 - H   7  
                ( 39.73%)   0.6303* C   5 s( 23.58%)p 3.24( 76.38%)d 0.00(  0.03%)
                                            0.0000 -0.4856  0.0066 -0.7069  0.0108
                                            0.0000  0.0000 -0.5138 -0.0095 -0.0000
                                           -0.0146 -0.0000 -0.0110 -0.0002
                ( 60.27%)  -0.7763* H   7 s( 99.91%)p 0.00(  0.09%)
                                           -0.9995  0.0035  0.0241 -0.0000  0.0189
    79. (0.01509) BD*( 1) C   5 - H   8  
                ( 39.73%)   0.6303* C   5 s( 23.58%)p 3.24( 76.38%)d 0.00(  0.03%)
                                           -0.0000  0.4856 -0.0066 -0.7069  0.0108
                                           -0.0000 -0.0000  0.5138  0.0095 -0.0000
                                           -0.0146  0.0000  0.0110  0.0002
                ( 60.27%)  -0.7763* H   8 s( 99.91%)p 0.00(  0.09%)
                                            0.9995 -0.0035  0.0241 -0.0000 -0.0189
    80. (0.00814) BD*( 1) C   6 - H   9  
                ( 39.74%)   0.6304* C   6 s( 24.11%)p 3.15( 75.86%)d 0.00(  0.03%)
                                           -0.0001 -0.4910  0.0029 -0.7070  0.0014
                                            0.0106  0.0161  0.5083  0.0052  0.0005
                                            0.0142  0.0008 -0.0101 -0.0005
                ( 60.26%)  -0.7763* H   9 s( 99.91%)p 0.00(  0.09%)
                                           -0.9996  0.0017  0.0241 -0.0014 -0.0175
    81. (0.00814) BD*( 1) C   6 - H  10  
                ( 39.74%)   0.6304* C   6 s( 24.11%)p 3.15( 75.86%)d 0.00(  0.03%)
                                            0.0001  0.4910 -0.0029 -0.7070  0.0014
                                           -0.0106 -0.0161 -0.5083 -0.0052  0.0005
                                            0.0142 -0.0008  0.0101  0.0005
                ( 60.26%)  -0.7763* H  10 s( 99.91%)p 0.00(  0.09%)
                                            0.9996 -0.0017  0.0241  0.0014  0.0175
    82. (0.00587) BD*( 1) C   6 - H  11  
                ( 39.51%)   0.6286* C   6 s( 23.89%)p 3.18( 76.08%)d 0.00(  0.03%)
                                            0.0001  0.4888  0.0021 -0.0000  0.0000
                                           -0.7233 -0.0026  0.4873 -0.0114  0.0000
                                            0.0000 -0.0145 -0.0089 -0.0007
                ( 60.49%)  -0.7777* H  11 s( 99.91%)p 0.00(  0.09%)
                                            0.9995 -0.0006 -0.0000  0.0251 -0.0167


 NHO Directionality and "Bond Bending" (deviations from line of nuclear centers)

         [Thresholds for printing:  angular deviation  >  1.0 degree]
                                    hybrid p-character > 25.0%
                                    orbital occupancy  >  0.10e

                                Line of Centers        Hybrid 1              Hybrid 2
                                ---------------  -------------------   ------------------
                NBO               Theta   Phi    Theta   Phi    Dev    Theta   Phi    Dev
 ========================================================================================
     1. BD (   1) C   1 - H   2    54.7   90.0    56.8   90.0   2.0      --     --    --
     2. BD (   1) C   1 - H   3   125.3    0.0   126.0    2.2   1.9      --     --    --
     3. BD (   1) C   1 - H   4   125.3  180.0   126.0  177.8   1.9      --     --    --
     4. BD (   1) C   1 - C   5    54.7  270.0    53.5  270.0   1.3    123.3   90.0   2.0
     5. BD (   1) C   5 - C   6   125.3  270.0   123.3  270.0   2.0     53.5   90.0   1.3
     6. BD (   1) C   5 - H   7    54.7    0.0    53.1    0.0   1.7      --     --    --
     7. BD (   1) C   5 - H   8    54.7  180.0    53.1  180.0   1.7      --     --    --
     8. BD (   1) C   6 - H   9   125.3    0.0   126.0  357.8   1.9      --     --    --
     9. BD (   1) C   6 - H  10   125.3  180.0   126.0  182.2   1.9      --     --    --
    10. BD (   1) C   6 - H  11    54.7  270.0    56.8  270.0   2.0      --     --    --


 Second Order Perturbation Theory Analysis of Fock Matrix in NBO Basis

     Threshold for printing:   0.50 kcal/mol
                                                                              E(2)  E(j)-E(i) F(i,j)
         Donor NBO (i)                     Acceptor NBO (j)                 kcal/mol   a.u.    a.u. 
 ===================================================================================================

 within unit  1
   1. BD (   1) C   1 - H   2        / 77. BD*(   1) C   5 - C   6            3.31    0.89    0.048
   2. BD (   1) C   1 - H   3        / 79. BD*(   1) C   5 - H   8            3.05    1.00    0.049
   3. BD (   1) C   1 - H   4        / 78. BD*(   1) C   5 - H   7            3.05    1.00    0.049
   4. BD (   1) C   1 - C   5        / 44. RY*(   1) C   6                    1.29    1.40    0.038
   4. BD (   1) C   1 - C   5        / 73. BD*(   1) C   1 - H   2            0.60    1.07    0.023
   4. BD (   1) C   1 - C   5        / 77. BD*(   1) C   5 - C   6            0.52    0.97    0.020
   4. BD (   1) C   1 - C   5        / 82. BD*(   1) C   6 - H  11            2.12    1.07    0.043
   5. BD (   1) C   5 - C   6        / 14. RY*(   1) C   1                    1.29    1.40    0.038
   5. BD (   1) C   5 - C   6        / 73. BD*(   1) C   1 - H   2            2.12    1.07    0.043
   5. BD (   1) C   5 - C   6        / 76. BD*(   1) C   1 - C   5            0.52    0.97    0.020
   5. BD (   1) C   5 - C   6        / 82. BD*(   1) C   6 - H  11            0.60    1.07    0.023
   6. BD (   1) C   5 - H   7        / 75. BD*(   1) C   1 - H   4            3.01    0.98    0.049
   6. BD (   1) C   5 - H   7        / 81. BD*(   1) C   6 - H  10            3.01    0.98    0.049
   7. BD (   1) C   5 - H   8        / 74. BD*(   1) C   1 - H   3            3.01    0.98    0.049
   7. BD (   1) C   5 - H   8        / 80. BD*(   1) C   6 - H   9            3.01    0.98    0.049
   8. BD (   1) C   6 - H   9        / 79. BD*(   1) C   5 - H   8            3.05    1.00    0.049
   9. BD (   1) C   6 - H  10        / 78. BD*(   1) C   5 - H   7            3.05    1.00    0.049
  10. BD (   1) C   6 - H  11        / 76. BD*(   1) C   1 - C   5            3.31    0.89    0.048
  11. CR (   1) C   1                / 37. RY*(   3) C   5                    0.51   10.87    0.066
  11. CR (   1) C   1                / 39. RY*(   5) C   5                    0.51   10.98    0.067
  12. CR (   1) C   5                / 16. RY*(   3) C   1                    0.73   11.12    0.080
  12. CR (   1) C   5                / 46. RY*(   3) C   6                    0.73   11.12    0.080
  13. CR (   1) C   6                / 37. RY*(   3) C   5                    0.51   10.87    0.066
  13. CR (   1) C   6                / 39. RY*(   5) C   5                    0.51   10.98    0.067


 Natural Bond Orbitals (Summary):

                                                            Principal Delocalizations
           NBO                        Occupancy    Energy   (geminal,vicinal,remote)
 ====================================================================================
 Molecular unit  1  (C3H8)
     1. BD (   1) C   1 - H   2          1.98890    -0.48822  77(v)
     2. BD (   1) C   1 - H   3          1.98970    -0.49027  79(v)
     3. BD (   1) C   1 - H   4          1.98970    -0.49027  78(v)
     4. BD (   1) C   1 - C   5          1.98841    -0.56997  82(v),44(v),73(g),77(g)
     5. BD (   1) C   5 - C   6          1.98841    -0.56997  73(v),14(v),82(g),76(g)
     6. BD (   1) C   5 - H   7          1.98040    -0.48387  75(v),81(v)
     7. BD (   1) C   5 - H   8          1.98040    -0.48387  74(v),80(v)
     8. BD (   1) C   6 - H   9          1.98970    -0.49027  79(v)
     9. BD (   1) C   6 - H  10          1.98970    -0.49027  78(v)
    10. BD (   1) C   6 - H  11          1.98890    -0.48822  76(v)
    11. CR (   1) C   1                  1.99939   -10.03690  39(v),37(v)
    12. CR (   1) C   5                  1.99933   -10.04535  16(v),46(v)
    13. CR (   1) C   6                  1.99939   -10.03690  39(v),37(v)
    14. RY*(   1) C   1                  0.00306     0.82527   
    15. RY*(   2) C   1                  0.00141     0.95849   
    16. RY*(   3) C   1                  0.00026     1.07455   
    17. RY*(   4) C   1                  0.00011     0.89248   
    18. RY*(   5) C   1                  0.00004     1.74722   
    19. RY*(   6) C   1                  0.00002     1.85375   
    20. RY*(   7) C   1                  0.00000     1.42530   
    21. RY*(   8) C   1                  0.00000     1.81673   
    22. RY*(   9) C   1                  0.00001     1.45005   
    23. RY*(   1) H   2                  0.00163     0.47752   
    24. RY*(   2) H   2                  0.00023     1.71013   
    25. RY*(   3) H   2                  0.00016     1.71643   
    26. RY*(   4) H   2                  0.00003     2.08013   
    27. RY*(   1) H   3                  0.00209     0.46115   
    28. RY*(   2) H   3                  0.00023     1.71640   
    29. RY*(   3) H   3                  0.00016     1.70739   
    30. RY*(   4) H   3                  0.00004     2.11974   
    31. RY*(   1) H   4                  0.00209     0.46115   
    32. RY*(   2) H   4                  0.00023     1.71640   
    33. RY*(   3) H   4                  0.00016     1.70739   
    34. RY*(   4) H   4                  0.00004     2.11974   
    35. RY*(   1) C   5                  0.00234     0.99157   
    36. RY*(   2) C   5                  0.00130     1.23537   
    37. RY*(   3) C   5                  0.00089     0.83766   
    38. RY*(   4) C   5                  0.00042     1.67192   
    39. RY*(   5) C   5                  0.00016     0.94517   
    40. RY*(   6) C   5                  0.00015     1.51245   
    41. RY*(   7) C   5                  0.00003     1.53867   
    42. RY*(   8) C   5                  0.00000     1.68114   
    43. RY*(   9) C   5                  0.00000     1.72881   
    44. RY*(   1) C   6                  0.00306     0.82527   
    45. RY*(   2) C   6                  0.00141     0.95849   
    46. RY*(   3) C   6                  0.00026     1.07455   
    47. RY*(   4) C   6                  0.00011     0.89248   
    48. RY*(   5) C   6                  0.00004     1.74722   
    49. RY*(   6) C   6                  0.00002     1.85375   
    50. RY*(   7) C   6                  0.00000     1.42530   
    51. RY*(   8) C   6                  0.00000     1.81673   
    52. RY*(   9) C   6                  0.00001     1.45005   
    53. RY*(   1) H   7                  0.00294     0.41665   
    54. RY*(   2) H   7                  0.00019     1.74562   
    55. RY*(   3) H   7                  0.00015     1.68303   
    56. RY*(   4) H   7                  0.00004     2.18043   
    57. RY*(   1) H   8                  0.00294     0.41665   
    58. RY*(   2) H   8                  0.00019     1.74562   
    59. RY*(   3) H   8                  0.00015     1.68303   
    60. RY*(   4) H   8                  0.00004     2.18043   
    61. RY*(   1) H   9                  0.00209     0.46115   
    62. RY*(   2) H   9                  0.00023     1.71640   
    63. RY*(   3) H   9                  0.00016     1.70739   
    64. RY*(   4) H   9                  0.00004     2.11974   
    65. RY*(   1) H  10                  0.00209     0.46115   
    66. RY*(   2) H  10                  0.00023     1.71640   
    67. RY*(   3) H  10                  0.00016     1.70739   
    68. RY*(   4) H  10                  0.00004     2.11974   
    69. RY*(   1) H  11                  0.00163     0.47752   
    70. RY*(   2) H  11                  0.00023     1.71013   
    71. RY*(   3) H  11                  0.00016     1.71643   
    72. RY*(   4) H  11                  0.00003     2.08013   
    73. BD*(   1) C   1 - H   2          0.00587     0.50320   
    74. BD*(   1) C   1 - H   3          0.00814     0.49691   
    75. BD*(   1) C   1 - H   4          0.00814     0.49691   
    76. BD*(   1) C   1 - C   5          0.00867     0.39774   
    77. BD*(   1) C   5 - C   6          0.00867     0.39774   
    78. BD*(   1) C   5 - H   7          0.01509     0.51103   
    79. BD*(   1) C   5 - H   8          0.01509     0.51103   
    80. BD*(   1) C   6 - H   9          0.00814     0.49691   
    81. BD*(   1) C   6 - H  10          0.00814     0.49691   
    82. BD*(   1) C   6 - H  11          0.00587     0.50320   
       -------------------------------
              Total Lewis   25.87232  ( 99.5089%)
        Valence non-Lewis    0.09182  (  0.3531%)
        Rydberg non-Lewis    0.03586  (  0.1379%)
       -------------------------------
            Total unit  1   26.00000  (100.0000%)
           Charge unit  1    0.00000
 Calling FoFJK, ICntrl=      2127 FMM=F ISym2X=1 I1Cent= 0 IOpClX= 0 NMat=1 NMatS=1 NMatT=0.
 ***** Axes restored to original set *****
 -------------------------------------------------------------------
 Center     Atomic                   Forces (Hartrees/Bohr)
 Number     Number              X              Y              Z
 -------------------------------------------------------------------
      1        6           0.008303788   -0.030721293    0.003006952
      2        1          -0.003772276    0.009123849    0.020963280
      3        1           0.014191947    0.016117442   -0.007960103
      4        1          -0.019455995    0.006825780   -0.009970934
      5        6          -0.005342496    0.025699564   -0.029354862
      6        6          -0.001949812    0.000156101    0.031905585
      7        1           0.018561768   -0.006029725    0.013028545
      8        1          -0.014175517   -0.015069915    0.011072136
      9        1           0.015514310    0.012135317   -0.011687036
     10        1          -0.018133632    0.002843655   -0.013697867
     11        1           0.006257915   -0.021080775   -0.007305697
 -------------------------------------------------------------------
 Cartesian Forces:  Max     0.031905585 RMS     0.015440635

 GradGradGradGradGradGradGradGradGradGradGradGradGradGradGradGradGradGrad
 Berny optimization.
 FormGI is forming the generalized inverse of G from B-inverse, IUseBI=4.
 Internal  Forces:  Max     0.023221220 RMS     0.009873686
 Search for a local minimum.
 Step number   1 out of a maximum of   56
 All quantities printed in internal units (Hartrees-Bohrs-Radians)
 Mixed Optimization -- RFO/linear search
 Second derivative matrix not updated -- first step.
 ITU=  0
     Eigenvalues ---    0.00237   0.00237   0.03840   0.04896   0.05720
     Eigenvalues ---    0.05720   0.05720   0.05720   0.07655   0.11701
     Eigenvalues ---    0.16000   0.16000   0.16000   0.16000   0.16000
     Eigenvalues ---    0.16000   0.21948   0.28519   0.28519   0.37230
     Eigenvalues ---    0.37230   0.37230   0.37230   0.37230   0.37230
     Eigenvalues ---    0.37230   0.37230
 RFO step:  Lambda=-1.28236453D-02 EMin= 2.36824221D-03
 Linear search not attempted -- first point.
 Iteration  1 RMS(Cart)=  0.04248418 RMS(Int)=  0.00058549
 Iteration  2 RMS(Cart)=  0.00040938 RMS(Int)=  0.00018039
 Iteration  3 RMS(Cart)=  0.00000035 RMS(Int)=  0.00018039
 ClnCor:  largest displacement from symmetrization is 4.00D-09 for atom    10.
 Variable       Old X    -DE/DX   Delta X   Delta X   Delta X     New X
                                 (Linear)    (Quad)   (Total)
    R1        2.02201   0.02267   0.00000   0.05886   0.05886   2.08086
    R2        2.02201   0.02266   0.00000   0.05884   0.05884   2.08085
    R3        2.02201   0.02266   0.00000   0.05884   0.05884   2.08085
    R4        2.91018   0.00216   0.00000   0.00725   0.00725   2.91743
    R5        2.91018   0.00216   0.00000   0.00725   0.00725   2.91743
    R6        2.02201   0.02322   0.00000   0.06030   0.06030   2.08230
    R7        2.02201   0.02322   0.00000   0.06030   0.06030   2.08230
    R8        2.02201   0.02266   0.00000   0.05884   0.05884   2.08085
    R9        2.02201   0.02266   0.00000   0.05884   0.05884   2.08085
   R10        2.02201   0.02267   0.00000   0.05886   0.05886   2.08086
    A1        1.91063  -0.00408   0.00000  -0.02214  -0.02248   1.88815
    A2        1.91063  -0.00408   0.00000  -0.02214  -0.02248   1.88815
    A3        1.91063   0.00564   0.00000   0.03412   0.03376   1.94440
    A4        1.91063  -0.00340   0.00000  -0.02263  -0.02270   1.88793
    A5        1.91063   0.00296   0.00000   0.01639   0.01617   1.92680
    A6        1.91063   0.00296   0.00000   0.01639   0.01617   1.92680
    A7        1.91063   0.00888   0.00000   0.04777   0.04743   1.95806
    A8        1.91063  -0.00212   0.00000  -0.00381  -0.00410   1.90653
    A9        1.91063  -0.00212   0.00000  -0.00381  -0.00410   1.90653
   A10        1.91063  -0.00212   0.00000  -0.00381  -0.00410   1.90653
   A11        1.91063  -0.00212   0.00000  -0.00381  -0.00410   1.90653
   A12        1.91063  -0.00041   0.00000  -0.03255  -0.03269   1.87794
   A13        1.91063   0.00296   0.00000   0.01639   0.01617   1.92680
   A14        1.91063   0.00296   0.00000   0.01639   0.01617   1.92680
   A15        1.91063   0.00564   0.00000   0.03412   0.03376   1.94440
   A16        1.91063  -0.00340   0.00000  -0.02263  -0.02270   1.88793
   A17        1.91063  -0.00408   0.00000  -0.02214  -0.02248   1.88815
   A18        1.91063  -0.00408   0.00000  -0.02214  -0.02248   1.88815
    D1        3.14159   0.00000   0.00000   0.00000   0.00000   3.14159
    D2       -1.04720   0.00155   0.00000   0.02226   0.02229  -1.02491
    D3        1.04720  -0.00155   0.00000  -0.02226  -0.02229   1.02491
    D4       -1.04720   0.00027   0.00000   0.00382   0.00389  -1.04330
    D5        1.04720   0.00182   0.00000   0.02608   0.02618   1.07338
    D6        3.14159  -0.00128   0.00000  -0.01844  -0.01839   3.12320
    D7        1.04720  -0.00027   0.00000  -0.00382  -0.00389   1.04330
    D8       -3.14159   0.00128   0.00000   0.01844   0.01839  -3.12320
    D9       -1.04720  -0.00182   0.00000  -0.02608  -0.02618  -1.07338
   D10        1.04720  -0.00027   0.00000  -0.00382  -0.00389   1.04330
   D11       -1.04720   0.00027   0.00000   0.00382   0.00389  -1.04330
   D12        3.14159  -0.00000   0.00000  -0.00000   0.00000   3.14159
   D13       -1.04720  -0.00182   0.00000  -0.02608  -0.02618  -1.07338
   D14        3.14159  -0.00128   0.00000  -0.01844  -0.01839   3.12320
   D15        1.04720  -0.00155   0.00000  -0.02226  -0.02229   1.02491
   D16       -3.14159   0.00128   0.00000   0.01844   0.01839  -3.12320
   D17        1.04720   0.00182   0.00000   0.02608   0.02618   1.07338
   D18       -1.04720   0.00155   0.00000   0.02226   0.02229  -1.02491
         Item               Value     Threshold  Converged?
 Maximum Force            0.023221     0.000450     NO 
 RMS     Force            0.009874     0.000300     NO 
 Maximum Displacement     0.101287     0.001800     NO 
 RMS     Displacement     0.042389     0.001200     NO 
 Predicted change in Energy=-6.697325D-03
 GradGradGradGradGradGradGradGradGradGradGradGradGradGradGradGradGradGrad

                          Input orientation:                          
 ---------------------------------------------------------------------
 Center     Atomic      Atomic             Coordinates (Angstroms)
 Number     Number       Type             X           Y           Z
 ---------------------------------------------------------------------
      1          6           0       -0.868289   -0.034122   -0.715392
      2          1           0       -0.996611    0.199347    0.353041
      3          1           0       -0.104393    0.644357   -1.126040
      4          1           0       -1.820804    0.170381   -1.228615
      5          6           0       -0.449541   -1.505322   -0.924324
      6          6           0       -0.264466   -1.852457   -2.417199
      7          1           0        0.494439   -1.693759   -0.388048
      8          1           0       -1.216933   -2.166343   -0.490321
      9          1           0        0.512965   -1.214734   -2.865993
     10          1           0       -1.203447   -1.688710   -2.968567
     11          1           0        0.033896   -2.903890   -2.551327
 ---------------------------------------------------------------------
                    Distance matrix (angstroms):
                    1          2          3          4          5
     1  C    0.000000
     2  H    1.101146   0.000000
     3  H    1.101138   1.783751   0.000000
     4  H    1.101138   1.783751   1.783604   0.000000
     5  C    1.543836   2.199282   2.186535   2.186535   0.000000
     6  C    2.562634   3.524225   2.815456   2.815456   1.543836
     7  H    2.172228   2.521169   2.523890   3.089000   1.101907
     8  H    2.172228   2.521169   3.089000   2.523890   1.101907
     9  H    2.815456   3.826307   2.620074   3.169547   2.186535
    10  H    2.815456   3.826307   3.169547   2.620074   2.186535
    11  H    3.524225   4.373486   3.826307   3.826307   2.199282
                    6          7          8          9         10
     6  C    0.000000
     7  H    2.172228   0.000000
     8  H    2.172228   1.778367   0.000000
     9  H    1.101138   2.523890   3.089000   0.000000
    10  H    1.101138   3.089000   2.523890   1.783604   0.000000
    11  H    1.101146   2.521169   2.521169   1.783751   1.783751
                   11
    11  H    0.000000
 Stoichiometry    C3H8
 Framework group  C2V[C2(C),SGV(C2H2),SGV'(H2),X(H4)]
 Deg. of freedom     9
 Full point group                 C2V     NOp   4
 Largest Abelian subgroup         C2V     NOp   4
 Largest concise Abelian subgroup C2V     NOp   4
                         Standard orientation:                         
 ---------------------------------------------------------------------
 Center     Atomic      Atomic             Coordinates (Angstroms)
 Number     Number       Type             X           Y           Z
 ---------------------------------------------------------------------
      1          6           0        0.000000    1.281317   -0.263980
      2          1           0        0.000000    2.186743    0.362699
      3          1           0        0.891802    1.310037   -0.909246
      4          1           0       -0.891802    1.310037   -0.909246
      5          6           0       -0.000000    0.000000    0.597216
      6          6           0       -0.000000   -1.281317   -0.263980
      7          1           0        0.889184    0.000000    1.248024
      8          1           0       -0.889184    0.000000    1.248024
      9          1           0        0.891802   -1.310037   -0.909246
     10          1           0       -0.891802   -1.310037   -0.909246
     11          1           0       -0.000000   -2.186743    0.362699
 ---------------------------------------------------------------------
 Rotational constants (GHZ):          28.9021617           8.3177118           7.3621448
 Standard basis: CC-pVDZ (5D, 7F)
 There are    32 symmetry adapted cartesian basis functions of A1  symmetry.
 There are    12 symmetry adapted cartesian basis functions of A2  symmetry.
 There are    17 symmetry adapted cartesian basis functions of B1  symmetry.
 There are    24 symmetry adapted cartesian basis functions of B2  symmetry.
 There are    30 symmetry adapted basis functions of A1  symmetry.
 There are    12 symmetry adapted basis functions of A2  symmetry.
 There are    17 symmetry adapted basis functions of B1  symmetry.
 There are    23 symmetry adapted basis functions of B2  symmetry.
    82 basis functions,   155 primitive gaussians,    85 cartesian basis functions
    13 alpha electrons       13 beta electrons
       nuclear repulsion energy        81.8849147707 Hartrees.
 NAtoms=   11 NActive=   11 NUniq=    5 SFac= 4.00D+00 NAtFMM=   60 NAOKFM=F Big=F
 Integral buffers will be    131072 words long.
 Raffenetti 2 integral format.
 Two-electron integral symmetry is turned on.
 One-electron integrals computed using PRISM.
 NBasis=    82 RedAO= T EigKep=  6.03D-03  NBF=    30    12    17    23
 NBsUse=    82 1.00D-06 EigRej= -1.00D+00 NBFU=    30    12    17    23
 Initial guess from the checkpoint file:  "Propane-DFT-ccpvdz.chk"
 B after Tr=     0.000000    0.000000   -0.000000
         Rot=    1.000000    0.000000    0.000000   -0.000000 Ang=   0.00 deg.
 Initial guess orbital symmetries:
       Occupied  (A1) (B2) (A1) (A1) (B2) (A1) (B1) (A1) (B2) (A2)
                 (A1) (B1) (B2)
       Virtual   (A1) (B2) (B1) (A1) (A1) (B1) (B2) (A2) (A1) (B2)
                 (A1) (B1) (A2) (B2) (A1) (B2) (A1) (B1) (B2) (B2)
                 (B1) (B1) (A2) (A1) (A1) (A1) (B2) (A1) (A2) (A1)
                 (B2) (A2) (B1) (B2) (A1) (B1) (A2) (A1) (B2) (A1)
                 (B1) (A2) (B2) (B1) (A1) (B2) (B1) (A2) (A1) (B1)
                 (A1) (B2) (B2) (A1) (B2) (A2) (A1) (B1) (B2) (A1)
                 (A2) (B1) (A1) (B2) (B2) (A1) (A1) (A2) (B1)
 ExpMin= 1.22D-01 ExpMax= 6.67D+03 ExpMxC= 2.28D+02 IAcc=3 IRadAn=         5 AccDes= 0.00D+00
 Harris functional with IExCor=  402 and IRadAn=       5 diagonalized for initial guess.
 HarFok:  IExCor=  402 AccDes= 0.00D+00 IRadAn=         5 IDoV= 1 UseB2=F ITyADJ=14
 ICtDFT=  3500011 ScaDFX=  1.000000  1.000000  1.000000  1.000000
 FoFCou: FMM=F IPFlag=           0 FMFlag=      100000 FMFlg1=           0
         NFxFlg=           0 DoJE=T BraDBF=F KetDBF=T FulRan=T
         wScrn=  0.000000 ICntrl=       500 IOpCl=  0 I1Cent=   200000004 NGrid=           0
         NMat0=    1 NMatS0=      1 NMatT0=    0 NMatD0=    1 NMtDS0=    0 NMtDT0=    0
 Petite list used in FoFCou.
 Keep R1 ints in memory in symmetry-blocked form, NReq=27645467.
 Requested convergence on RMS density matrix=1.00D-08 within 128 cycles.
 Requested convergence on MAX density matrix=1.00D-06.
 Requested convergence on             energy=1.00D-06.
 No special actions if energy rises.
 Integral accuracy reduced to 1.0D-05 until final iterations.
 Initial convergence to 1.0D-05 achieved.  Increase integral accuracy.
 SCF Done:  E(RB3LYP) =  -119.143762163     A.U. after    9 cycles
            NFock=  9  Conv=0.60D-08     -V/T= 2.0097
 Calling FoFJK, ICntrl=      2127 FMM=F ISym2X=1 I1Cent= 0 IOpClX= 0 NMat=1 NMatS=1 NMatT=0.
 ***** Axes restored to original set *****
 -------------------------------------------------------------------
 Center     Atomic                   Forces (Hartrees/Bohr)
 Number     Number              X              Y              Z
 -------------------------------------------------------------------
      1        6           0.002554657   -0.009144544   -0.000492804
      2        1          -0.000200171    0.000643293    0.000376990
      3        1           0.000101023    0.001896709   -0.000281713
      4        1          -0.001024994    0.001585767   -0.000349005
      5        6          -0.001429409    0.006876036   -0.007854027
      6        6          -0.000940986    0.001382133    0.009359277
      7        1           0.000417610   -0.001509901    0.001761461
      8        1           0.000221418   -0.001564078    0.001749736
      9        1           0.000635864    0.000286103   -0.001789105
     10        1          -0.000490152   -0.000024839   -0.001856397
     11        1           0.000155140   -0.000426679   -0.000624414
 -------------------------------------------------------------------
 Cartesian Forces:  Max     0.009359277 RMS     0.003108379

 GradGradGradGradGradGradGradGradGradGradGradGradGradGradGradGradGradGrad
 Berny optimization.
 Using GEDIIS/GDIIS optimizer.
 FormGI is forming the generalized inverse of G from B-inverse, IUseBI=4.
 Internal  Forces:  Max     0.005271684 RMS     0.001396763
 Search for a local minimum.
 Step number   2 out of a maximum of   56
 All quantities printed in internal units (Hartrees-Bohrs-Radians)
 Mixed Optimization -- RFO/linear search
 Update second derivatives using D2CorX and points    1    2
 DE= -6.71D-03 DEPred=-6.70D-03 R= 1.00D+00
 TightC=F SS=  1.41D+00  RLast= 2.10D-01 DXNew= 5.0454D-01 6.2972D-01
 Trust test= 1.00D+00 RLast= 2.10D-01 DXMaxT set to 5.05D-01
 ITU=  1  0
 Use linear search instead of GDIIS.
     Eigenvalues ---    0.00237   0.00237   0.03512   0.04721   0.05427
     Eigenvalues ---    0.05427   0.05543   0.05550   0.08158   0.12089
     Eigenvalues ---    0.15338   0.16000   0.16000   0.16000   0.16000
     Eigenvalues ---    0.16105   0.21957   0.27851   0.28519   0.37073
     Eigenvalues ---    0.37230   0.37230   0.37230   0.37230   0.37230
     Eigenvalues ---    0.37230   0.38923
 RFO step:  Lambda=-4.23801321D-04 EMin= 2.36824221D-03
 Quartic linear search produced a step of  0.08614.
 Iteration  1 RMS(Cart)=  0.00754165 RMS(Int)=  0.00009377
 Iteration  2 RMS(Cart)=  0.00008258 RMS(Int)=  0.00003956
 Iteration  3 RMS(Cart)=  0.00000001 RMS(Int)=  0.00003956
 ClnCor:  largest displacement from symmetrization is 1.01D-08 for atom    10.
 Variable       Old X    -DE/DX   Delta X   Delta X   Delta X     New X
                                 (Linear)    (Quad)   (Total)
    R1        2.08086   0.00053   0.00507  -0.00171   0.00336   2.08422
    R2        2.08085   0.00134   0.00507   0.00067   0.00574   2.08659
    R3        2.08085   0.00134   0.00507   0.00067   0.00574   2.08659
    R4        2.91743  -0.00527   0.00062  -0.02044  -0.01981   2.89761
    R5        2.91743  -0.00527   0.00062  -0.02044  -0.01981   2.89761
    R6        2.08230   0.00147   0.00519   0.00097   0.00616   2.08847
    R7        2.08230   0.00147   0.00519   0.00097   0.00616   2.08847
    R8        2.08085   0.00134   0.00507   0.00067   0.00574   2.08659
    R9        2.08085   0.00134   0.00507   0.00067   0.00574   2.08659
   R10        2.08086   0.00053   0.00507  -0.00171   0.00336   2.08422
    A1        1.88815  -0.00095  -0.00194  -0.00551  -0.00748   1.88067
    A2        1.88815  -0.00095  -0.00194  -0.00551  -0.00748   1.88067
    A3        1.94440   0.00019   0.00291  -0.00075   0.00211   1.94651
    A4        1.88793  -0.00152  -0.00196  -0.00858  -0.01061   1.87733
    A5        1.92680   0.00154   0.00139   0.00975   0.01109   1.93789
    A6        1.92680   0.00154   0.00139   0.00975   0.01109   1.93789
    A7        1.95806   0.00052   0.00409   0.00536   0.00935   1.96741
    A8        1.90653   0.00008  -0.00035   0.00352   0.00310   1.90963
    A9        1.90653   0.00008  -0.00035   0.00352   0.00310   1.90963
   A10        1.90653   0.00008  -0.00035   0.00352   0.00310   1.90963
   A11        1.90653   0.00008  -0.00035   0.00352   0.00310   1.90963
   A12        1.87794  -0.00092  -0.00282  -0.02063  -0.02344   1.85450
   A13        1.92680   0.00154   0.00139   0.00975   0.01109   1.93789
   A14        1.92680   0.00154   0.00139   0.00975   0.01109   1.93789
   A15        1.94440   0.00019   0.00291  -0.00075   0.00211   1.94651
   A16        1.88793  -0.00152  -0.00196  -0.00858  -0.01061   1.87733
   A17        1.88815  -0.00095  -0.00194  -0.00551  -0.00748   1.88067
   A18        1.88815  -0.00095  -0.00194  -0.00551  -0.00748   1.88067
    D1        3.14159   0.00000  -0.00000  -0.00000   0.00000   3.14159
    D2       -1.02491   0.00051   0.00192   0.01040   0.01234  -1.01257
    D3        1.02491  -0.00051  -0.00192  -0.01040  -0.01234   1.01257
    D4       -1.04330  -0.00004   0.00034  -0.00089  -0.00057  -1.04387
    D5        1.07338   0.00047   0.00226   0.00951   0.01177   1.08515
    D6        3.12320  -0.00054  -0.00158  -0.01130  -0.01290   3.11029
    D7        1.04330   0.00004  -0.00034   0.00089   0.00057   1.04387
    D8       -3.12320   0.00054   0.00158   0.01130   0.01290  -3.11029
    D9       -1.07338  -0.00047  -0.00226  -0.00951  -0.01177  -1.08515
   D10        1.04330   0.00004  -0.00034   0.00089   0.00057   1.04387
   D11       -1.04330  -0.00004   0.00034  -0.00089  -0.00057  -1.04387
   D12        3.14159  -0.00000   0.00000   0.00000   0.00000   3.14159
   D13       -1.07338  -0.00047  -0.00226  -0.00951  -0.01177  -1.08515
   D14        3.12320  -0.00054  -0.00158  -0.01130  -0.01290   3.11029
   D15        1.02491  -0.00051  -0.00192  -0.01040  -0.01234   1.01257
   D16       -3.12320   0.00054   0.00158   0.01130   0.01290  -3.11029
   D17        1.07338   0.00047   0.00226   0.00951   0.01177   1.08515
   D18       -1.02491   0.00051   0.00192   0.01040   0.01234  -1.01257
         Item               Value     Threshold  Converged?
 Maximum Force            0.005272     0.000450     NO 
 RMS     Force            0.001397     0.000300     NO 
 Maximum Displacement     0.017156     0.001800     NO 
 RMS     Displacement     0.007521     0.001200     NO 
 Predicted change in Energy=-2.391445D-04
 GradGradGradGradGradGradGradGradGradGradGradGradGradGradGradGradGradGrad

                          Input orientation:                          
 ---------------------------------------------------------------------
 Center     Atomic      Atomic             Coordinates (Angstroms)
 Number     Number       Type             X           Y           Z
 ---------------------------------------------------------------------
      1          6           0       -0.866843   -0.039077   -0.716691
      2          1           0       -0.994678    0.192114    0.354125
      3          1           0       -0.108003    0.652912   -1.122300
      4          1           0       -1.822517    0.179460   -1.224761
      5          6           0       -0.450809   -1.499223   -0.931290
      6          6           0       -0.265244   -1.850714   -2.412231
      7          1           0        0.489956   -1.697060   -0.386112
      8          1           0       -1.211639   -2.166944   -0.487801
      9          1           0        0.513786   -1.219526   -2.874744
     10          1           0       -1.200728   -1.692977   -2.977205
     11          1           0        0.033535   -2.904216   -2.543778
 ---------------------------------------------------------------------
                    Distance matrix (angstroms):
                    1          2          3          4          5
     1  C    0.000000
     2  H    1.102923   0.000000
     3  H    1.104176   1.782796   0.000000
     4  H    1.104176   1.782796   1.781631   0.000000
     5  C    1.533351   2.192877   2.187621   2.187621   0.000000
     6  C    2.553196   3.515387   2.820778   2.820778   1.533351
     7  H    2.167740   2.514173   2.534146   3.093896   1.105169
     8  H    2.167740   2.514173   3.093896   2.534146   1.105169
     9  H    2.820778   3.833247   2.638883   3.184009   2.187621
    10  H    2.820778   3.833247   3.184009   2.638883   2.187621
    11  H    3.515387   4.363751   3.833247   3.833247   2.192877
                    6          7          8          9         10
     6  C    0.000000
     7  H    2.167740   0.000000
     8  H    2.167740   1.768208   0.000000
     9  H    1.104176   2.534146   3.093896   0.000000
    10  H    1.104176   3.093896   2.534146   1.781631   0.000000
    11  H    1.102923   2.514173   2.514173   1.782796   1.782796
                   11
    11  H    0.000000
 Stoichiometry    C3H8
 Framework group  C2V[C2(C),SGV(C2H2),SGV'(H2),X(H4)]
 Deg. of freedom     9
 Full point group                 C2V     NOp   4
 Largest Abelian subgroup         C2V     NOp   4
 Largest concise Abelian subgroup C2V     NOp   4
                         Standard orientation:                         
 ---------------------------------------------------------------------
 Center     Atomic      Atomic             Coordinates (Angstroms)
 Number     Number       Type             X           Y           Z
 ---------------------------------------------------------------------
      1          6           0       -0.000000    1.276598   -0.260668
      2          1           0       -0.000000    2.181875    0.369341
      3          1           0        0.890816    1.319441   -0.911681
      4          1           0       -0.890816    1.319441   -0.911681
      5          6           0       -0.000000    0.000000    0.588722
      6          6           0       -0.000000   -1.276598   -0.260668
      7          1           0        0.884104   -0.000000    1.251864
      8          1           0       -0.884104    0.000000    1.251864
      9          1           0        0.890816   -1.319441   -0.911681
     10          1           0       -0.890816   -1.319441   -0.911681
     11          1           0       -0.000000   -2.181875    0.369341
 ---------------------------------------------------------------------
 Rotational constants (GHZ):          29.1364369           8.3531970           7.3996812
 Standard basis: CC-pVDZ (5D, 7F)
 There are    32 symmetry adapted cartesian basis functions of A1  symmetry.
 There are    12 symmetry adapted cartesian basis functions of A2  symmetry.
 There are    17 symmetry adapted cartesian basis functions of B1  symmetry.
 There are    24 symmetry adapted cartesian basis functions of B2  symmetry.
 There are    30 symmetry adapted basis functions of A1  symmetry.
 There are    12 symmetry adapted basis functions of A2  symmetry.
 There are    17 symmetry adapted basis functions of B1  symmetry.
 There are    23 symmetry adapted basis functions of B2  symmetry.
    82 basis functions,   155 primitive gaussians,    85 cartesian basis functions
    13 alpha electrons       13 beta electrons
       nuclear repulsion energy        82.0325284517 Hartrees.
 NAtoms=   11 NActive=   11 NUniq=    5 SFac= 4.00D+00 NAtFMM=   60 NAOKFM=F Big=F
 Integral buffers will be    131072 words long.
 Raffenetti 2 integral format.
 Two-electron integral symmetry is turned on.
 One-electron integrals computed using PRISM.
 NBasis=    82 RedAO= T EigKep=  5.88D-03  NBF=    30    12    17    23
 NBsUse=    82 1.00D-06 EigRej= -1.00D+00 NBFU=    30    12    17    23
 Initial guess from the checkpoint file:  "Propane-DFT-ccpvdz.chk"
 B after Tr=    -0.000000   -0.000000   -0.000000
         Rot=    1.000000   -0.000000   -0.000000   -0.000000 Ang=   0.00 deg.
 Initial guess orbital symmetries:
       Occupied  (A1) (B2) (A1) (A1) (B2) (A1) (B1) (A1) (B2) (A2)
                 (B2) (A1) (B1)
       Virtual   (A1) (B2) (B1) (A1) (A1) (B1) (B2) (A2) (A1) (B2)
                 (A1) (B1) (B2) (A2) (A1) (A1) (B2) (B1) (B2) (B1)
                 (B2) (A1) (A2) (B1) (A1) (A1) (B2) (A1) (A2) (A1)
                 (B2) (A2) (B1) (B2) (A1) (B1) (A2) (A1) (A1) (B2)
                 (B1) (A2) (B2) (B1) (A1) (B2) (B1) (A2) (A1) (B1)
                 (B2) (A1) (B2) (A2) (A1) (B2) (A1) (B1) (A1) (B2)
                 (A2) (A1) (B1) (B2) (B2) (A1) (A1) (A2) (B1)
 Keep R1 ints in memory in symmetry-blocked form, NReq=27645467.
 Requested convergence on RMS density matrix=1.00D-08 within 128 cycles.
 Requested convergence on MAX density matrix=1.00D-06.
 Requested convergence on             energy=1.00D-06.
 No special actions if energy rises.
 SCF Done:  E(RB3LYP) =  -119.144055199     A.U. after    8 cycles
            NFock=  8  Conv=0.42D-08     -V/T= 2.0097
 Calling FoFJK, ICntrl=      2127 FMM=F ISym2X=1 I1Cent= 0 IOpClX= 0 NMat=1 NMatS=1 NMatT=0.
 ***** Axes restored to original set *****
 -------------------------------------------------------------------
 Center     Atomic                   Forces (Hartrees/Bohr)
 Number     Number              X              Y              Z
 -------------------------------------------------------------------
      1        6           0.000415414   -0.001566542    0.000287424
      2        1          -0.000026768    0.000195948   -0.000457525
      3        1          -0.000448319    0.000056554    0.000161513
      4        1           0.000335232    0.000272927    0.000208339
      5        6          -0.000295276    0.001420395   -0.001622421
      6        6          -0.000064584   -0.000121091    0.001640244
      7        1          -0.000274895   -0.000229447    0.000147622
      8        1           0.000335265   -0.000060956    0.000184085
      9        1          -0.000329081   -0.000302514   -0.000174544
     10        1           0.000454469   -0.000086141   -0.000127718
     11        1          -0.000101457    0.000420866   -0.000247020
 -------------------------------------------------------------------
 Cartesian Forces:  Max     0.001640244 RMS     0.000599834

 GradGradGradGradGradGradGradGradGradGradGradGradGradGradGradGradGradGrad
 Berny optimization.
 Using GEDIIS/GDIIS optimizer.
 FormGI is forming the generalized inverse of G from B-inverse, IUseBI=4.
 Internal  Forces:  Max     0.001038219 RMS     0.000328875
 Search for a local minimum.
 Step number   3 out of a maximum of   56
 All quantities printed in internal units (Hartrees-Bohrs-Radians)
 Mixed Optimization -- En-DIIS/RFO-DIIS
 Update second derivatives using D2CorX and points    1    2    3
 DE= -2.93D-04 DEPred=-2.39D-04 R= 1.23D+00
 TightC=F SS=  1.41D+00  RLast= 6.69D-02 DXNew= 8.4853D-01 2.0058D-01
 Trust test= 1.23D+00 RLast= 6.69D-02 DXMaxT set to 5.05D-01
 ITU=  1  1  0
 Use linear search instead of GDIIS.
     Eigenvalues ---    0.00237   0.00237   0.03410   0.04144   0.05367
     Eigenvalues ---    0.05367   0.05433   0.05451   0.08298   0.12192
     Eigenvalues ---    0.13565   0.16000   0.16000   0.16000   0.16000
     Eigenvalues ---    0.16202   0.21643   0.27567   0.28519   0.37141
     Eigenvalues ---    0.37230   0.37230   0.37230   0.37230   0.37230
     Eigenvalues ---    0.37277   0.40833
 RFO step:  Lambda=-1.38352442D-05 EMin= 2.36824221D-03
 Quartic linear search produced a step of  0.22082.
 Iteration  1 RMS(Cart)=  0.00304556 RMS(Int)=  0.00001335
 Iteration  2 RMS(Cart)=  0.00001188 RMS(Int)=  0.00000905
 Iteration  3 RMS(Cart)=  0.00000000 RMS(Int)=  0.00000905
 ClnCor:  largest displacement from symmetrization is 3.19D-09 for atom     9.
 Variable       Old X    -DE/DX   Delta X   Delta X   Delta X     New X
                                 (Linear)    (Quad)   (Total)
    R1        2.08422  -0.00040   0.00074  -0.00143  -0.00068   2.08354
    R2        2.08659  -0.00033   0.00127  -0.00166  -0.00039   2.08620
    R3        2.08659  -0.00033   0.00127  -0.00166  -0.00039   2.08620
    R4        2.89761  -0.00104  -0.00438  -0.00053  -0.00491   2.89271
    R5        2.89761  -0.00104  -0.00438  -0.00053  -0.00491   2.89271
    R6        2.08847  -0.00012   0.00136  -0.00104   0.00032   2.08878
    R7        2.08847  -0.00012   0.00136  -0.00104   0.00032   2.08878
    R8        2.08659  -0.00033   0.00127  -0.00166  -0.00039   2.08620
    R9        2.08659  -0.00033   0.00127  -0.00166  -0.00039   2.08620
   R10        2.08422  -0.00040   0.00074  -0.00143  -0.00068   2.08354
    A1        1.88067  -0.00031  -0.00165  -0.00093  -0.00259   1.87808
    A2        1.88067  -0.00031  -0.00165  -0.00093  -0.00259   1.87808
    A3        1.94651   0.00029   0.00047   0.00233   0.00279   1.94930
    A4        1.87733  -0.00039  -0.00234  -0.00158  -0.00394   1.87339
    A5        1.93789   0.00034   0.00245   0.00045   0.00288   1.94077
    A6        1.93789   0.00034   0.00245   0.00045   0.00288   1.94077
    A7        1.96741   0.00062   0.00206   0.00354   0.00558   1.97298
    A8        1.90963  -0.00014   0.00068  -0.00060   0.00006   1.90969
    A9        1.90963  -0.00014   0.00068  -0.00060   0.00006   1.90969
   A10        1.90963  -0.00014   0.00068  -0.00060   0.00006   1.90969
   A11        1.90963  -0.00014   0.00068  -0.00060   0.00006   1.90969
   A12        1.85450  -0.00011  -0.00518  -0.00142  -0.00659   1.84791
   A13        1.93789   0.00034   0.00245   0.00045   0.00288   1.94077
   A14        1.93789   0.00034   0.00245   0.00045   0.00288   1.94077
   A15        1.94651   0.00029   0.00047   0.00233   0.00279   1.94930
   A16        1.87733  -0.00039  -0.00234  -0.00158  -0.00394   1.87339
   A17        1.88067  -0.00031  -0.00165  -0.00093  -0.00259   1.87808
   A18        1.88067  -0.00031  -0.00165  -0.00093  -0.00259   1.87808
    D1        3.14159   0.00000   0.00000   0.00000   0.00000   3.14159
    D2       -1.01257   0.00014   0.00272   0.00119   0.00392  -1.00865
    D3        1.01257  -0.00014  -0.00272  -0.00119  -0.00392   1.00865
    D4       -1.04387   0.00002  -0.00013   0.00070   0.00057  -1.04330
    D5        1.08515   0.00016   0.00260   0.00189   0.00449   1.08964
    D6        3.11029  -0.00012  -0.00285  -0.00050  -0.00335   3.10694
    D7        1.04387  -0.00002   0.00013  -0.00070  -0.00057   1.04330
    D8       -3.11029   0.00012   0.00285   0.00050   0.00335  -3.10694
    D9       -1.08515  -0.00016  -0.00260  -0.00189  -0.00449  -1.08964
   D10        1.04387  -0.00002   0.00013  -0.00070  -0.00057   1.04330
   D11       -1.04387   0.00002  -0.00013   0.00070   0.00057  -1.04330
   D12       -3.14159  -0.00000   0.00000  -0.00000  -0.00000   3.14159
   D13       -1.08515  -0.00016  -0.00260  -0.00189  -0.00449  -1.08964
   D14        3.11029  -0.00012  -0.00285  -0.00050  -0.00335   3.10694
   D15        1.01257  -0.00014  -0.00272  -0.00119  -0.00392   1.00865
   D16       -3.11029   0.00012   0.00285   0.00050   0.00335  -3.10694
   D17        1.08515   0.00016   0.00260   0.00189   0.00449   1.08964
   D18       -1.01257   0.00014   0.00272   0.00119   0.00392  -1.00865
         Item               Value     Threshold  Converged?
 Maximum Force            0.001038     0.000450     NO 
 RMS     Force            0.000329     0.000300     NO 
 Maximum Displacement     0.006796     0.001800     NO 
 RMS     Displacement     0.003040     0.001200     NO 
 Predicted change in Energy=-1.714635D-05
 GradGradGradGradGradGradGradGradGradGradGradGradGradGradGradGradGradGrad

                          Input orientation:                          
 ---------------------------------------------------------------------
 Center     Atomic      Atomic             Coordinates (Angstroms)
 Number     Number       Type             X           Y           Z
 ---------------------------------------------------------------------
      1          6           0       -0.866708   -0.039810   -0.715562
      2          1           0       -0.994502    0.191308    0.354901
      3          1           0       -0.110467    0.655730   -1.119379
      4          1           0       -1.822182    0.183051   -1.221673
      5          6           0       -0.451305   -1.496836   -0.934016
      6          6           0       -0.265016   -1.851728   -2.411364
      7          1           0        0.487890   -1.697185   -0.386711
      8          1           0       -1.209748   -2.165977   -0.488164
      9          1           0        0.513452   -1.223122   -2.877826
     10          1           0       -1.198263   -1.695801   -2.980119
     11          1           0        0.033665   -2.904882   -2.542872
 ---------------------------------------------------------------------
                    Distance matrix (angstroms):
                    1          2          3          4          5
     1  C    0.000000
     2  H    1.102560   0.000000
     3  H    1.103968   1.780648   0.000000
     4  H    1.103968   1.780648   1.778723   0.000000
     5  C    1.530754   2.192306   2.187252   2.187252   0.000000
     6  C    2.553590   3.515448   2.824970   2.824970   1.530754
     7  H    2.165634   2.512744   2.535949   3.093360   1.105337
     8  H    2.165634   2.512744   3.093360   2.535949   1.105337
     9  H    2.824970   3.837325   2.647922   3.189882   2.187252
    10  H    2.824970   3.837325   3.189882   2.647922   2.187252
    11  H    3.515448   4.363555   3.837325   3.837325   2.192306
                    6          7          8          9         10
     6  C    0.000000
     7  H    2.165634   0.000000
     8  H    2.165634   1.764096   0.000000
     9  H    1.103968   2.535949   3.093360   0.000000
    10  H    1.103968   3.093360   2.535949   1.778723   0.000000
    11  H    1.102560   2.512744   2.512744   1.780648   1.780648
                   11
    11  H    0.000000
 Stoichiometry    C3H8
 Framework group  C2V[C2(C),SGV(C2H2),SGV'(H2),X(H4)]
 Deg. of freedom     9
 Full point group                 C2V     NOp   4
 Largest Abelian subgroup         C2V     NOp   4
 Largest concise Abelian subgroup C2V     NOp   4
                         Standard orientation:                         
 ---------------------------------------------------------------------
 Center     Atomic      Atomic             Coordinates (Angstroms)
 Number     Number       Type             X           Y           Z
 ---------------------------------------------------------------------
      1          6           0       -0.000000    1.276795   -0.259141
      2          1           0       -0.000000    2.181778    0.370657
      3          1           0        0.889362    1.323961   -0.911488
      4          1           0       -0.889362    1.323961   -0.911488
      5          6           0       -0.000000    0.000000    0.585253
      6          6           0       -0.000000   -1.276795   -0.259141
      7          1           0        0.882048   -0.000000    1.251407
      8          1           0       -0.882048    0.000000    1.251407
      9          1           0        0.889362   -1.323961   -0.911488
     10          1           0       -0.889362   -1.323961   -0.911488
     11          1           0       -0.000000   -2.181778    0.370657
 ---------------------------------------------------------------------
 Rotational constants (GHZ):          29.2839688           8.3474513           7.4007901
 Standard basis: CC-pVDZ (5D, 7F)
 There are    32 symmetry adapted cartesian basis functions of A1  symmetry.
 There are    12 symmetry adapted cartesian basis functions of A2  symmetry.
 There are    17 symmetry adapted cartesian basis functions of B1  symmetry.
 There are    24 symmetry adapted cartesian basis functions of B2  symmetry.
 There are    30 symmetry adapted basis functions of A1  symmetry.
 There are    12 symmetry adapted basis functions of A2  symmetry.
 There are    17 symmetry adapted basis functions of B1  symmetry.
 There are    23 symmetry adapted basis functions of B2  symmetry.
    82 basis functions,   155 primitive gaussians,    85 cartesian basis functions
    13 alpha electrons       13 beta electrons
       nuclear repulsion energy        82.0779837483 Hartrees.
 NAtoms=   11 NActive=   11 NUniq=    5 SFac= 4.00D+00 NAtFMM=   60 NAOKFM=F Big=F
 Integral buffers will be    131072 words long.
 Raffenetti 2 integral format.
 Two-electron integral symmetry is turned on.
 One-electron integrals computed using PRISM.
 NBasis=    82 RedAO= T EigKep=  5.85D-03  NBF=    30    12    17    23
 NBsUse=    82 1.00D-06 EigRej= -1.00D+00 NBFU=    30    12    17    23
 Initial guess from the checkpoint file:  "Propane-DFT-ccpvdz.chk"
 B after Tr=    -0.000000    0.000000   -0.000000
         Rot=    1.000000    0.000000    0.000000   -0.000000 Ang=   0.00 deg.
 Initial guess orbital symmetries:
       Occupied  (A1) (B2) (A1) (A1) (B2) (A1) (B1) (A1) (B2) (A2)
                 (B2) (A1) (B1)
       Virtual   (A1) (B2) (B1) (A1) (A1) (B1) (B2) (A2) (A1) (B2)
                 (A1) (B1) (B2) (A2) (A1) (A1) (B2) (B1) (B2) (B1)
                 (B2) (A1) (A2) (B1) (A1) (A1) (B2) (A1) (A2) (A1)
                 (B2) (A2) (B1) (B2) (A1) (B1) (A2) (A1) (A1) (B2)
                 (B1) (A2) (B2) (B1) (A1) (B2) (B1) (A2) (A1) (B1)
                 (B2) (A1) (B2) (A2) (A1) (B2) (A1) (B1) (A1) (B2)
                 (A2) (A1) (B1) (B2) (B2) (A1) (A1) (A2) (B1)
 Keep R1 ints in memory in symmetry-blocked form, NReq=27645467.
 Requested convergence on RMS density matrix=1.00D-08 within 128 cycles.
 Requested convergence on MAX density matrix=1.00D-06.
 Requested convergence on             energy=1.00D-06.
 No special actions if energy rises.
 SCF Done:  E(RB3LYP) =  -119.144072449     A.U. after    7 cycles
            NFock=  7  Conv=0.42D-08     -V/T= 2.0097
 Calling FoFJK, ICntrl=      2127 FMM=F ISym2X=1 I1Cent= 0 IOpClX= 0 NMat=1 NMatS=1 NMatT=0.
 ***** Axes restored to original set *****
 -------------------------------------------------------------------
 Center     Atomic                   Forces (Hartrees/Bohr)
 Number     Number              X              Y              Z
 -------------------------------------------------------------------
      1        6          -0.000012774    0.000051451   -0.000023998
      2        1           0.000028397   -0.000074656   -0.000130206
      3        1          -0.000075185   -0.000036011    0.000034257
      4        1           0.000078696    0.000006482    0.000043453
      5        6           0.000018976   -0.000091281    0.000104264
      6        6          -0.000001661    0.000017987   -0.000055317
      7        1          -0.000058708    0.000018240   -0.000040319
      8        1           0.000045162    0.000046923   -0.000034112
      9        1          -0.000068157   -0.000057175    0.000014450
     10        1           0.000085724   -0.000014682    0.000023646
     11        1          -0.000040468    0.000132722    0.000063882
 -------------------------------------------------------------------
 Cartesian Forces:  Max     0.000132722 RMS     0.000059367

 GradGradGradGradGradGradGradGradGradGradGradGradGradGradGradGradGradGrad
 Berny optimization.
 Using GEDIIS/GDIIS optimizer.
 FormGI is forming the generalized inverse of G from B-inverse, IUseBI=4.
 Internal  Forces:  Max     0.000145356 RMS     0.000050624
 Search for a local minimum.
 Step number   4 out of a maximum of   56
 All quantities printed in internal units (Hartrees-Bohrs-Radians)
 Mixed Optimization -- En-DIIS/RFO-DIIS
 Swapping is turned off.
 Update second derivatives using D2CorX and points    1    2    3    4
 DE= -1.72D-05 DEPred=-1.71D-05 R= 1.01D+00
 TightC=F SS=  1.41D+00  RLast= 2.05D-02 DXNew= 8.4853D-01 6.1443D-02
 Trust test= 1.01D+00 RLast= 2.05D-02 DXMaxT set to 5.05D-01
 ITU=  1  1  1  0
     Eigenvalues ---    0.00237   0.00237   0.03367   0.04268   0.05335
     Eigenvalues ---    0.05335   0.05405   0.05449   0.08365   0.12241
     Eigenvalues ---    0.13351   0.16000   0.16000   0.16000   0.16000
     Eigenvalues ---    0.16457   0.21907   0.27645   0.28519   0.36909
     Eigenvalues ---    0.37157   0.37230   0.37230   0.37230   0.37230
     Eigenvalues ---    0.37230   0.37402
 En-DIIS/RFO-DIIS/Sim-DIIS IScMMF=       -3 using points:     4    3
 RFO step:  Lambda=-4.08977338D-07.
 DidBck=F Rises=F RFO-DIIS coefs:    0.99847    0.00153
 Iteration  1 RMS(Cart)=  0.00029387 RMS(Int)=  0.00000007
 Iteration  2 RMS(Cart)=  0.00000008 RMS(Int)=  0.00000003
 ClnCor:  largest displacement from symmetrization is 8.64D-09 for atom    11.
 Variable       Old X    -DE/DX   Delta X   Delta X   Delta X     New X
                                 (Linear)    (Quad)   (Total)
    R1        2.08354  -0.00015   0.00000  -0.00038  -0.00038   2.08316
    R2        2.08620  -0.00009   0.00000  -0.00023  -0.00023   2.08597
    R3        2.08620  -0.00009   0.00000  -0.00023  -0.00023   2.08597
    R4        2.89271  -0.00007   0.00001  -0.00021  -0.00020   2.89251
    R5        2.89271  -0.00007   0.00001  -0.00021  -0.00020   2.89251
    R6        2.08878  -0.00007  -0.00000  -0.00018  -0.00018   2.08860
    R7        2.08878  -0.00007  -0.00000  -0.00018  -0.00018   2.08860
    R8        2.08620  -0.00009   0.00000  -0.00023  -0.00023   2.08597
    R9        2.08620  -0.00009   0.00000  -0.00023  -0.00023   2.08597
   R10        2.08354  -0.00015   0.00000  -0.00038  -0.00038   2.08316
    A1        1.87808   0.00001   0.00000   0.00001   0.00001   1.87809
    A2        1.87808   0.00001   0.00000   0.00001   0.00001   1.87809
    A3        1.94930  -0.00008  -0.00000  -0.00053  -0.00053   1.94877
    A4        1.87339  -0.00003   0.00001  -0.00009  -0.00009   1.87330
    A5        1.94077   0.00004  -0.00000   0.00030   0.00030   1.94107
    A6        1.94077   0.00004  -0.00000   0.00030   0.00030   1.94107
    A7        1.97298  -0.00004  -0.00001  -0.00012  -0.00013   1.97286
    A8        1.90969   0.00001  -0.00000   0.00002   0.00002   1.90971
    A9        1.90969   0.00001  -0.00000   0.00002   0.00002   1.90971
   A10        1.90969   0.00001  -0.00000   0.00002   0.00002   1.90971
   A11        1.90969   0.00001  -0.00000   0.00002   0.00002   1.90971
   A12        1.84791  -0.00000   0.00001   0.00005   0.00006   1.84797
   A13        1.94077   0.00004  -0.00000   0.00030   0.00030   1.94107
   A14        1.94077   0.00004  -0.00000   0.00030   0.00030   1.94107
   A15        1.94930  -0.00008  -0.00000  -0.00053  -0.00053   1.94877
   A16        1.87339  -0.00003   0.00001  -0.00009  -0.00009   1.87330
   A17        1.87808   0.00001   0.00000   0.00001   0.00001   1.87809
   A18        1.87808   0.00001   0.00000   0.00001   0.00001   1.87809
    D1        3.14159  -0.00000   0.00000   0.00000   0.00000   3.14159
    D2       -1.00865  -0.00000  -0.00001  -0.00004  -0.00005  -1.00870
    D3        1.00865   0.00000   0.00001   0.00004   0.00005   1.00870
    D4       -1.04330  -0.00001  -0.00000  -0.00014  -0.00014  -1.04345
    D5        1.08964  -0.00001  -0.00001  -0.00018  -0.00019   1.08945
    D6        3.10694  -0.00000   0.00001  -0.00010  -0.00009   3.10685
    D7        1.04330   0.00001   0.00000   0.00014   0.00014   1.04345
    D8       -3.10694   0.00000  -0.00001   0.00010   0.00009  -3.10685
    D9       -1.08964   0.00001   0.00001   0.00018   0.00019  -1.08945
   D10        1.04330   0.00001   0.00000   0.00014   0.00014   1.04345
   D11       -1.04330  -0.00001  -0.00000  -0.00014  -0.00014  -1.04345
   D12        3.14159  -0.00000   0.00000  -0.00000   0.00000   3.14159
   D13       -1.08964   0.00001   0.00001   0.00018   0.00019  -1.08945
   D14        3.10694  -0.00000   0.00001  -0.00010  -0.00009   3.10685
   D15        1.00865   0.00000   0.00001   0.00004   0.00005   1.00870
   D16       -3.10694   0.00000  -0.00001   0.00010   0.00009  -3.10685
   D17        1.08964  -0.00001  -0.00001  -0.00018  -0.00019   1.08945
   D18       -1.00865  -0.00000  -0.00001  -0.00004  -0.00005  -1.00870
         Item               Value     Threshold  Converged?
 Maximum Force            0.000145     0.000450     YES
 RMS     Force            0.000051     0.000300     YES
 Maximum Displacement     0.001106     0.001800     YES
 RMS     Displacement     0.000294     0.001200     YES
 Predicted change in Energy=-2.044969D-07
 Optimization completed.
    -- Stationary point found.
                           ----------------------------
                           !   Optimized Parameters   !
                           ! (Angstroms and Degrees)  !
 --------------------------                            --------------------------
 ! Name  Definition              Value          Derivative Info.                !
 --------------------------------------------------------------------------------
 ! R1    R(1,2)                  1.1026         -DE/DX =   -0.0001              !
 ! R2    R(1,3)                  1.104          -DE/DX =   -0.0001              !
 ! R3    R(1,4)                  1.104          -DE/DX =   -0.0001              !
 ! R4    R(1,5)                  1.5308         -DE/DX =   -0.0001              !
 ! R5    R(5,6)                  1.5308         -DE/DX =   -0.0001              !
 ! R6    R(5,7)                  1.1053         -DE/DX =   -0.0001              !
 ! R7    R(5,8)                  1.1053         -DE/DX =   -0.0001              !
 ! R8    R(6,9)                  1.104          -DE/DX =   -0.0001              !
 ! R9    R(6,10)                 1.104          -DE/DX =   -0.0001              !
 ! R10   R(6,11)                 1.1026         -DE/DX =   -0.0001              !
 ! A1    A(2,1,3)              107.606          -DE/DX =    0.0                 !
 ! A2    A(2,1,4)              107.606          -DE/DX =    0.0                 !
 ! A3    A(2,1,5)              111.6868         -DE/DX =   -0.0001              !
 ! A4    A(3,1,4)              107.3374         -DE/DX =    0.0                 !
 ! A5    A(3,1,5)              111.1981         -DE/DX =    0.0                 !
 ! A6    A(4,1,5)              111.1981         -DE/DX =    0.0                 !
 ! A7    A(1,5,6)              113.0436         -DE/DX =    0.0                 !
 ! A8    A(1,5,7)              109.4172         -DE/DX =    0.0                 !
 ! A9    A(1,5,8)              109.4172         -DE/DX =    0.0                 !
 ! A10   A(6,5,7)              109.4172         -DE/DX =    0.0                 !
 ! A11   A(6,5,8)              109.4172         -DE/DX =    0.0                 !
 ! A12   A(7,5,8)              105.8772         -DE/DX =    0.0                 !
 ! A13   A(5,6,9)              111.1981         -DE/DX =    0.0                 !
 ! A14   A(5,6,10)             111.1981         -DE/DX =    0.0                 !
 ! A15   A(5,6,11)             111.6868         -DE/DX =   -0.0001              !
 ! A16   A(9,6,10)             107.3374         -DE/DX =    0.0                 !
 ! A17   A(9,6,11)             107.606          -DE/DX =    0.0                 !
 ! A18   A(10,6,11)            107.606          -DE/DX =    0.0                 !
 ! D1    D(2,1,5,6)            180.0            -DE/DX =    0.0                 !
 ! D2    D(2,1,5,7)            -57.7916         -DE/DX =    0.0                 !
 ! D3    D(2,1,5,8)             57.7916         -DE/DX =    0.0                 !
 ! D4    D(3,1,5,6)            -59.7769         -DE/DX =    0.0                 !
 ! D5    D(3,1,5,7)             62.4315         -DE/DX =    0.0                 !
 ! D6    D(3,1,5,8)            178.0147         -DE/DX =    0.0                 !
 ! D7    D(4,1,5,6)             59.7769         -DE/DX =    0.0                 !
 ! D8    D(4,1,5,7)           -178.0147         -DE/DX =    0.0                 !
 ! D9    D(4,1,5,8)            -62.4315         -DE/DX =    0.0                 !
 ! D10   D(1,5,6,9)             59.7769         -DE/DX =    0.0                 !
 ! D11   D(1,5,6,10)           -59.7769         -DE/DX =    0.0                 !
 ! D12   D(1,5,6,11)           180.0            -DE/DX =    0.0                 !
 ! D13   D(7,5,6,9)            -62.4315         -DE/DX =    0.0                 !
 ! D14   D(7,5,6,10)           178.0147         -DE/DX =    0.0                 !
 ! D15   D(7,5,6,11)            57.7916         -DE/DX =    0.0                 !
 ! D16   D(8,5,6,9)           -178.0147         -DE/DX =    0.0                 !
 ! D17   D(8,5,6,10)            62.4315         -DE/DX =    0.0                 !
 ! D18   D(8,5,6,11)           -57.7916         -DE/DX =    0.0                 !
 --------------------------------------------------------------------------------
 GradGradGradGradGradGradGradGradGradGradGradGradGradGradGradGradGradGrad

                          Input orientation:                          
 ---------------------------------------------------------------------
 Center     Atomic      Atomic             Coordinates (Angstroms)
 Number     Number       Type             X           Y           Z
 ---------------------------------------------------------------------
      1          6           0       -0.866708   -0.039810   -0.715562
      2          1           0       -0.994502    0.191308    0.354901
      3          1           0       -0.110467    0.655730   -1.119379
      4          1           0       -1.822182    0.183051   -1.221673
      5          6           0       -0.451305   -1.496836   -0.934016
      6          6           0       -0.265016   -1.851728   -2.411364
      7          1           0        0.487890   -1.697185   -0.386711
      8          1           0       -1.209748   -2.165977   -0.488164
      9          1           0        0.513452   -1.223122   -2.877826
     10          1           0       -1.198263   -1.695801   -2.980119
     11          1           0        0.033665   -2.904882   -2.542872
 ---------------------------------------------------------------------
                    Distance matrix (angstroms):
                    1          2          3          4          5
     1  C    0.000000
     2  H    1.102560   0.000000
     3  H    1.103968   1.780648   0.000000
     4  H    1.103968   1.780648   1.778723   0.000000
     5  C    1.530754   2.192306   2.187252   2.187252   0.000000
     6  C    2.553590   3.515448   2.824970   2.824970   1.530754
     7  H    2.165634   2.512744   2.535949   3.093360   1.105337
     8  H    2.165634   2.512744   3.093360   2.535949   1.105337
     9  H    2.824970   3.837325   2.647922   3.189882   2.187252
    10  H    2.824970   3.837325   3.189882   2.647922   2.187252
    11  H    3.515448   4.363555   3.837325   3.837325   2.192306
                    6          7          8          9         10
     6  C    0.000000
     7  H    2.165634   0.000000
     8  H    2.165634   1.764096   0.000000
     9  H    1.103968   2.535949   3.093360   0.000000
    10  H    1.103968   3.093360   2.535949   1.778723   0.000000
    11  H    1.102560   2.512744   2.512744   1.780648   1.780648
                   11
    11  H    0.000000
 Stoichiometry    C3H8
 Framework group  C2V[C2(C),SGV(C2H2),SGV'(H2),X(H4)]
 Deg. of freedom     9
 Full point group                 C2V     NOp   4
 Largest Abelian subgroup         C2V     NOp   4
 Largest concise Abelian subgroup C2V     NOp   4
                         Standard orientation:                         
 ---------------------------------------------------------------------
 Center     Atomic      Atomic             Coordinates (Angstroms)
 Number     Number       Type             X           Y           Z
 ---------------------------------------------------------------------
      1          6           0       -0.000000    1.276795   -0.259141
      2          1           0       -0.000000    2.181778    0.370657
      3          1           0        0.889362    1.323961   -0.911488
      4          1           0       -0.889362    1.323961   -0.911488
      5          6           0        0.000000    0.000000    0.585253
      6          6           0       -0.000000   -1.276795   -0.259141
      7          1           0        0.882048   -0.000000    1.251407
      8          1           0       -0.882048    0.000000    1.251407
      9          1           0        0.889362   -1.323961   -0.911488
     10          1           0       -0.889362   -1.323961   -0.911488
     11          1           0       -0.000000   -2.181778    0.370657
 ---------------------------------------------------------------------
 Rotational constants (GHZ):          29.2839688           8.3474513           7.4007901

 **********************************************************************

            Population analysis using the SCF Density.

 **********************************************************************

 Orbital symmetries:
       Occupied  (A1) (B2) (A1) (A1) (B2) (A1) (B1) (A1) (B2) (A2)
                 (B2) (A1) (B1)
       Virtual   (A1) (B2) (B1) (A1) (A1) (B1) (B2) (A2) (A1) (B2)
                 (A1) (B1) (B2) (A2) (A1) (B2) (A1) (B1) (B2) (B1)
                 (B2) (A1) (A2) (B1) (A1) (A1) (B2) (A1) (A2) (A1)
                 (B2) (A2) (B1) (B2) (A1) (B1) (A2) (A1) (A1) (B2)
                 (B1) (A2) (B2) (B1) (A1) (B2) (B1) (A2) (A1) (B1)
                 (B2) (A1) (B2) (A2) (A1) (B2) (A1) (B1) (A1) (A2)
                 (B2) (A1) (B1) (B2) (B2) (A1) (A1) (A2) (B1)
 The electronic state is 1-A1.
 Alpha  occ. eigenvalues --  -10.18282 -10.17603 -10.17600  -0.77711  -0.67717
 Alpha  occ. eigenvalues --   -0.58065  -0.45204  -0.43260  -0.39505  -0.37645
 Alpha  occ. eigenvalues --   -0.33657  -0.33437  -0.32441
 Alpha virt. eigenvalues --    0.06053   0.10445   0.10714   0.10739   0.13427
 Alpha virt. eigenvalues --    0.15514   0.15818   0.16568   0.21206   0.25414
 Alpha virt. eigenvalues --    0.39174   0.41128   0.43109   0.43804   0.45392
 Alpha virt. eigenvalues --    0.59474   0.59511   0.61039   0.61868   0.65576
 Alpha virt. eigenvalues --    0.65660   0.65904   0.66231   0.66851   0.67694
 Alpha virt. eigenvalues --    0.70686   0.73889   0.89709   0.89842   0.97766
 Alpha virt. eigenvalues --    1.11968   1.21108   1.21861   1.27178   1.35086
 Alpha virt. eigenvalues --    1.42375   1.42797   1.43807   1.57217   1.58692
 Alpha virt. eigenvalues --    1.60101   1.62563   1.65123   1.65697   1.67682
 Alpha virt. eigenvalues --    1.68579   1.68869   1.69202   1.69500   1.75182
 Alpha virt. eigenvalues --    1.82941   1.84115   1.99689   2.00981   2.03286
 Alpha virt. eigenvalues --    2.04999   2.16904   2.18829   2.25787   2.27383
 Alpha virt. eigenvalues --    2.27471   2.38821   2.40962   2.41263   2.45662
 Alpha virt. eigenvalues --    2.54898   2.62502   2.63196   2.67440
          Condensed to atoms (all electrons):
               1          2          3          4          5          6
     1  C    4.517624   0.378545   0.389229   0.389229   0.453902  -0.048595
     2  H    0.378545   0.686286  -0.030170  -0.030170  -0.013472   0.005999
     3  H    0.389229  -0.030170   0.682970  -0.032670  -0.026388  -0.004834
     4  H    0.389229  -0.030170  -0.032670   0.682970  -0.026388  -0.004834
     5  C    0.453902  -0.013472  -0.026388  -0.026388   4.536436   0.453902
     6  C   -0.048595   0.005999  -0.004834  -0.004834   0.453902   4.517624
     7  H   -0.026435  -0.004879  -0.008812   0.009038   0.375074  -0.026435
     8  H   -0.026435  -0.004879   0.009038  -0.008812   0.375074  -0.026435
     9  H   -0.004834   0.000071   0.006658  -0.001496  -0.026388   0.389229
    10  H   -0.004834   0.000071  -0.001496   0.006658  -0.026388   0.389229
    11  H    0.005999  -0.000486   0.000071   0.000071  -0.013472   0.378545
               7          8          9         10         11
     1  C   -0.026435  -0.026435  -0.004834  -0.004834   0.005999
     2  H   -0.004879  -0.004879   0.000071   0.000071  -0.000486
     3  H   -0.008812   0.009038   0.006658  -0.001496   0.000071
     4  H    0.009038  -0.008812  -0.001496   0.006658   0.000071
     5  C    0.375074   0.375074  -0.026388  -0.026388  -0.013472
     6  C   -0.026435  -0.026435   0.389229   0.389229   0.378545
     7  H    0.721614  -0.042958  -0.008812   0.009038  -0.004879
     8  H   -0.042958   0.721614   0.009038  -0.008812  -0.004879
     9  H   -0.008812   0.009038   0.682970  -0.032670  -0.030170
    10  H    0.009038  -0.008812  -0.032670   0.682970  -0.030170
    11  H   -0.004879  -0.004879  -0.030170  -0.030170   0.686286
 Mulliken charges:
               1
     1  C   -0.023395
     2  H    0.013084
     3  H    0.016405
     4  H    0.016405
     5  C   -0.061891
     6  C   -0.023395
     7  H    0.008446
     8  H    0.008446
     9  H    0.016405
    10  H    0.016405
    11  H    0.013084
 Sum of Mulliken charges =  -0.00000
 Mulliken charges with hydrogens summed into heavy atoms:
               1
     1  C    0.022500
     5  C   -0.044999
     6  C    0.022500
 Electronic spatial extent (au):  <R**2>=            228.6701
 Charge=             -0.0000 electrons
 Dipole moment (field-independent basis, Debye):
    X=              0.0000    Y=              0.0000    Z=              0.0658  Tot=              0.0658
 Quadrupole moment (field-independent basis, Debye-Ang):
   XX=            -21.4754   YY=            -22.1421   ZZ=            -21.8453
   XY=             -0.0000   XZ=              0.0000   YZ=              0.0000
 Traceless Quadrupole moment (field-independent basis, Debye-Ang):
   XX=              0.3456   YY=             -0.3211   ZZ=             -0.0244
   XY=             -0.0000   XZ=              0.0000   YZ=              0.0000
 Octapole moment (field-independent basis, Debye-Ang**2):
  XXX=              0.0000  YYY=              0.0000  ZZZ=              0.2091  XYY=              0.0000
  XXY=              0.0000  XXZ=             -0.3466  XZZ=              0.0000  YZZ=             -0.0000
  YYZ=              1.2227  XYZ=             -0.0000
 Hexadecapole moment (field-independent basis, Debye-Ang**3):
 XXXX=            -44.3041 YYYY=           -204.8983 ZZZZ=            -71.3295 XXXY=              0.0000
 XXXZ=              0.0000 YYYX=              0.0000 YYYZ=             -0.0000 ZZZX=             -0.0000
 ZZZY=             -0.0000 XXYY=            -42.1428 XXZZ=            -17.6432 YYZZ=            -45.7149
 XXYZ=             -0.0000 YYXZ=              0.0000 ZZXY=              0.0000
 N-N= 8.207798374832D+01 E-N=-4.388023169727D+02  KE= 1.180033788502D+02
 Symmetry A1   KE= 7.311356293319D+01
 Symmetry A2   KE= 1.980333106208D+00
 Symmetry B1   KE= 3.773417343461D+00
 Symmetry B2   KE= 3.913606546738D+01
 ******************************Gaussian NBO Version 3.1******************************
             N A T U R A L   A T O M I C   O R B I T A L   A N D
          N A T U R A L   B O N D   O R B I T A L   A N A L Y S I S
 ******************************Gaussian NBO Version 3.1******************************
       /RESON  / : Allow strongly delocalized NBO set

 Analyzing the SCF density

 Job title: Propane-dft-cc-pvdz                                             

 Storage needed:     20628 in NPA,     27277 in NBO (1342176565 available)
 GSVD:  LWork=        3370 too small for GESVD, short by        2987 words or        2987 for optimal perf.


 NATURAL POPULATIONS:  Natural atomic orbital occupancies 
                                                          
   NAO  Atom  No  lang   Type(AO)    Occupancy      Energy
 ----------------------------------------------------------
     1    C    1  S      Cor( 1S)     1.99937     -10.05429
     2    C    1  S      Val( 2S)     1.11246      -0.24532
     3    C    1  S      Ryd( 3S)     0.00051       1.18642
     4    C    1  px     Val( 2p)     1.21534      -0.06474
     5    C    1  px     Ryd( 3p)     0.00106       0.57908
     6    C    1  py     Val( 2p)     1.12703      -0.06167
     7    C    1  py     Ryd( 3p)     0.00224       0.55785
     8    C    1  pz     Val( 2p)     1.17491      -0.06264
     9    C    1  pz     Ryd( 3p)     0.00160       0.56178
    10    C    1  dxy    Ryd( 3d)     0.00023       1.64905
    11    C    1  dxz    Ryd( 3d)     0.00073       1.95953
    12    C    1  dyz    Ryd( 3d)     0.00064       1.87296
    13    C    1  dx2y2  Ryd( 3d)     0.00060       1.91016
    14    C    1  dz2    Ryd( 3d)     0.00016       1.63623
 
    15    H    2  S      Val( 1S)     0.77911       0.07803
    16    H    2  S      Ryd( 2S)     0.00146       0.37574
    17    H    2  px     Ryd( 2p)     0.00024       1.68241
    18    H    2  py     Ryd( 2p)     0.00059       2.01771
    19    H    2  pz     Ryd( 2p)     0.00036       1.81749
 
    20    H    3  S      Val( 1S)     0.78701       0.07277
    21    H    3  S      Ryd( 2S)     0.00205       0.38451
    22    H    3  px     Ryd( 2p)     0.00059       2.00745
    23    H    3  py     Ryd( 2p)     0.00016       1.66734
    24    H    3  pz     Ryd( 2p)     0.00043       1.85026
 
    25    H    4  S      Val( 1S)     0.78701       0.07277
    26    H    4  S      Ryd( 2S)     0.00205       0.38451
    27    H    4  px     Ryd( 2p)     0.00059       2.00745
    28    H    4  py     Ryd( 2p)     0.00016       1.66734
    29    H    4  pz     Ryd( 2p)     0.00043       1.85026
 
    30    C    5  S      Cor( 1S)     1.99929     -10.05675
    31    C    5  S      Val( 2S)     1.04431      -0.22719
    32    C    5  S      Ryd( 3S)     0.00080       1.28069
    33    C    5  px     Val( 2p)     1.21204      -0.06012
    34    C    5  px     Ryd( 3p)     0.00259       0.67481
    35    C    5  py     Val( 2p)     1.02856      -0.05947
    36    C    5  py     Ryd( 3p)     0.00133       0.52956
    37    C    5  pz     Val( 2p)     1.13077      -0.06018
    38    C    5  pz     Ryd( 3p)     0.00091       0.53960
    39    C    5  dxy    Ryd( 3d)     0.00043       1.65563
    40    C    5  dxz    Ryd( 3d)     0.00093       2.02196
    41    C    5  dyz    Ryd( 3d)     0.00088       1.82419
    42    C    5  dx2y2  Ryd( 3d)     0.00090       1.90649
    43    C    5  dz2    Ryd( 3d)     0.00034       1.64854
 
    44    C    6  S      Cor( 1S)     1.99937     -10.05429
    45    C    6  S      Val( 2S)     1.11246      -0.24532
    46    C    6  S      Ryd( 3S)     0.00051       1.18642
    47    C    6  px     Val( 2p)     1.21534      -0.06474
    48    C    6  px     Ryd( 3p)     0.00106       0.57908
    49    C    6  py     Val( 2p)     1.12703      -0.06167
    50    C    6  py     Ryd( 3p)     0.00224       0.55785
    51    C    6  pz     Val( 2p)     1.17491      -0.06264
    52    C    6  pz     Ryd( 3p)     0.00160       0.56178
    53    C    6  dxy    Ryd( 3d)     0.00023       1.64905
    54    C    6  dxz    Ryd( 3d)     0.00073       1.95953
    55    C    6  dyz    Ryd( 3d)     0.00064       1.87296
    56    C    6  dx2y2  Ryd( 3d)     0.00060       1.91016
    57    C    6  dz2    Ryd( 3d)     0.00016       1.63623
 
    58    H    7  S      Val( 1S)     0.78475       0.08011
    59    H    7  S      Ryd( 2S)     0.00290       0.38598
    60    H    7  px     Ryd( 2p)     0.00060       2.01592
    61    H    7  py     Ryd( 2p)     0.00014       1.67587
    62    H    7  pz     Ryd( 2p)     0.00043       1.87178
 
    63    H    8  S      Val( 1S)     0.78475       0.08011
    64    H    8  S      Ryd( 2S)     0.00290       0.38598
    65    H    8  px     Ryd( 2p)     0.00060       2.01592
    66    H    8  py     Ryd( 2p)     0.00014       1.67587
    67    H    8  pz     Ryd( 2p)     0.00043       1.87178
 
    68    H    9  S      Val( 1S)     0.78701       0.07277
    69    H    9  S      Ryd( 2S)     0.00205       0.38451
    70    H    9  px     Ryd( 2p)     0.00059       2.00745
    71    H    9  py     Ryd( 2p)     0.00016       1.66734
    72    H    9  pz     Ryd( 2p)     0.00043       1.85026
 
    73    H   10  S      Val( 1S)     0.78701       0.07277
    74    H   10  S      Ryd( 2S)     0.00205       0.38451
    75    H   10  px     Ryd( 2p)     0.00059       2.00745
    76    H   10  py     Ryd( 2p)     0.00016       1.66734
    77    H   10  pz     Ryd( 2p)     0.00043       1.85026
 
    78    H   11  S      Val( 1S)     0.77911       0.07803
    79    H   11  S      Ryd( 2S)     0.00146       0.37574
    80    H   11  px     Ryd( 2p)     0.00024       1.68241
    81    H   11  py     Ryd( 2p)     0.00059       2.01771
    82    H   11  pz     Ryd( 2p)     0.00036       1.81749


 Summary of Natural Population Analysis:                  
                                                          
                                       Natural Population 
                Natural  -----------------------------------------------
    Atom  No    Charge         Core      Valence    Rydberg      Total
 -----------------------------------------------------------------------
      C    1   -0.63688      1.99937     4.62974    0.00777     6.63688
      H    2    0.21824      0.00000     0.77911    0.00265     0.78176
      H    3    0.20975      0.00000     0.78701    0.00324     0.79025
      H    4    0.20975      0.00000     0.78701    0.00324     0.79025
      C    5   -0.42408      1.99929     4.41569    0.00910     6.42408
      C    6   -0.63688      1.99937     4.62974    0.00777     6.63688
      H    7    0.21118      0.00000     0.78475    0.00407     0.78882
      H    8    0.21118      0.00000     0.78475    0.00407     0.78882
      H    9    0.20975      0.00000     0.78701    0.00324     0.79025
      H   10    0.20975      0.00000     0.78701    0.00324     0.79025
      H   11    0.21824      0.00000     0.77911    0.00265     0.78176
 =======================================================================
   * Total *    0.00000      5.99804    19.95094    0.05103    26.00000

                                 Natural Population      
 --------------------------------------------------------
   Core                       5.99804 ( 99.9673% of   6)
   Valence                   19.95094 ( 99.7547% of  20)
   Natural Minimal Basis     25.94897 ( 99.8037% of  26)
   Natural Rydberg Basis      0.05103 (  0.1963% of  26)
 --------------------------------------------------------

    Atom  No          Natural Electron Configuration
 ----------------------------------------------------------------------------
      C    1      [core]2S( 1.11)2p( 3.52)
      H    2            1S( 0.78)
      H    3            1S( 0.79)
      H    4            1S( 0.79)
      C    5      [core]2S( 1.04)2p( 3.37)
      C    6      [core]2S( 1.11)2p( 3.52)
      H    7            1S( 0.78)
      H    8            1S( 0.78)
      H    9            1S( 0.79)
      H   10            1S( 0.79)
      H   11            1S( 0.78)


 NATURAL BOND ORBITAL ANALYSIS:

                       Occupancies       Lewis Structure    Low   High
           Occ.    -------------------  -----------------   occ   occ
  Cycle   Thresh.   Lewis   Non-Lewis     CR  BD  3C  LP    (L)   (NL)   Dev
 =============================================================================
   1(1)    1.90    25.86179   0.13821      3  10   0   0     0      0    0.03
 -----------------------------------------------------------------------------

 Structure accepted: No low occupancy Lewis orbitals

 --------------------------------------------------------
   Core                      5.99804 ( 99.967% of   6)
   Valence Lewis            19.86375 ( 99.319% of  20)
  ==================       ============================
   Total Lewis              25.86179 ( 99.468% of  26)
  -----------------------------------------------------
   Valence non-Lewis         0.10125 (  0.389% of  26)
   Rydberg non-Lewis         0.03696 (  0.142% of  26)
  ==================       ============================
   Total non-Lewis           0.13821 (  0.532% of  26)
 --------------------------------------------------------


       (Occupancy)   Bond orbital/ Coefficients/ Hybrids
 ---------------------------------------------------------------------------------
     1. (1.98821) BD ( 1) C   1 - H   2  
                ( 60.95%)   0.7807* C   1 s( 23.47%)p 3.26( 76.50%)d 0.00(  0.03%)
                                            0.0000  0.4845  0.0000 -0.0000  0.0000
                                            0.7165  0.0020  0.5014 -0.0134 -0.0000
                                            0.0000  0.0145 -0.0090 -0.0006
                ( 39.05%)   0.6249* H   2 s( 99.91%)p 0.00(  0.09%)
                                            0.9995 -0.0009  0.0000 -0.0256 -0.0166
     2. (1.98880) BD ( 1) C   1 - H   3  
                ( 60.68%)   0.7790* C   1 s( 23.24%)p 3.30( 76.72%)d 0.00(  0.03%)
                                            0.0000  0.4821 -0.0044  0.7069 -0.0042
                                            0.0349  0.0161 -0.5157 -0.0037  0.0013
                                           -0.0145  0.0000  0.0099  0.0007
                ( 39.32%)   0.6271* H   3 s( 99.91%)p 0.00(  0.09%)
                                            0.9995 -0.0023 -0.0240 -0.0025  0.0181
     3. (1.98880) BD ( 1) C   1 - H   4  
                ( 60.68%)   0.7790* C   1 s( 23.24%)p 3.30( 76.72%)d 0.00(  0.03%)
                                           -0.0000 -0.4821  0.0044  0.7069 -0.0042
                                           -0.0349 -0.0161  0.5157  0.0037  0.0013
                                           -0.0145 -0.0000 -0.0099 -0.0007
                ( 39.32%)   0.6271* H   4 s( 99.91%)p 0.00(  0.09%)
                                           -0.9995  0.0023 -0.0240  0.0025 -0.0181
     4. (1.98907) BD ( 1) C   1 - C   5  
                ( 49.91%)   0.7064* C   1 s( 30.02%)p 2.33( 69.94%)d 0.00(  0.04%)
                                            0.0004  0.5478  0.0104 -0.0000 -0.0000
                                           -0.6952  0.0037  0.4647  0.0116 -0.0000
                                           -0.0000 -0.0157 -0.0124 -0.0013
                ( 50.09%)   0.7078* C   5 s( 27.94%)p 2.58( 72.02%)d 0.00(  0.04%)
                                            0.0003  0.5285  0.0119 -0.0000  0.0000
                                            0.7068  0.0146 -0.4694  0.0098  0.0000
                                           -0.0000 -0.0168 -0.0128  0.0003
     5. (1.98907) BD ( 1) C   5 - C   6  
                ( 50.09%)   0.7078* C   5 s( 27.94%)p 2.58( 72.02%)d 0.00(  0.04%)
                                            0.0003  0.5285  0.0119 -0.0000  0.0000
                                           -0.7068 -0.0146 -0.4694  0.0098  0.0000
                                           -0.0000  0.0168 -0.0128  0.0003
                ( 49.91%)   0.7064* C   6 s( 30.02%)p 2.33( 69.94%)d 0.00(  0.04%)
                                            0.0004  0.5478  0.0104  0.0000  0.0000
                                            0.6952 -0.0037  0.4647  0.0116 -0.0000
                                           -0.0000  0.0157 -0.0124 -0.0013
     6. (1.97700) BD ( 1) C   5 - H   7  
                ( 60.79%)   0.7797* C   5 s( 22.07%)p 3.53( 77.89%)d 0.00(  0.03%)
                                           -0.0001  0.4697 -0.0107  0.7068 -0.0148
                                            0.0000  0.0000  0.5283  0.0058  0.0000
                                            0.0150  0.0000  0.0107  0.0006
                ( 39.21%)   0.6262* H   7 s( 99.90%)p 0.00(  0.10%)
                                            0.9995 -0.0041 -0.0238  0.0000 -0.0197
     7. (1.97700) BD ( 1) C   5 - H   8  
                ( 60.79%)   0.7797* C   5 s( 22.07%)p 3.53( 77.89%)d 0.00(  0.03%)
                                            0.0001 -0.4697  0.0107  0.7068 -0.0148
                                           -0.0000 -0.0000 -0.5283 -0.0058  0.0000
                                            0.0150 -0.0000 -0.0107 -0.0006
                ( 39.21%)   0.6262* H   8 s( 99.90%)p 0.00(  0.10%)
                                           -0.9995  0.0041 -0.0238  0.0000  0.0197
     8. (1.98880) BD ( 1) C   6 - H   9  
                ( 60.68%)   0.7790* C   6 s( 23.24%)p 3.30( 76.72%)d 0.00(  0.03%)
                                            0.0000  0.4821 -0.0044  0.7069 -0.0042
                                           -0.0349 -0.0161 -0.5157 -0.0037 -0.0013
                                           -0.0145 -0.0000  0.0099  0.0007
                ( 39.32%)   0.6271* H   9 s( 99.91%)p 0.00(  0.09%)
                                            0.9995 -0.0023 -0.0240  0.0025  0.0181
     9. (1.98880) BD ( 1) C   6 - H  10  
                ( 60.68%)   0.7790* C   6 s( 23.24%)p 3.30( 76.72%)d 0.00(  0.03%)
                                           -0.0000 -0.4821  0.0044  0.7069 -0.0042
                                            0.0349  0.0161  0.5157  0.0037 -0.0013
                                           -0.0145  0.0000 -0.0099 -0.0007
                ( 39.32%)   0.6271* H  10 s( 99.91%)p 0.00(  0.09%)
                                           -0.9995  0.0023 -0.0240 -0.0025 -0.0181
    10. (1.98821) BD ( 1) C   6 - H  11  
                ( 60.95%)   0.7807* C   6 s( 23.47%)p 3.26( 76.50%)d 0.00(  0.03%)
                                           -0.0000 -0.4845 -0.0000  0.0000 -0.0000
                                            0.7165  0.0020 -0.5014  0.0134 -0.0000
                                           -0.0000  0.0145  0.0090  0.0006
                ( 39.05%)   0.6249* H  11 s( 99.91%)p 0.00(  0.09%)
                                           -0.9995  0.0009  0.0000 -0.0256  0.0166
    11. (1.99938) CR ( 1) C   1           s(100.00%)p 0.00(  0.00%)
                                            1.0000 -0.0003 -0.0000  0.0000 -0.0000
                                            0.0002 -0.0000 -0.0002 -0.0000  0.0000
                                           -0.0000  0.0000  0.0000  0.0000
    12. (1.99929) CR ( 1) C   5           s(100.00%)p 0.00(  0.00%)
                                            1.0000 -0.0002 -0.0000 -0.0000  0.0000
                                           -0.0000 -0.0000  0.0003 -0.0000  0.0000
                                           -0.0000 -0.0000  0.0000 -0.0000
    13. (1.99938) CR ( 1) C   6           s(100.00%)p 0.00(  0.00%)
                                            1.0000 -0.0003 -0.0000 -0.0000  0.0000
                                           -0.0002  0.0000 -0.0002 -0.0000  0.0000
                                            0.0000 -0.0000  0.0000  0.0000
    14. (0.00319) RY*( 1) C   1           s(  6.79%)p12.35( 83.82%)d 1.38(  9.39%)
                                           -0.0000  0.0103  0.2604  0.0000 -0.0000
                                           -0.0111 -0.7015 -0.0149 -0.5879 -0.0000
                                           -0.0000  0.1455 -0.1851 -0.1963
    15. (0.00153) RY*( 2) C   1           s(  0.00%)p 1.00( 68.36%)d 0.46( 31.64%)
                                            0.0000  0.0000 -0.0000  0.0140  0.8267
                                           -0.0000  0.0000 -0.0000  0.0000 -0.3825
                                            0.4124  0.0000  0.0000  0.0000
    16. (0.00028) RY*( 3) C   1           s( 39.28%)p 1.24( 48.60%)d 0.31( 12.12%)
                                            0.0000  0.0079  0.6267  0.0000 -0.0000
                                            0.0208 -0.3819 -0.0115  0.5828 -0.0000
                                           -0.0000 -0.2733  0.0383  0.2122
    17. (0.00015) RY*( 4) C   1           s( 22.76%)p 2.14( 48.77%)d 1.25( 28.47%)
                                            0.0000 -0.0116  0.4769  0.0000 -0.0000
                                            0.0033  0.4487  0.0036 -0.5351  0.0000
                                           -0.0000 -0.4423  0.0047  0.2984
    18. (0.00004) RY*( 5) C   1           s(  5.14%)p 0.20(  1.02%)d18.24( 93.83%)
    19. (0.00001) RY*( 6) C   1           s(  0.00%)p 1.00(  5.05%)d18.81( 94.95%)
    20. (0.00001) RY*( 7) C   1           s( 25.97%)p 0.67( 17.38%)d 2.18( 56.65%)
    21. (0.00000) RY*( 8) C   1           s(  0.08%)p 6.27(  0.48%)d99.99( 99.44%)
    22. (0.00000) RY*( 9) C   1           s(  0.00%)p 1.00( 26.63%)d 2.76( 73.37%)
    23. (0.00151) RY*( 1) H   2           s( 97.05%)p 0.03(  2.95%)
                                            0.0060  0.9851  0.0000  0.1579  0.0673
    24. (0.00024) RY*( 2) H   2           s(  0.00%)p 1.00(100.00%)
                                            0.0000  0.0000  1.0000  0.0000  0.0000
    25. (0.00014) RY*( 3) H   2           s(  0.01%)p99.99( 99.99%)
                                           -0.0067  0.0085 -0.0000  0.3470 -0.9378
    26. (0.00003) RY*( 4) H   2           s(  3.03%)p32.02( 96.97%)
    27. (0.00210) RY*( 1) H   3           s( 98.12%)p 0.02(  1.88%)
                                            0.0063  0.9905  0.0886  0.0261 -0.1012
    28. (0.00024) RY*( 2) H   3           s(  0.03%)p99.99( 99.97%)
                                            0.0002  0.0170  0.5150  0.4451  0.7324
    29. (0.00014) RY*( 3) H   3           s(  0.00%)p 1.00(100.00%)
                                            0.0063 -0.0027  0.4858 -0.8556  0.1784
    30. (0.00004) RY*( 4) H   3           s(  1.93%)p50.68( 98.07%)
    31. (0.00210) RY*( 1) H   4           s( 98.12%)p 0.02(  1.88%)
                                            0.0063  0.9905 -0.0886  0.0261 -0.1012
    32. (0.00024) RY*( 2) H   4           s(  0.03%)p99.99( 99.97%)
                                            0.0002  0.0170 -0.5150  0.4451  0.7324
    33. (0.00014) RY*( 3) H   4           s(  0.00%)p 1.00(100.00%)
                                            0.0063 -0.0027 -0.4858 -0.8556  0.1784
    34. (0.00004) RY*( 4) H   4           s(  1.93%)p50.68( 98.07%)
    35. (0.00272) RY*( 1) C   5           s(  0.00%)p 1.00( 82.72%)d 0.21( 17.28%)
                                           -0.0000 -0.0000 -0.0000  0.0279  0.9091
                                           -0.0000 -0.0000 -0.0000 -0.0000  0.0000
                                           -0.4157  0.0000  0.0000  0.0000
    36. (0.00142) RY*( 2) C   5           s( 12.93%)p 3.18( 41.17%)d 3.55( 45.90%)
                                            0.0000 -0.0124  0.3594  0.0000  0.0000
                                            0.0000 -0.0000  0.0217  0.6413  0.0000
                                           -0.0000 -0.0000 -0.4888 -0.4691
    37. (0.00105) RY*( 3) C   5           s(  0.00%)p 1.00( 82.47%)d 0.21( 17.53%)
                                            0.0000 -0.0000 -0.0000  0.0000 -0.0000
                                           -0.0089  0.9081  0.0000  0.0000  0.0000
                                           -0.0000  0.4186  0.0000 -0.0000
    38. (0.00043) RY*( 4) C   5           s(  0.00%)p 0.00(  0.00%)d 1.00(100.00%)
                                            0.0000  0.0000  0.0000  0.0000  0.0000
                                            0.0000  0.0000  0.0000  0.0000  1.0000
                                            0.0000  0.0000  0.0000  0.0000
    39. (0.00017) RY*( 5) C   5           s( 47.47%)p 0.94( 44.61%)d 0.17(  7.92%)
                                            0.0000  0.0081  0.6889 -0.0000  0.0000
                                           -0.0000 -0.0000  0.0195 -0.6676  0.0000
                                           -0.0000  0.0000 -0.2555 -0.1181
    40. (0.00017) RY*( 6) C   5           s(  0.00%)p 1.00( 17.58%)d 4.69( 82.42%)
                                           -0.0000  0.0000  0.0000  0.0000 -0.0000
                                            0.0302 -0.4182 -0.0000 -0.0000  0.0000
                                            0.0000  0.9078  0.0000  0.0000
    41. (0.00003) RY*( 7) C   5           s( 12.03%)p 0.67(  8.06%)d 6.64( 79.91%)
    42. (0.00000) RY*( 8) C   5           s( 27.55%)p 0.23(  6.24%)d 2.40( 66.21%)
    43. (0.00000) RY*( 9) C   5           s(  0.00%)p 1.00( 17.33%)d 4.77( 82.67%)
    44. (0.00319) RY*( 1) C   6           s(  6.79%)p12.35( 83.82%)d 1.38(  9.39%)
                                           -0.0000  0.0103  0.2604  0.0000 -0.0000
                                            0.0111  0.7015 -0.0149 -0.5879 -0.0000
                                           -0.0000 -0.1455 -0.1851 -0.1963
    45. (0.00153) RY*( 2) C   6           s(  0.00%)p 1.00( 68.36%)d 0.46( 31.64%)
                                           -0.0000 -0.0000 -0.0000  0.0140  0.8267
                                            0.0000 -0.0000 -0.0000  0.0000  0.3825
                                            0.4124  0.0000  0.0000 -0.0000
    46. (0.00028) RY*( 3) C   6           s( 39.28%)p 1.24( 48.60%)d 0.31( 12.12%)
                                            0.0000  0.0079  0.6267  0.0000 -0.0000
                                           -0.0208  0.3819 -0.0115  0.5828 -0.0000
                                           -0.0000  0.2733  0.0383  0.2122
    47. (0.00015) RY*( 4) C   6           s( 22.76%)p 2.14( 48.77%)d 1.25( 28.47%)
                                            0.0000 -0.0116  0.4769  0.0000  0.0000
                                           -0.0033 -0.4487  0.0036 -0.5351  0.0000
                                           -0.0000  0.4423  0.0047  0.2984
    48. (0.00004) RY*( 5) C   6           s(  5.14%)p 0.20(  1.02%)d18.24( 93.83%)
    49. (0.00001) RY*( 6) C   6           s(  0.00%)p 1.00(  5.05%)d18.81( 94.95%)
    50. (0.00001) RY*( 7) C   6           s( 25.97%)p 0.67( 17.38%)d 2.18( 56.65%)
    51. (0.00000) RY*( 8) C   6           s(  0.08%)p 6.27(  0.48%)d99.99( 99.44%)
    52. (0.00000) RY*( 9) C   6           s(  0.00%)p 1.00( 26.63%)d 2.76( 73.37%)
    53. (0.00294) RY*( 1) H   7           s( 99.19%)p 0.01(  0.81%)
                                            0.0068  0.9959  0.0676  0.0000  0.0590
    54. (0.00021) RY*( 2) H   7           s(  0.01%)p 1.00( 99.99%)
                                           -0.0033  0.0072 -0.7158 -0.0000  0.6983
    55. (0.00014) RY*( 3) H   7           s(  0.00%)p 1.00(100.00%)
                                            0.0000  0.0000  0.0000  1.0000  0.0000
    56. (0.00004) RY*( 4) H   7           s(  0.89%)p99.99( 99.11%)
    57. (0.00294) RY*( 1) H   8           s( 99.19%)p 0.01(  0.81%)
                                            0.0068  0.9959 -0.0676  0.0000  0.0590
    58. (0.00021) RY*( 2) H   8           s(  0.01%)p 1.00( 99.99%)
                                           -0.0033  0.0072  0.7158  0.0000  0.6983
    59. (0.00014) RY*( 3) H   8           s(  0.00%)p 1.00(100.00%)
                                            0.0000  0.0000  0.0000  1.0000  0.0000
    60. (0.00004) RY*( 4) H   8           s(  0.89%)p99.99( 99.11%)
    61. (0.00210) RY*( 1) H   9           s( 98.12%)p 0.02(  1.88%)
                                            0.0063  0.9905  0.0886 -0.0261 -0.1012
    62. (0.00024) RY*( 2) H   9           s(  0.03%)p99.99( 99.97%)
                                            0.0002  0.0170  0.5150 -0.4451  0.7324
    63. (0.00014) RY*( 3) H   9           s(  0.00%)p 1.00(100.00%)
                                            0.0063 -0.0027  0.4858  0.8556  0.1784
    64. (0.00004) RY*( 4) H   9           s(  1.93%)p50.68( 98.07%)
    65. (0.00210) RY*( 1) H  10           s( 98.12%)p 0.02(  1.88%)
                                            0.0063  0.9905 -0.0886 -0.0261 -0.1012
    66. (0.00024) RY*( 2) H  10           s(  0.03%)p99.99( 99.97%)
                                            0.0002  0.0170 -0.5150 -0.4451  0.7324
    67. (0.00014) RY*( 3) H  10           s(  0.00%)p 1.00(100.00%)
                                            0.0063 -0.0027 -0.4858  0.8556  0.1784
    68. (0.00004) RY*( 4) H  10           s(  1.93%)p50.68( 98.07%)
    69. (0.00151) RY*( 1) H  11           s( 97.05%)p 0.03(  2.95%)
                                            0.0060  0.9851  0.0000 -0.1579  0.0673
    70. (0.00024) RY*( 2) H  11           s(  0.00%)p 1.00(100.00%)
                                            0.0000  0.0000  1.0000  0.0000  0.0000
    71. (0.00014) RY*( 3) H  11           s(  0.01%)p99.99( 99.99%)
                                           -0.0067  0.0085 -0.0000 -0.3470 -0.9378
    72. (0.00003) RY*( 4) H  11           s(  3.03%)p32.02( 96.97%)
    73. (0.00573) BD*( 1) C   1 - H   2  
                ( 39.05%)   0.6249* C   1 s( 23.47%)p 3.26( 76.50%)d 0.00(  0.03%)
                                           -0.0000 -0.4845 -0.0000  0.0000 -0.0000
                                           -0.7165 -0.0020 -0.5014  0.0134  0.0000
                                           -0.0000 -0.0145  0.0090  0.0006
                ( 60.95%)  -0.7807* H   2 s( 99.91%)p 0.00(  0.09%)
                                           -0.9995  0.0009 -0.0000  0.0256  0.0166
    74. (0.00944) BD*( 1) C   1 - H   3  
                ( 39.32%)   0.6271* C   1 s( 23.24%)p 3.30( 76.72%)d 0.00(  0.03%)
                                           -0.0000 -0.4821  0.0044 -0.7069  0.0042
                                           -0.0349 -0.0161  0.5157  0.0037 -0.0013
                                            0.0145 -0.0000 -0.0099 -0.0007
                ( 60.68%)  -0.7790* H   3 s( 99.91%)p 0.00(  0.09%)
                                           -0.9995  0.0023  0.0240  0.0025 -0.0181
    75. (0.00944) BD*( 1) C   1 - H   4  
                ( 39.32%)   0.6271* C   1 s( 23.24%)p 3.30( 76.72%)d 0.00(  0.03%)
                                            0.0000  0.4821 -0.0044 -0.7069  0.0042
                                            0.0349  0.0161 -0.5157 -0.0037 -0.0013
                                            0.0145  0.0000  0.0099  0.0007
                ( 60.68%)  -0.7790* H   4 s( 99.91%)p 0.00(  0.09%)
                                            0.9995 -0.0023  0.0240 -0.0025  0.0181
    76. (0.00901) BD*( 1) C   1 - C   5  
                ( 50.09%)   0.7078* C   1 s( 30.02%)p 2.33( 69.94%)d 0.00(  0.04%)
                                            0.0004  0.5478  0.0104 -0.0000 -0.0000
                                           -0.6952  0.0037  0.4647  0.0116 -0.0000
                                           -0.0000 -0.0157 -0.0124 -0.0013
                ( 49.91%)  -0.7064* C   5 s( 27.94%)p 2.58( 72.02%)d 0.00(  0.04%)
                                            0.0003  0.5285  0.0119 -0.0000  0.0000
                                            0.7068  0.0146 -0.4694  0.0098  0.0000
                                           -0.0000 -0.0168 -0.0128  0.0003
    77. (0.00901) BD*( 1) C   5 - C   6  
                ( 49.91%)   0.7064* C   5 s( 27.94%)p 2.58( 72.02%)d 0.00(  0.04%)
                                           -0.0003 -0.5285 -0.0119  0.0000 -0.0000
                                            0.7068  0.0146  0.4694 -0.0098 -0.0000
                                            0.0000 -0.0168  0.0128 -0.0003
                ( 50.09%)  -0.7078* C   6 s( 30.02%)p 2.33( 69.94%)d 0.00(  0.04%)
                                           -0.0004 -0.5478 -0.0104 -0.0000 -0.0000
                                           -0.6952  0.0037 -0.4647 -0.0116  0.0000
                                            0.0000 -0.0157  0.0124  0.0013
    78. (0.01700) BD*( 1) C   5 - H   7  
                ( 39.21%)   0.6262* C   5 s( 22.07%)p 3.53( 77.89%)d 0.00(  0.03%)
                                            0.0001 -0.4697  0.0107 -0.7068  0.0148
                                           -0.0000 -0.0000 -0.5283 -0.0058 -0.0000
                                           -0.0150 -0.0000 -0.0107 -0.0006
                ( 60.79%)  -0.7797* H   7 s( 99.90%)p 0.00(  0.10%)
                                           -0.9995  0.0041  0.0238 -0.0000  0.0197
    79. (0.01700) BD*( 1) C   5 - H   8  
                ( 39.21%)   0.6262* C   5 s( 22.07%)p 3.53( 77.89%)d 0.00(  0.03%)
                                           -0.0001  0.4697 -0.0107 -0.7068  0.0148
                                            0.0000  0.0000  0.5283  0.0058 -0.0000
                                           -0.0150  0.0000  0.0107  0.0006
                ( 60.79%)  -0.7797* H   8 s( 99.90%)p 0.00(  0.10%)
                                            0.9995 -0.0041  0.0238 -0.0000 -0.0197
    80. (0.00944) BD*( 1) C   6 - H   9  
                ( 39.32%)   0.6271* C   6 s( 23.24%)p 3.30( 76.72%)d 0.00(  0.03%)
                                           -0.0000 -0.4821  0.0044 -0.7069  0.0042
                                            0.0349  0.0161  0.5157  0.0037  0.0013
                                            0.0145  0.0000 -0.0099 -0.0007
                ( 60.68%)  -0.7790* H   9 s( 99.91%)p 0.00(  0.09%)
                                           -0.9995  0.0023  0.0240 -0.0025 -0.0181
    81. (0.00944) BD*( 1) C   6 - H  10  
                ( 39.32%)   0.6271* C   6 s( 23.24%)p 3.30( 76.72%)d 0.00(  0.03%)
                                            0.0000  0.4821 -0.0044 -0.7069  0.0042
                                           -0.0349 -0.0161 -0.5157 -0.0037  0.0013
                                            0.0145 -0.0000  0.0099  0.0007
                ( 60.68%)  -0.7790* H  10 s( 99.91%)p 0.00(  0.09%)
                                            0.9995 -0.0023  0.0240  0.0025  0.0181
    82. (0.00573) BD*( 1) C   6 - H  11  
                ( 39.05%)   0.6249* C   6 s( 23.47%)p 3.26( 76.50%)d 0.00(  0.03%)
                                            0.0000  0.4845  0.0000 -0.0000  0.0000
                                           -0.7165 -0.0020  0.5014 -0.0134  0.0000
                                            0.0000 -0.0145 -0.0090 -0.0006
                ( 60.95%)  -0.7807* H  11 s( 99.91%)p 0.00(  0.09%)
                                            0.9995 -0.0009 -0.0000  0.0256 -0.0166


 NHO Directionality and "Bond Bending" (deviations from line of nuclear centers)

         [Thresholds for printing:  angular deviation  >  1.0 degree]
                                    hybrid p-character > 25.0%
                                    orbital occupancy  >  0.10e

                                Line of Centers        Hybrid 1              Hybrid 2
                                ---------------  -------------------   ------------------
                NBO               Theta   Phi    Theta   Phi    Dev    Theta   Phi    Dev
 ========================================================================================
     4. BD (   1) C   1 - C   5    56.5  270.0    55.4  270.0   1.1      --     --    --
     5. BD (   1) C   5 - C   6   123.5  270.0     --     --    --      55.4   90.0   1.1


 Second Order Perturbation Theory Analysis of Fock Matrix in NBO Basis

     Threshold for printing:   0.50 kcal/mol
                                                                              E(2)  E(j)-E(i) F(i,j)
         Donor NBO (i)                     Acceptor NBO (j)                 kcal/mol   a.u.    a.u. 
 ===================================================================================================

 within unit  1
   1. BD (   1) C   1 - H   2        / 36. RY*(   2) C   5                    0.53    1.66    0.027
   1. BD (   1) C   1 - H   2        / 77. BD*(   1) C   5 - C   6            3.72    0.89    0.051
   2. BD (   1) C   1 - H   3        / 79. BD*(   1) C   5 - H   8            3.29    0.94    0.050
   3. BD (   1) C   1 - H   4        / 78. BD*(   1) C   5 - H   7            3.29    0.94    0.050
   4. BD (   1) C   1 - C   5        / 44. RY*(   1) C   6                    1.29    1.38    0.038
   4. BD (   1) C   1 - C   5        / 77. BD*(   1) C   5 - C   6            0.63    1.00    0.022
   4. BD (   1) C   1 - C   5        / 82. BD*(   1) C   6 - H  11            2.06    1.05    0.042
   5. BD (   1) C   5 - C   6        / 14. RY*(   1) C   1                    1.29    1.38    0.038
   5. BD (   1) C   5 - C   6        / 73. BD*(   1) C   1 - H   2            2.06    1.05    0.042
   5. BD (   1) C   5 - C   6        / 76. BD*(   1) C   1 - C   5            0.63    1.00    0.022
   6. BD (   1) C   5 - H   7        / 75. BD*(   1) C   1 - H   4            3.57    0.92    0.051
   6. BD (   1) C   5 - H   7        / 81. BD*(   1) C   6 - H  10            3.57    0.92    0.051
   7. BD (   1) C   5 - H   8        / 74. BD*(   1) C   1 - H   3            3.57    0.92    0.051
   7. BD (   1) C   5 - H   8        / 80. BD*(   1) C   6 - H   9            3.57    0.92    0.051
   8. BD (   1) C   6 - H   9        / 79. BD*(   1) C   5 - H   8            3.29    0.94    0.050
   9. BD (   1) C   6 - H  10        / 78. BD*(   1) C   5 - H   7            3.29    0.94    0.050
  10. BD (   1) C   6 - H  11        / 36. RY*(   2) C   5                    0.53    1.66    0.027
  10. BD (   1) C   6 - H  11        / 76. BD*(   1) C   1 - C   5            3.72    0.89    0.051
  11. CR (   1) C   1                / 37. RY*(   3) C   5                    0.73   10.80    0.079
  11. CR (   1) C   1                / 39. RY*(   5) C   5                    0.58   11.02    0.072
  12. CR (   1) C   5                / 16. RY*(   3) C   1                    1.01   10.97    0.094
  12. CR (   1) C   5                / 46. RY*(   3) C   6                    1.01   10.97    0.094
  13. CR (   1) C   6                / 37. RY*(   3) C   5                    0.73   10.80    0.079
  13. CR (   1) C   6                / 39. RY*(   5) C   5                    0.58   11.02    0.072


 Natural Bond Orbitals (Summary):

                                                            Principal Delocalizations
           NBO                        Occupancy    Energy   (geminal,vicinal,remote)
 ====================================================================================
 Molecular unit  1  (C3H8)
     1. BD (   1) C   1 - H   2          1.98821    -0.47900  77(v),36(v)
     2. BD (   1) C   1 - H   3          1.98880    -0.47832  79(v)
     3. BD (   1) C   1 - H   4          1.98880    -0.47832  78(v)
     4. BD (   1) C   1 - C   5          1.98907    -0.58983  82(v),44(v),77(g)
     5. BD (   1) C   5 - C   6          1.98907    -0.58983  73(v),14(v),76(g)
     6. BD (   1) C   5 - H   7          1.97700    -0.46926  75(v),81(v)
     7. BD (   1) C   5 - H   8          1.97700    -0.46926  74(v),80(v)
     8. BD (   1) C   6 - H   9          1.98880    -0.47832  79(v)
     9. BD (   1) C   6 - H  10          1.98880    -0.47832  78(v)
    10. BD (   1) C   6 - H  11          1.98821    -0.47900  76(v),36(v)
    11. CR (   1) C   1                  1.99938   -10.05387  37(v),39(v)
    12. CR (   1) C   5                  1.99929   -10.05641  16(v),46(v)
    13. CR (   1) C   6                  1.99938   -10.05387  37(v),39(v)
    14. RY*(   1) C   1                  0.00319     0.78920   
    15. RY*(   2) C   1                  0.00153     0.95968   
    16. RY*(   3) C   1                  0.00028     0.91561   
    17. RY*(   4) C   1                  0.00015     0.99760   
    18. RY*(   5) C   1                  0.00004     1.77280   
    19. RY*(   6) C   1                  0.00001     1.78236   
    20. RY*(   7) C   1                  0.00001     1.41841   
    21. RY*(   8) C   1                  0.00000     1.82155   
    22. RY*(   9) C   1                  0.00000     1.44161   
    23. RY*(   1) H   2                  0.00151     0.47738   
    24. RY*(   2) H   2                  0.00024     1.68241   
    25. RY*(   3) H   2                  0.00014     1.67102   
    26. RY*(   4) H   2                  0.00003     2.05406   
    27. RY*(   1) H   3                  0.00210     0.45446   
    28. RY*(   2) H   3                  0.00024     1.68726   
    29. RY*(   3) H   3                  0.00014     1.67629   
    30. RY*(   4) H   3                  0.00004     2.08276   
    31. RY*(   1) H   4                  0.00210     0.45446   
    32. RY*(   2) H   4                  0.00024     1.68726   
    33. RY*(   3) H   4                  0.00014     1.67629   
    34. RY*(   4) H   4                  0.00004     2.08276   
    35. RY*(   1) C   5                  0.00272     0.95150   
    36. RY*(   2) C   5                  0.00142     1.18365   
    37. RY*(   3) C   5                  0.00105     0.75015   
    38. RY*(   4) C   5                  0.00043     1.65563   
    39. RY*(   5) C   5                  0.00017     0.96481   
    40. RY*(   6) C   5                  0.00017     1.59618   
    41. RY*(   7) C   5                  0.00003     1.52929   
    42. RY*(   8) C   5                  0.00000     1.69186   
    43. RY*(   9) C   5                  0.00000     1.74080   
    44. RY*(   1) C   6                  0.00319     0.78920   
    45. RY*(   2) C   6                  0.00153     0.95968   
    46. RY*(   3) C   6                  0.00028     0.91561   
    47. RY*(   4) C   6                  0.00015     0.99760   
    48. RY*(   5) C   6                  0.00004     1.77280   
    49. RY*(   6) C   6                  0.00001     1.78236   
    50. RY*(   7) C   6                  0.00001     1.41841   
    51. RY*(   8) C   6                  0.00000     1.82155   
    52. RY*(   9) C   6                  0.00000     1.44161   
    53. RY*(   1) H   7                  0.00294     0.42537   
    54. RY*(   2) H   7                  0.00021     1.70588   
    55. RY*(   3) H   7                  0.00014     1.67587   
    56. RY*(   4) H   7                  0.00004     2.13262   
    57. RY*(   1) H   8                  0.00294     0.42537   
    58. RY*(   2) H   8                  0.00021     1.70588   
    59. RY*(   3) H   8                  0.00014     1.67587   
    60. RY*(   4) H   8                  0.00004     2.13262   
    61. RY*(   1) H   9                  0.00210     0.45446   
    62. RY*(   2) H   9                  0.00024     1.68726   
    63. RY*(   3) H   9                  0.00014     1.67629   
    64. RY*(   4) H   9                  0.00004     2.08276   
    65. RY*(   1) H  10                  0.00210     0.45446   
    66. RY*(   2) H  10                  0.00024     1.68726   
    67. RY*(   3) H  10                  0.00014     1.67629   
    68. RY*(   4) H  10                  0.00004     2.08276   
    69. RY*(   1) H  11                  0.00151     0.47738   
    70. RY*(   2) H  11                  0.00024     1.68241   
    71. RY*(   3) H  11                  0.00014     1.67102   
    72. RY*(   4) H  11                  0.00003     2.05406   
    73. BD*(   1) C   1 - H   2          0.00573     0.45665   
    74. BD*(   1) C   1 - H   3          0.00944     0.44937   
    75. BD*(   1) C   1 - H   4          0.00944     0.44937   
    76. BD*(   1) C   1 - C   5          0.00901     0.40631   
    77. BD*(   1) C   5 - C   6          0.00901     0.40631   
    78. BD*(   1) C   5 - H   7          0.01700     0.45716   
    79. BD*(   1) C   5 - H   8          0.01700     0.45716   
    80. BD*(   1) C   6 - H   9          0.00944     0.44937   
    81. BD*(   1) C   6 - H  10          0.00944     0.44937   
    82. BD*(   1) C   6 - H  11          0.00573     0.45665   
       -------------------------------
              Total Lewis   25.86179  ( 99.4684%)
        Valence non-Lewis    0.10125  (  0.3894%)
        Rydberg non-Lewis    0.03696  (  0.1422%)
       -------------------------------
            Total unit  1   26.00000  (100.0000%)
           Charge unit  1    0.00000
 Unable to Open any file for archive entry.
 1\1\GINC-LOCALHOST\FOpt\RB3LYP\CC-pVDZ\C3H8\USER\21-Mar-2026\0\\# opt 
 freq b3lyp/cc-pvdz pop=nbo geom=connectivity\\Propane-dft-cc-pvdz\\0,1
 \C,-0.8667083427,-0.0398099574,-0.7155621649\H,-0.9945020495,0.1913084
 936,0.3549012957\H,-0.1104670578,0.6557296667,-1.119379442\H,-1.822181
 8209,0.1830506987,-1.2216730257\C,-0.4513048947,-1.4968364124,-0.93401
 62716\C,-0.2650163209,-1.8517277782,-2.4113642326\H,0.4878901872,-1.69
 71846078,-0.3867114469\H,-1.2097483565,-2.1659765188,-0.4881638234\H,0
 .5134519282,-1.2231217863,-2.8778257368\H,-1.1982628349,-1.6958007543,
 -2.9801193206\H,0.0336645109,-2.904882325,-2.5428718436\\Version=ES64L
 -G16RevC.02\State=1-A1\HF=-119.1440724\RMSD=4.165e-09\RMSF=5.937e-05\D
 ipole=0.0035138,-0.016903,0.0193072\Quadrupole=0.2243296,-0.1097978,-0
 .1145318,0.107226,0.0497443,-0.0997543\PG=C02V [C2(C1),SGV(C2H2),SGV'(
 H2),X(H4)]\\@
 The archive entry for this job was punched.


 WE HAVE LEARNED THAT NOTHING IS SIMPLE AND
 RATIONAL EXCEPT WHAT WE OURSELVES HAVE INVENTED;
 THAT GOD THINKS IN TERMS NEITHER OF EUCLID OR RIEMANN; THAT SCIENCE HAS "EXPLAINED" NOTHING;
 THAT THE MORE WE KNOW THE MORE FANTASTIC THE WORLD BECOMES
 AND THE PROFOUNDER THE SURROUNDING DARKNESS.
   --  ALDOUS HUXLEY
 Job cpu time:       0 days  0 hours  1 minutes 39.2 seconds.
 Elapsed time:       0 days  0 hours  0 minutes  5.9 seconds.
 File lengths (MBytes):  RWF=     10 Int=      0 D2E=      0 Chk=      2 Scr=      1
 Normal termination of Gaussian 16 at Sat Mar 21 10:17:12 2026.
 Link1:  Proceeding to internal job step number  2.
 -------------------------------------------------------------------
 #N Geom=AllCheck Guess=TCheck SCRF=Check GenChk RB3LYP/CC-pVDZ Freq
 -------------------------------------------------------------------
 1/10=4,29=7,30=1,38=1,40=1/1,3;
 2/12=2,40=1/2;
 3/5=16,11=2,14=-4,25=1,30=1,70=2,71=2,74=-5,116=1,140=1/1,2,3;
 4/5=101/1;
 5/5=2,38=6,98=1/2;
 8/6=4,10=90,11=11/1;
 11/6=1,8=1,9=11,15=111,16=1/1,2,10;
 10/6=1/2;
 6/7=2,8=2,9=2,10=2,28=1,40=1/1,7;
 7/8=1,10=1,25=1/1,2,3,16;
 1/10=4,30=1/3;
 99//99;
 Structure from the checkpoint file:  "Propane-DFT-ccpvdz.chk"
 -------------------
 Propane-dft-cc-pvdz
 -------------------
 Charge =  0 Multiplicity = 1
 Redundant internal coordinates found in file.  (old form).
 C,0,-0.8667083427,-0.0398099574,-0.7155621649
 H,0,-0.9945020495,0.1913084936,0.3549012957
 H,0,-0.1104670578,0.6557296667,-1.119379442
 H,0,-1.8221818209,0.1830506987,-1.2216730257
 C,0,-0.4513048947,-1.4968364124,-0.9340162716
 C,0,-0.2650163209,-1.8517277782,-2.4113642326
 H,0,0.4878901872,-1.6971846078,-0.3867114469
 H,0,-1.2097483565,-2.1659765188,-0.4881638234
 H,0,0.5134519282,-1.2231217863,-2.8778257368
 H,0,-1.1982628349,-1.6958007543,-2.9801193206
 H,0,0.0336645109,-2.904882325,-2.5428718436
 Recover connectivity data from disk.

 GradGradGradGradGradGradGradGradGradGradGradGradGradGradGradGradGradGrad
 Berny optimization.
 Initialization pass.
                           ----------------------------
                           !    Initial Parameters    !
                           ! (Angstroms and Degrees)  !
 --------------------------                            --------------------------
 ! Name  Definition              Value          Derivative Info.                !
 --------------------------------------------------------------------------------
 ! R1    R(1,2)                  1.1026         calculate D2E/DX2 analytically  !
 ! R2    R(1,3)                  1.104          calculate D2E/DX2 analytically  !
 ! R3    R(1,4)                  1.104          calculate D2E/DX2 analytically  !
 ! R4    R(1,5)                  1.5308         calculate D2E/DX2 analytically  !
 ! R5    R(5,6)                  1.5308         calculate D2E/DX2 analytically  !
 ! R6    R(5,7)                  1.1053         calculate D2E/DX2 analytically  !
 ! R7    R(5,8)                  1.1053         calculate D2E/DX2 analytically  !
 ! R8    R(6,9)                  1.104          calculate D2E/DX2 analytically  !
 ! R9    R(6,10)                 1.104          calculate D2E/DX2 analytically  !
 ! R10   R(6,11)                 1.1026         calculate D2E/DX2 analytically  !
 ! A1    A(2,1,3)              107.606          calculate D2E/DX2 analytically  !
 ! A2    A(2,1,4)              107.606          calculate D2E/DX2 analytically  !
 ! A3    A(2,1,5)              111.6868         calculate D2E/DX2 analytically  !
 ! A4    A(3,1,4)              107.3374         calculate D2E/DX2 analytically  !
 ! A5    A(3,1,5)              111.1981         calculate D2E/DX2 analytically  !
 ! A6    A(4,1,5)              111.1981         calculate D2E/DX2 analytically  !
 ! A7    A(1,5,6)              113.0436         calculate D2E/DX2 analytically  !
 ! A8    A(1,5,7)              109.4172         calculate D2E/DX2 analytically  !
 ! A9    A(1,5,8)              109.4172         calculate D2E/DX2 analytically  !
 ! A10   A(6,5,7)              109.4172         calculate D2E/DX2 analytically  !
 ! A11   A(6,5,8)              109.4172         calculate D2E/DX2 analytically  !
 ! A12   A(7,5,8)              105.8772         calculate D2E/DX2 analytically  !
 ! A13   A(5,6,9)              111.1981         calculate D2E/DX2 analytically  !
 ! A14   A(5,6,10)             111.1981         calculate D2E/DX2 analytically  !
 ! A15   A(5,6,11)             111.6868         calculate D2E/DX2 analytically  !
 ! A16   A(9,6,10)             107.3374         calculate D2E/DX2 analytically  !
 ! A17   A(9,6,11)             107.606          calculate D2E/DX2 analytically  !
 ! A18   A(10,6,11)            107.606          calculate D2E/DX2 analytically  !
 ! D1    D(2,1,5,6)            180.0            calculate D2E/DX2 analytically  !
 ! D2    D(2,1,5,7)            -57.7916         calculate D2E/DX2 analytically  !
 ! D3    D(2,1,5,8)             57.7916         calculate D2E/DX2 analytically  !
 ! D4    D(3,1,5,6)            -59.7769         calculate D2E/DX2 analytically  !
 ! D5    D(3,1,5,7)             62.4315         calculate D2E/DX2 analytically  !
 ! D6    D(3,1,5,8)            178.0147         calculate D2E/DX2 analytically  !
 ! D7    D(4,1,5,6)             59.7769         calculate D2E/DX2 analytically  !
 ! D8    D(4,1,5,7)           -178.0147         calculate D2E/DX2 analytically  !
 ! D9    D(4,1,5,8)            -62.4315         calculate D2E/DX2 analytically  !
 ! D10   D(1,5,6,9)             59.7769         calculate D2E/DX2 analytically  !
 ! D11   D(1,5,6,10)           -59.7769         calculate D2E/DX2 analytically  !
 ! D12   D(1,5,6,11)           180.0            calculate D2E/DX2 analytically  !
 ! D13   D(7,5,6,9)            -62.4315         calculate D2E/DX2 analytically  !
 ! D14   D(7,5,6,10)           178.0147         calculate D2E/DX2 analytically  !
 ! D15   D(7,5,6,11)            57.7916         calculate D2E/DX2 analytically  !
 ! D16   D(8,5,6,9)           -178.0147         calculate D2E/DX2 analytically  !
 ! D17   D(8,5,6,10)            62.4315         calculate D2E/DX2 analytically  !
 ! D18   D(8,5,6,11)           -57.7916         calculate D2E/DX2 analytically  !
 --------------------------------------------------------------------------------
 Trust Radius=3.00D-01 FncErr=1.00D-07 GrdErr=1.00D-07 EigMax=2.50D+02 EigMin=1.00D-04
 Number of steps in this run=      2 maximum allowed number of steps=      2.
 GradGradGradGradGradGradGradGradGradGradGradGradGradGradGradGradGradGrad

                          Input orientation:                          
 ---------------------------------------------------------------------
 Center     Atomic      Atomic             Coordinates (Angstroms)
 Number     Number       Type             X           Y           Z
 ---------------------------------------------------------------------
      1          6           0       -0.866708   -0.039810   -0.715562
      2          1           0       -0.994502    0.191308    0.354901
      3          1           0       -0.110467    0.655730   -1.119379
      4          1           0       -1.822182    0.183051   -1.221673
      5          6           0       -0.451305   -1.496836   -0.934016
      6          6           0       -0.265016   -1.851728   -2.411364
      7          1           0        0.487890   -1.697185   -0.386711
      8          1           0       -1.209748   -2.165977   -0.488164
      9          1           0        0.513452   -1.223122   -2.877826
     10          1           0       -1.198263   -1.695801   -2.980119
     11          1           0        0.033665   -2.904882   -2.542872
 ---------------------------------------------------------------------
                    Distance matrix (angstroms):
                    1          2          3          4          5
     1  C    0.000000
     2  H    1.102560   0.000000
     3  H    1.103968   1.780648   0.000000
     4  H    1.103968   1.780648   1.778723   0.000000
     5  C    1.530754   2.192306   2.187252   2.187252   0.000000
     6  C    2.553590   3.515448   2.824970   2.824970   1.530754
     7  H    2.165634   2.512744   2.535949   3.093360   1.105337
     8  H    2.165634   2.512744   3.093360   2.535949   1.105337
     9  H    2.824970   3.837325   2.647922   3.189882   2.187252
    10  H    2.824970   3.837325   3.189882   2.647922   2.187252
    11  H    3.515448   4.363555   3.837325   3.837325   2.192306
                    6          7          8          9         10
     6  C    0.000000
     7  H    2.165634   0.000000
     8  H    2.165634   1.764096   0.000000
     9  H    1.103968   2.535949   3.093360   0.000000
    10  H    1.103968   3.093360   2.535949   1.778723   0.000000
    11  H    1.102560   2.512744   2.512744   1.780648   1.780648
                   11
    11  H    0.000000
 Stoichiometry    C3H8
 Framework group  C2V[C2(C),SGV(C2H2),SGV'(H2),X(H4)]
 Deg. of freedom     9
 Full point group                 C2V     NOp   4
 Largest Abelian subgroup         C2V     NOp   4
 Largest concise Abelian subgroup C2V     NOp   4
                         Standard orientation:                         
 ---------------------------------------------------------------------
 Center     Atomic      Atomic             Coordinates (Angstroms)
 Number     Number       Type             X           Y           Z
 ---------------------------------------------------------------------
      1          6           0       -0.000000    1.276795   -0.259141
      2          1           0       -0.000000    2.181778    0.370657
      3          1           0        0.889362    1.323961   -0.911488
      4          1           0       -0.889362    1.323961   -0.911488
      5          6           0       -0.000000   -0.000000    0.585253
      6          6           0       -0.000000   -1.276795   -0.259141
      7          1           0        0.882048   -0.000000    1.251407
      8          1           0       -0.882048    0.000000    1.251407
      9          1           0        0.889362   -1.323961   -0.911488
     10          1           0       -0.889362   -1.323961   -0.911488
     11          1           0       -0.000000   -2.181778    0.370657
 ---------------------------------------------------------------------
 Rotational constants (GHZ):          29.2839688           8.3474513           7.4007901
 Standard basis: CC-pVDZ (5D, 7F)
 There are    32 symmetry adapted cartesian basis functions of A1  symmetry.
 There are    12 symmetry adapted cartesian basis functions of A2  symmetry.
 There are    17 symmetry adapted cartesian basis functions of B1  symmetry.
 There are    24 symmetry adapted cartesian basis functions of B2  symmetry.
 There are    30 symmetry adapted basis functions of A1  symmetry.
 There are    12 symmetry adapted basis functions of A2  symmetry.
 There are    17 symmetry adapted basis functions of B1  symmetry.
 There are    23 symmetry adapted basis functions of B2  symmetry.
    82 basis functions,   155 primitive gaussians,    85 cartesian basis functions
    13 alpha electrons       13 beta electrons
       nuclear repulsion energy        82.0779837483 Hartrees.
 NAtoms=   11 NActive=   11 NUniq=    5 SFac= 4.00D+00 NAtFMM=   60 NAOKFM=F Big=F
 Integral buffers will be    131072 words long.
 Raffenetti 2 integral format.
 Two-electron integral symmetry is turned on.
 One-electron integrals computed using PRISM.
 NBasis=    82 RedAO= T EigKep=  5.85D-03  NBF=    30    12    17    23
 NBsUse=    82 1.00D-06 EigRej= -1.00D+00 NBFU=    30    12    17    23
 Initial guess from the checkpoint file:  "Propane-DFT-ccpvdz.chk"
 B after Tr=    -0.000000    0.000000    0.000000
         Rot=    1.000000    0.000000    0.000000    0.000000 Ang=   0.00 deg.
 Initial guess orbital symmetries:
       Occupied  (A1) (B2) (A1) (A1) (B2) (A1) (B1) (A1) (B2) (A2)
                 (B2) (A1) (B1)
       Virtual   (A1) (B2) (B1) (A1) (A1) (B1) (B2) (A2) (A1) (B2)
                 (A1) (B1) (B2) (A2) (A1) (B2) (A1) (B1) (B2) (B1)
                 (B2) (A1) (A2) (B1) (A1) (A1) (B2) (A1) (A2) (A1)
                 (B2) (A2) (B1) (B2) (A1) (B1) (A2) (A1) (A1) (B2)
                 (B1) (A2) (B2) (B1) (A1) (B2) (B1) (A2) (A1) (B1)
                 (B2) (A1) (B2) (A2) (A1) (B2) (A1) (B1) (A1) (A2)
                 (B2) (A1) (B1) (B2) (B2) (A1) (A1) (A2) (B1)
 Keep R1 ints in memory in symmetry-blocked form, NReq=27645467.
 Requested convergence on RMS density matrix=1.00D-08 within 128 cycles.
 Requested convergence on MAX density matrix=1.00D-06.
 Requested convergence on             energy=1.00D-06.
 No special actions if energy rises.
 SCF Done:  E(RB3LYP) =  -119.144072449     A.U. after    1 cycles
            NFock=  1  Conv=0.96D-09     -V/T= 2.0097
 DoSCS=F DFT=T ScalE2(SS,OS)=  1.000000  1.000000
 Range of M.O.s used for correlation:     1    82
 NBasis=    82 NAE=    13 NBE=    13 NFC=     0 NFV=     0
 NROrb=     82 NOA=    13 NOB=    13 NVA=    69 NVB=    69
 Symmetrizing basis deriv contribution to polar:
 IMax=3 JMax=2 DiffMx= 0.00D+00
 G2DrvN: will do    12 centers at a time, making    1 passes.
 Calling FoFCou, ICntrl=  3107 FMM=F I1Cent=   0 AccDes= 0.00D+00.
 End of G2Drv F.D. properties file   721 does not exist.
 End of G2Drv F.D. properties file   722 does not exist.
 End of G2Drv F.D. properties file   788 does not exist.
          IDoAtm=11111111111
          Differentiating once with respect to electric field.
                with respect to dipole field.
          Differentiating once with respect to nuclear coordinates.
 Keep R1 ints in memory in symmetry-blocked form, NReq=27572036.
          There are    18 degrees of freedom in the 1st order CPHF.  IDoFFX=4 NUNeed=    18.
     18 vectors produced by pass  0 Test12= 4.98D-15 5.56D-09 XBig12= 2.04D+01 2.24D+00.
 AX will form    18 AO Fock derivatives at one time.
     18 vectors produced by pass  1 Test12= 4.98D-15 5.56D-09 XBig12= 1.07D+00 2.65D-01.
     18 vectors produced by pass  2 Test12= 4.98D-15 5.56D-09 XBig12= 1.86D-02 3.97D-02.
     18 vectors produced by pass  3 Test12= 4.98D-15 5.56D-09 XBig12= 1.23D-04 1.96D-03.
     18 vectors produced by pass  4 Test12= 4.98D-15 5.56D-09 XBig12= 2.20D-07 8.61D-05.
     12 vectors produced by pass  5 Test12= 4.98D-15 5.56D-09 XBig12= 1.89D-10 2.50D-06.
      3 vectors produced by pass  6 Test12= 4.98D-15 5.56D-09 XBig12= 1.46D-13 5.90D-08.
 InvSVY:  IOpt=1 It=  1 EMax= 2.66D-15
 Solved reduced A of dimension   105 with    18 vectors.
 Isotropic polarizability for W=    0.000000       36.16 Bohr**3.
 End of Minotr F.D. properties file   721 does not exist.
 End of Minotr F.D. properties file   722 does not exist.
 End of Minotr F.D. properties file   788 does not exist.

 **********************************************************************

            Population analysis using the SCF Density.

 **********************************************************************

 Orbital symmetries:
       Occupied  (A1) (B2) (A1) (A1) (B2) (A1) (B1) (A1) (B2) (A2)
                 (B2) (A1) (B1)
       Virtual   (A1) (B2) (B1) (A1) (A1) (B1) (B2) (A2) (A1) (B2)
                 (A1) (B1) (B2) (A2) (A1) (B2) (A1) (B1) (B2) (B1)
                 (B2) (A1) (A2) (B1) (A1) (A1) (B2) (A1) (A2) (A1)
                 (B2) (A2) (B1) (B2) (A1) (B1) (A2) (A1) (A1) (B2)
                 (B1) (A2) (B2) (B1) (A1) (B2) (B1) (A2) (A1) (B1)
                 (B2) (A1) (B2) (A2) (A1) (B2) (A1) (B1) (A1) (A2)
                 (B2) (A1) (B1) (B2) (B2) (A1) (A1) (A2) (B1)
 The electronic state is 1-A1.
 Alpha  occ. eigenvalues --  -10.18282 -10.17603 -10.17600  -0.77711  -0.67717
 Alpha  occ. eigenvalues --   -0.58065  -0.45204  -0.43260  -0.39505  -0.37645
 Alpha  occ. eigenvalues --   -0.33657  -0.33437  -0.32441
 Alpha virt. eigenvalues --    0.06053   0.10445   0.10714   0.10739   0.13427
 Alpha virt. eigenvalues --    0.15514   0.15818   0.16568   0.21206   0.25414
 Alpha virt. eigenvalues --    0.39174   0.41128   0.43109   0.43804   0.45392
 Alpha virt. eigenvalues --    0.59474   0.59511   0.61039   0.61868   0.65576
 Alpha virt. eigenvalues --    0.65660   0.65904   0.66231   0.66851   0.67694
 Alpha virt. eigenvalues --    0.70686   0.73889   0.89709   0.89842   0.97766
 Alpha virt. eigenvalues --    1.11968   1.21108   1.21861   1.27178   1.35086
 Alpha virt. eigenvalues --    1.42375   1.42797   1.43807   1.57217   1.58692
 Alpha virt. eigenvalues --    1.60101   1.62563   1.65123   1.65697   1.67682
 Alpha virt. eigenvalues --    1.68579   1.68869   1.69202   1.69500   1.75182
 Alpha virt. eigenvalues --    1.82941   1.84115   1.99689   2.00981   2.03286
 Alpha virt. eigenvalues --    2.04999   2.16904   2.18829   2.25787   2.27383
 Alpha virt. eigenvalues --    2.27471   2.38821   2.40962   2.41263   2.45662
 Alpha virt. eigenvalues --    2.54898   2.62502   2.63196   2.67440
          Condensed to atoms (all electrons):
               1          2          3          4          5          6
     1  C    4.517624   0.378545   0.389229   0.389229   0.453902  -0.048595
     2  H    0.378545   0.686286  -0.030170  -0.030170  -0.013472   0.005999
     3  H    0.389229  -0.030170   0.682970  -0.032670  -0.026388  -0.004834
     4  H    0.389229  -0.030170  -0.032670   0.682970  -0.026388  -0.004834
     5  C    0.453902  -0.013472  -0.026388  -0.026388   4.536436   0.453902
     6  C   -0.048595   0.005999  -0.004834  -0.004834   0.453902   4.517624
     7  H   -0.026435  -0.004879  -0.008812   0.009038   0.375074  -0.026435
     8  H   -0.026435  -0.004879   0.009038  -0.008812   0.375074  -0.026435
     9  H   -0.004834   0.000071   0.006658  -0.001496  -0.026388   0.389229
    10  H   -0.004834   0.000071  -0.001496   0.006658  -0.026388   0.389229
    11  H    0.005999  -0.000486   0.000071   0.000071  -0.013472   0.378545
               7          8          9         10         11
     1  C   -0.026435  -0.026435  -0.004834  -0.004834   0.005999
     2  H   -0.004879  -0.004879   0.000071   0.000071  -0.000486
     3  H   -0.008812   0.009038   0.006658  -0.001496   0.000071
     4  H    0.009038  -0.008812  -0.001496   0.006658   0.000071
     5  C    0.375074   0.375074  -0.026388  -0.026388  -0.013472
     6  C   -0.026435  -0.026435   0.389229   0.389229   0.378545
     7  H    0.721614  -0.042958  -0.008812   0.009038  -0.004879
     8  H   -0.042958   0.721614   0.009038  -0.008812  -0.004879
     9  H   -0.008812   0.009038   0.682970  -0.032670  -0.030170
    10  H    0.009038  -0.008812  -0.032670   0.682970  -0.030170
    11  H   -0.004879  -0.004879  -0.030170  -0.030170   0.686286
 Mulliken charges:
               1
     1  C   -0.023395
     2  H    0.013084
     3  H    0.016405
     4  H    0.016405
     5  C   -0.061891
     6  C   -0.023395
     7  H    0.008446
     8  H    0.008446
     9  H    0.016405
    10  H    0.016405
    11  H    0.013084
 Sum of Mulliken charges =   0.00000
 Mulliken charges with hydrogens summed into heavy atoms:
               1
     1  C    0.022500
     5  C   -0.044999
     6  C    0.022500
 APT charges:
               1
     1  C    0.085104
     2  H   -0.035931
     3  H   -0.033104
     4  H   -0.033104
     5  C    0.161391
     6  C    0.085104
     7  H   -0.063660
     8  H   -0.063660
     9  H   -0.033104
    10  H   -0.033104
    11  H   -0.035931
 Sum of APT charges =   0.00000
 APT charges with hydrogens summed into heavy atoms:
               1
     1  C   -0.017035
     5  C    0.034070
     6  C   -0.017035
 Electronic spatial extent (au):  <R**2>=            228.6701
 Charge=              0.0000 electrons
 Dipole moment (field-independent basis, Debye):
    X=              0.0000    Y=             -0.0000    Z=              0.0658  Tot=              0.0658
 Quadrupole moment (field-independent basis, Debye-Ang):
   XX=            -21.4754   YY=            -22.1421   ZZ=            -21.8453
   XY=             -0.0000   XZ=             -0.0000   YZ=              0.0000
 Traceless Quadrupole moment (field-independent basis, Debye-Ang):
   XX=              0.3456   YY=             -0.3211   ZZ=             -0.0244
   XY=             -0.0000   XZ=             -0.0000   YZ=              0.0000
 Octapole moment (field-independent basis, Debye-Ang**2):
  XXX=              0.0000  YYY=             -0.0000  ZZZ=              0.2091  XYY=              0.0000
  XXY=             -0.0000  XXZ=             -0.3467  XZZ=              0.0000  YZZ=             -0.0000
  YYZ=              1.2227  XYZ=              0.0000
 Hexadecapole moment (field-independent basis, Debye-Ang**3):
 XXXX=            -44.3041 YYYY=           -204.8983 ZZZZ=            -71.3295 XXXY=             -0.0000
 XXXZ=              0.0000 YYYX=             -0.0000 YYYZ=              0.0000 ZZZX=             -0.0000
 ZZZY=              0.0000 XXYY=            -42.1428 XXZZ=            -17.6432 YYZZ=            -45.7149
 XXYZ=              0.0000 YYXZ=             -0.0000 ZZXY=             -0.0000
 N-N= 8.207798374832D+01 E-N=-4.388023175935D+02  KE= 1.180033790493D+02
 Symmetry A1   KE= 7.311356300151D+01
 Symmetry A2   KE= 1.980333133457D+00
 Symmetry B1   KE= 3.773417368330D+00
 Symmetry B2   KE= 3.913606554605D+01
  Exact polarizability:      33.800      -0.000      39.534       0.000       0.000      35.142
 Approx polarizability:      46.661       0.000      46.844      -0.000       0.000      46.639
 ******************************Gaussian NBO Version 3.1******************************
             N A T U R A L   A T O M I C   O R B I T A L   A N D
          N A T U R A L   B O N D   O R B I T A L   A N A L Y S I S
 ******************************Gaussian NBO Version 3.1******************************
       /RESON  / : Allow strongly delocalized NBO set

 Analyzing the SCF density

 Job title: Propane-dft-cc-pvdz                                             

 Storage needed:     20628 in NPA,     27277 in NBO (1342176565 available)
 GSVD:  LWork=        3370 too small for GESVD, short by        2987 words or        2987 for optimal perf.


 NATURAL POPULATIONS:  Natural atomic orbital occupancies 
                                                          
   NAO  Atom  No  lang   Type(AO)    Occupancy      Energy
 ----------------------------------------------------------
     1    C    1  S      Cor( 1S)     1.99937     -10.05429
     2    C    1  S      Val( 2S)     1.11246      -0.24532
     3    C    1  S      Ryd( 3S)     0.00051       1.18642
     4    C    1  px     Val( 2p)     1.21534      -0.06474
     5    C    1  px     Ryd( 3p)     0.00106       0.57908
     6    C    1  py     Val( 2p)     1.12703      -0.06167
     7    C    1  py     Ryd( 3p)     0.00224       0.55785
     8    C    1  pz     Val( 2p)     1.17491      -0.06264
     9    C    1  pz     Ryd( 3p)     0.00160       0.56178
    10    C    1  dxy    Ryd( 3d)     0.00023       1.64905
    11    C    1  dxz    Ryd( 3d)     0.00073       1.95953
    12    C    1  dyz    Ryd( 3d)     0.00064       1.87296
    13    C    1  dx2y2  Ryd( 3d)     0.00060       1.91016
    14    C    1  dz2    Ryd( 3d)     0.00016       1.63623
 
    15    H    2  S      Val( 1S)     0.77911       0.07803
    16    H    2  S      Ryd( 2S)     0.00146       0.37574
    17    H    2  px     Ryd( 2p)     0.00024       1.68241
    18    H    2  py     Ryd( 2p)     0.00059       2.01771
    19    H    2  pz     Ryd( 2p)     0.00036       1.81749
 
    20    H    3  S      Val( 1S)     0.78701       0.07277
    21    H    3  S      Ryd( 2S)     0.00205       0.38451
    22    H    3  px     Ryd( 2p)     0.00059       2.00745
    23    H    3  py     Ryd( 2p)     0.00016       1.66734
    24    H    3  pz     Ryd( 2p)     0.00043       1.85026
 
    25    H    4  S      Val( 1S)     0.78701       0.07277
    26    H    4  S      Ryd( 2S)     0.00205       0.38451
    27    H    4  px     Ryd( 2p)     0.00059       2.00745
    28    H    4  py     Ryd( 2p)     0.00016       1.66734
    29    H    4  pz     Ryd( 2p)     0.00043       1.85026
 
    30    C    5  S      Cor( 1S)     1.99929     -10.05675
    31    C    5  S      Val( 2S)     1.04431      -0.22719
    32    C    5  S      Ryd( 3S)     0.00080       1.28069
    33    C    5  px     Val( 2p)     1.21204      -0.06012
    34    C    5  px     Ryd( 3p)     0.00259       0.67481
    35    C    5  py     Val( 2p)     1.02856      -0.05947
    36    C    5  py     Ryd( 3p)     0.00133       0.52956
    37    C    5  pz     Val( 2p)     1.13077      -0.06018
    38    C    5  pz     Ryd( 3p)     0.00091       0.53960
    39    C    5  dxy    Ryd( 3d)     0.00043       1.65563
    40    C    5  dxz    Ryd( 3d)     0.00093       2.02196
    41    C    5  dyz    Ryd( 3d)     0.00088       1.82419
    42    C    5  dx2y2  Ryd( 3d)     0.00090       1.90649
    43    C    5  dz2    Ryd( 3d)     0.00034       1.64854
 
    44    C    6  S      Cor( 1S)     1.99937     -10.05429
    45    C    6  S      Val( 2S)     1.11246      -0.24532
    46    C    6  S      Ryd( 3S)     0.00051       1.18642
    47    C    6  px     Val( 2p)     1.21534      -0.06474
    48    C    6  px     Ryd( 3p)     0.00106       0.57908
    49    C    6  py     Val( 2p)     1.12703      -0.06167
    50    C    6  py     Ryd( 3p)     0.00224       0.55785
    51    C    6  pz     Val( 2p)     1.17491      -0.06264
    52    C    6  pz     Ryd( 3p)     0.00160       0.56178
    53    C    6  dxy    Ryd( 3d)     0.00023       1.64905
    54    C    6  dxz    Ryd( 3d)     0.00073       1.95953
    55    C    6  dyz    Ryd( 3d)     0.00064       1.87296
    56    C    6  dx2y2  Ryd( 3d)     0.00060       1.91016
    57    C    6  dz2    Ryd( 3d)     0.00016       1.63623
 
    58    H    7  S      Val( 1S)     0.78475       0.08011
    59    H    7  S      Ryd( 2S)     0.00290       0.38598
    60    H    7  px     Ryd( 2p)     0.00060       2.01592
    61    H    7  py     Ryd( 2p)     0.00014       1.67587
    62    H    7  pz     Ryd( 2p)     0.00043       1.87178
 
    63    H    8  S      Val( 1S)     0.78475       0.08011
    64    H    8  S      Ryd( 2S)     0.00290       0.38598
    65    H    8  px     Ryd( 2p)     0.00060       2.01592
    66    H    8  py     Ryd( 2p)     0.00014       1.67587
    67    H    8  pz     Ryd( 2p)     0.00043       1.87178
 
    68    H    9  S      Val( 1S)     0.78701       0.07277
    69    H    9  S      Ryd( 2S)     0.00205       0.38451
    70    H    9  px     Ryd( 2p)     0.00059       2.00745
    71    H    9  py     Ryd( 2p)     0.00016       1.66734
    72    H    9  pz     Ryd( 2p)     0.00043       1.85026
 
    73    H   10  S      Val( 1S)     0.78701       0.07277
    74    H   10  S      Ryd( 2S)     0.00205       0.38451
    75    H   10  px     Ryd( 2p)     0.00059       2.00745
    76    H   10  py     Ryd( 2p)     0.00016       1.66734
    77    H   10  pz     Ryd( 2p)     0.00043       1.85026
 
    78    H   11  S      Val( 1S)     0.77911       0.07803
    79    H   11  S      Ryd( 2S)     0.00146       0.37574
    80    H   11  px     Ryd( 2p)     0.00024       1.68241
    81    H   11  py     Ryd( 2p)     0.00059       2.01771
    82    H   11  pz     Ryd( 2p)     0.00036       1.81749


 Summary of Natural Population Analysis:                  
                                                          
                                       Natural Population 
                Natural  -----------------------------------------------
    Atom  No    Charge         Core      Valence    Rydberg      Total
 -----------------------------------------------------------------------
      C    1   -0.63688      1.99937     4.62974    0.00777     6.63688
      H    2    0.21824      0.00000     0.77911    0.00265     0.78176
      H    3    0.20975      0.00000     0.78701    0.00324     0.79025
      H    4    0.20975      0.00000     0.78701    0.00324     0.79025
      C    5   -0.42408      1.99929     4.41569    0.00910     6.42408
      C    6   -0.63688      1.99937     4.62974    0.00777     6.63688
      H    7    0.21118      0.00000     0.78475    0.00407     0.78882
      H    8    0.21118      0.00000     0.78475    0.00407     0.78882
      H    9    0.20975      0.00000     0.78701    0.00324     0.79025
      H   10    0.20975      0.00000     0.78701    0.00324     0.79025
      H   11    0.21824      0.00000     0.77911    0.00265     0.78176
 =======================================================================
   * Total *    0.00000      5.99804    19.95094    0.05103    26.00000

                                 Natural Population      
 --------------------------------------------------------
   Core                       5.99804 ( 99.9673% of   6)
   Valence                   19.95094 ( 99.7547% of  20)
   Natural Minimal Basis     25.94897 ( 99.8037% of  26)
   Natural Rydberg Basis      0.05103 (  0.1963% of  26)
 --------------------------------------------------------

    Atom  No          Natural Electron Configuration
 ----------------------------------------------------------------------------
      C    1      [core]2S( 1.11)2p( 3.52)
      H    2            1S( 0.78)
      H    3            1S( 0.79)
      H    4            1S( 0.79)
      C    5      [core]2S( 1.04)2p( 3.37)
      C    6      [core]2S( 1.11)2p( 3.52)
      H    7            1S( 0.78)
      H    8            1S( 0.78)
      H    9            1S( 0.79)
      H   10            1S( 0.79)
      H   11            1S( 0.78)


 NATURAL BOND ORBITAL ANALYSIS:

                       Occupancies       Lewis Structure    Low   High
           Occ.    -------------------  -----------------   occ   occ
  Cycle   Thresh.   Lewis   Non-Lewis     CR  BD  3C  LP    (L)   (NL)   Dev
 =============================================================================
   1(1)    1.90    25.86179   0.13821      3  10   0   0     0      0    0.03
 -----------------------------------------------------------------------------

 Structure accepted: No low occupancy Lewis orbitals

 --------------------------------------------------------
   Core                      5.99804 ( 99.967% of   6)
   Valence Lewis            19.86375 ( 99.319% of  20)
  ==================       ============================
   Total Lewis              25.86179 ( 99.468% of  26)
  -----------------------------------------------------
   Valence non-Lewis         0.10125 (  0.389% of  26)
   Rydberg non-Lewis         0.03696 (  0.142% of  26)
  ==================       ============================
   Total non-Lewis           0.13821 (  0.532% of  26)
 --------------------------------------------------------


       (Occupancy)   Bond orbital/ Coefficients/ Hybrids
 ---------------------------------------------------------------------------------
     1. (1.98821) BD ( 1) C   1 - H   2  
                ( 60.95%)   0.7807* C   1 s( 23.47%)p 3.26( 76.50%)d 0.00(  0.03%)
                                            0.0000  0.4845  0.0000 -0.0000  0.0000
                                            0.7165  0.0020  0.5014 -0.0134 -0.0000
                                            0.0000  0.0145 -0.0090 -0.0006
                ( 39.05%)   0.6249* H   2 s( 99.91%)p 0.00(  0.09%)
                                            0.9995 -0.0009  0.0000 -0.0256 -0.0166
     2. (1.98880) BD ( 1) C   1 - H   3  
                ( 60.68%)   0.7790* C   1 s( 23.24%)p 3.30( 76.72%)d 0.00(  0.03%)
                                            0.0000  0.4821 -0.0044  0.7069 -0.0042
                                            0.0349  0.0161 -0.5157 -0.0037  0.0013
                                           -0.0145  0.0000  0.0099  0.0007
                ( 39.32%)   0.6271* H   3 s( 99.91%)p 0.00(  0.09%)
                                            0.9995 -0.0023 -0.0240 -0.0025  0.0181
     3. (1.98880) BD ( 1) C   1 - H   4  
                ( 60.68%)   0.7790* C   1 s( 23.24%)p 3.30( 76.72%)d 0.00(  0.03%)
                                           -0.0000 -0.4821  0.0044  0.7069 -0.0042
                                           -0.0349 -0.0161  0.5157  0.0037  0.0013
                                           -0.0145 -0.0000 -0.0099 -0.0007
                ( 39.32%)   0.6271* H   4 s( 99.91%)p 0.00(  0.09%)
                                           -0.9995  0.0023 -0.0240  0.0025 -0.0181
     4. (1.98907) BD ( 1) C   1 - C   5  
                ( 49.91%)   0.7064* C   1 s( 30.02%)p 2.33( 69.94%)d 0.00(  0.04%)
                                            0.0004  0.5478  0.0104  0.0000 -0.0000
                                           -0.6952  0.0037  0.4647  0.0116 -0.0000
                                           -0.0000 -0.0157 -0.0124 -0.0013
                ( 50.09%)   0.7078* C   5 s( 27.94%)p 2.58( 72.02%)d 0.00(  0.04%)
                                            0.0003  0.5285  0.0119 -0.0000  0.0000
                                            0.7068  0.0146 -0.4694  0.0098  0.0000
                                           -0.0000 -0.0168 -0.0128  0.0003
     5. (1.98907) BD ( 1) C   5 - C   6  
                ( 50.09%)   0.7078* C   5 s( 27.94%)p 2.58( 72.02%)d 0.00(  0.04%)
                                            0.0003  0.5285  0.0119 -0.0000  0.0000
                                           -0.7068 -0.0146 -0.4694  0.0098  0.0000
                                           -0.0000  0.0168 -0.0128  0.0003
                ( 49.91%)   0.7064* C   6 s( 30.02%)p 2.33( 69.94%)d 0.00(  0.04%)
                                            0.0004  0.5478  0.0104  0.0000  0.0000
                                            0.6952 -0.0037  0.4647  0.0116 -0.0000
                                           -0.0000  0.0157 -0.0124 -0.0013
     6. (1.97700) BD ( 1) C   5 - H   7  
                ( 60.79%)   0.7797* C   5 s( 22.07%)p 3.53( 77.89%)d 0.00(  0.03%)
                                           -0.0001  0.4697 -0.0107  0.7068 -0.0148
                                            0.0000  0.0000  0.5283  0.0058  0.0000
                                            0.0150  0.0000  0.0107  0.0006
                ( 39.21%)   0.6262* H   7 s( 99.90%)p 0.00(  0.10%)
                                            0.9995 -0.0041 -0.0238  0.0000 -0.0197
     7. (1.97700) BD ( 1) C   5 - H   8  
                ( 60.79%)   0.7797* C   5 s( 22.07%)p 3.53( 77.89%)d 0.00(  0.03%)
                                            0.0001 -0.4697  0.0107  0.7068 -0.0148
                                           -0.0000 -0.0000 -0.5283 -0.0058  0.0000
                                            0.0150 -0.0000 -0.0107 -0.0006
                ( 39.21%)   0.6262* H   8 s( 99.90%)p 0.00(  0.10%)
                                           -0.9995  0.0041 -0.0238  0.0000  0.0197
     8. (1.98880) BD ( 1) C   6 - H   9  
                ( 60.68%)   0.7790* C   6 s( 23.24%)p 3.30( 76.72%)d 0.00(  0.03%)
                                            0.0000  0.4821 -0.0044  0.7069 -0.0042
                                           -0.0349 -0.0161 -0.5157 -0.0037 -0.0013
                                           -0.0145 -0.0000  0.0099  0.0007
                ( 39.32%)   0.6271* H   9 s( 99.91%)p 0.00(  0.09%)
                                            0.9995 -0.0023 -0.0240  0.0025  0.0181
     9. (1.98880) BD ( 1) C   6 - H  10  
                ( 60.68%)   0.7790* C   6 s( 23.24%)p 3.30( 76.72%)d 0.00(  0.03%)
                                           -0.0000 -0.4821  0.0044  0.7069 -0.0042
                                            0.0349  0.0161  0.5157  0.0037 -0.0013
                                           -0.0145  0.0000 -0.0099 -0.0007
                ( 39.32%)   0.6271* H  10 s( 99.91%)p 0.00(  0.09%)
                                           -0.9995  0.0023 -0.0240 -0.0025 -0.0181
    10. (1.98821) BD ( 1) C   6 - H  11  
                ( 60.95%)   0.7807* C   6 s( 23.47%)p 3.26( 76.50%)d 0.00(  0.03%)
                                           -0.0000 -0.4845 -0.0000  0.0000 -0.0000
                                            0.7165  0.0020 -0.5014  0.0134 -0.0000
                                           -0.0000  0.0145  0.0090  0.0006
                ( 39.05%)   0.6249* H  11 s( 99.91%)p 0.00(  0.09%)
                                           -0.9995  0.0009  0.0000 -0.0256  0.0166
    11. (1.99938) CR ( 1) C   1           s(100.00%)p 0.00(  0.00%)
                                            1.0000 -0.0003 -0.0000 -0.0000  0.0000
                                            0.0002 -0.0000 -0.0002 -0.0000 -0.0000
                                            0.0000  0.0000  0.0000  0.0000
    12. (1.99929) CR ( 1) C   5           s(100.00%)p 0.00(  0.00%)
                                            1.0000 -0.0002 -0.0000  0.0000 -0.0000
                                           -0.0000 -0.0000  0.0003 -0.0000  0.0000
                                            0.0000 -0.0000  0.0000 -0.0000
    13. (1.99938) CR ( 1) C   6           s(100.00%)p 0.00(  0.00%)
                                            1.0000 -0.0003 -0.0000 -0.0000  0.0000
                                           -0.0002  0.0000 -0.0002 -0.0000  0.0000
                                            0.0000 -0.0000  0.0000  0.0000
    14. (0.00319) RY*( 1) C   1           s(  6.79%)p12.35( 83.82%)d 1.38(  9.39%)
                                           -0.0000  0.0103  0.2604  0.0000 -0.0000
                                           -0.0111 -0.7015 -0.0149 -0.5879  0.0000
                                           -0.0000  0.1455 -0.1851 -0.1963
    15. (0.00153) RY*( 2) C   1           s(  0.00%)p 1.00( 68.36%)d 0.46( 31.64%)
                                            0.0000  0.0000 -0.0000  0.0140  0.8267
                                           -0.0000  0.0000 -0.0000 -0.0000 -0.3825
                                            0.4124 -0.0000  0.0000  0.0000
    16. (0.00028) RY*( 3) C   1           s( 39.28%)p 1.24( 48.60%)d 0.31( 12.12%)
                                            0.0000  0.0079  0.6267  0.0000 -0.0000
                                            0.0208 -0.3819 -0.0115  0.5828  0.0000
                                           -0.0000 -0.2733  0.0383  0.2122
    17. (0.00015) RY*( 4) C   1           s( 22.76%)p 2.14( 48.77%)d 1.25( 28.47%)
                                            0.0000 -0.0116  0.4769 -0.0000 -0.0000
                                            0.0033  0.4487  0.0036 -0.5351 -0.0000
                                            0.0000 -0.4423  0.0047  0.2984
    18. (0.00004) RY*( 5) C   1           s(  5.14%)p 0.20(  1.02%)d18.24( 93.83%)
    19. (0.00001) RY*( 6) C   1           s(  0.00%)p 1.00(  5.05%)d18.81( 94.95%)
    20. (0.00001) RY*( 7) C   1           s( 25.97%)p 0.67( 17.38%)d 2.18( 56.65%)
    21. (0.00000) RY*( 8) C   1           s(  0.08%)p 6.27(  0.48%)d99.99( 99.44%)
    22. (0.00000) RY*( 9) C   1           s(  0.00%)p 1.00( 26.63%)d 2.76( 73.37%)
    23. (0.00151) RY*( 1) H   2           s( 97.05%)p 0.03(  2.95%)
                                            0.0060  0.9851  0.0000  0.1579  0.0673
    24. (0.00024) RY*( 2) H   2           s(  0.00%)p 1.00(100.00%)
                                            0.0000  0.0000  1.0000  0.0000  0.0000
    25. (0.00014) RY*( 3) H   2           s(  0.01%)p99.99( 99.99%)
                                           -0.0067  0.0085 -0.0000  0.3470 -0.9378
    26. (0.00003) RY*( 4) H   2           s(  3.03%)p32.02( 96.97%)
    27. (0.00210) RY*( 1) H   3           s( 98.12%)p 0.02(  1.88%)
                                            0.0063  0.9905  0.0886  0.0261 -0.1012
    28. (0.00024) RY*( 2) H   3           s(  0.03%)p99.99( 99.97%)
                                            0.0002  0.0170  0.5150  0.4451  0.7324
    29. (0.00014) RY*( 3) H   3           s(  0.00%)p 1.00(100.00%)
                                            0.0063 -0.0027  0.4858 -0.8556  0.1784
    30. (0.00004) RY*( 4) H   3           s(  1.93%)p50.68( 98.07%)
    31. (0.00210) RY*( 1) H   4           s( 98.12%)p 0.02(  1.88%)
                                            0.0063  0.9905 -0.0886  0.0261 -0.1012
    32. (0.00024) RY*( 2) H   4           s(  0.03%)p99.99( 99.97%)
                                            0.0002  0.0170 -0.5150  0.4451  0.7324
    33. (0.00014) RY*( 3) H   4           s(  0.00%)p 1.00(100.00%)
                                            0.0063 -0.0027 -0.4858 -0.8556  0.1784
    34. (0.00004) RY*( 4) H   4           s(  1.93%)p50.68( 98.07%)
    35. (0.00272) RY*( 1) C   5           s(  0.00%)p 1.00( 82.72%)d 0.21( 17.28%)
                                           -0.0000 -0.0000 -0.0000  0.0279  0.9091
                                           -0.0000 -0.0000 -0.0000 -0.0000  0.0000
                                           -0.4157  0.0000 -0.0000 -0.0000
    36. (0.00142) RY*( 2) C   5           s( 12.93%)p 3.18( 41.17%)d 3.55( 45.90%)
                                            0.0000 -0.0124  0.3594 -0.0000  0.0000
                                            0.0000 -0.0000  0.0217  0.6413  0.0000
                                           -0.0000 -0.0000 -0.4888 -0.4691
    37. (0.00105) RY*( 3) C   5           s(  0.00%)p 1.00( 82.47%)d 0.21( 17.53%)
                                            0.0000 -0.0000 -0.0000 -0.0000  0.0000
                                           -0.0089  0.9081  0.0000  0.0000  0.0000
                                           -0.0000  0.4186  0.0000 -0.0000
    38. (0.00043) RY*( 4) C   5           s(  0.00%)p 0.00(  0.00%)d 1.00(100.00%)
                                            0.0000  0.0000  0.0000  0.0000  0.0000
                                            0.0000  0.0000  0.0000  0.0000  1.0000
                                            0.0000  0.0000  0.0000  0.0000
    39. (0.00017) RY*( 5) C   5           s( 47.47%)p 0.94( 44.61%)d 0.17(  7.92%)
                                            0.0000  0.0081  0.6889  0.0000  0.0000
                                           -0.0000 -0.0000  0.0195 -0.6676  0.0000
                                            0.0000  0.0000 -0.2555 -0.1181
    40. (0.00017) RY*( 6) C   5           s(  0.00%)p 1.00( 17.58%)d 4.69( 82.42%)
                                           -0.0000  0.0000  0.0000  0.0000 -0.0000
                                            0.0302 -0.4182 -0.0000 -0.0000  0.0000
                                            0.0000  0.9078  0.0000  0.0000
    41. (0.00003) RY*( 7) C   5           s( 12.03%)p 0.67(  8.06%)d 6.64( 79.91%)
    42. (0.00000) RY*( 8) C   5           s( 27.55%)p 0.23(  6.24%)d 2.40( 66.21%)
    43. (0.00000) RY*( 9) C   5           s(  0.00%)p 1.00( 17.33%)d 4.77( 82.67%)
    44. (0.00319) RY*( 1) C   6           s(  6.79%)p12.35( 83.82%)d 1.38(  9.39%)
                                           -0.0000  0.0103  0.2604  0.0000 -0.0000
                                            0.0111  0.7015 -0.0149 -0.5879 -0.0000
                                           -0.0000 -0.1455 -0.1851 -0.1963
    45. (0.00153) RY*( 2) C   6           s(  0.00%)p 1.00( 68.36%)d 0.46( 31.64%)
                                           -0.0000 -0.0000 -0.0000  0.0140  0.8267
                                            0.0000 -0.0000 -0.0000  0.0000  0.3825
                                            0.4124  0.0000 -0.0000 -0.0000
    46. (0.00028) RY*( 3) C   6           s( 39.28%)p 1.24( 48.60%)d 0.31( 12.12%)
                                            0.0000  0.0079  0.6267  0.0000 -0.0000
                                           -0.0208  0.3819 -0.0115  0.5828 -0.0000
                                           -0.0000  0.2733  0.0383  0.2122
    47. (0.00015) RY*( 4) C   6           s( 22.76%)p 2.14( 48.77%)d 1.25( 28.47%)
                                            0.0000 -0.0116  0.4769 -0.0000  0.0000
                                           -0.0033 -0.4487  0.0036 -0.5351  0.0000
                                            0.0000  0.4423  0.0047  0.2984
    48. (0.00004) RY*( 5) C   6           s(  5.14%)p 0.20(  1.02%)d18.24( 93.83%)
    49. (0.00001) RY*( 6) C   6           s(  0.00%)p 1.00(  5.05%)d18.81( 94.95%)
    50. (0.00001) RY*( 7) C   6           s( 25.97%)p 0.67( 17.38%)d 2.18( 56.65%)
    51. (0.00000) RY*( 8) C   6           s(  0.08%)p 6.27(  0.48%)d99.99( 99.44%)
    52. (0.00000) RY*( 9) C   6           s(  0.00%)p 1.00( 26.63%)d 2.76( 73.37%)
    53. (0.00294) RY*( 1) H   7           s( 99.19%)p 0.01(  0.81%)
                                            0.0068  0.9959  0.0676  0.0000  0.0590
    54. (0.00021) RY*( 2) H   7           s(  0.01%)p 1.00( 99.99%)
                                           -0.0033  0.0072 -0.7158 -0.0000  0.6983
    55. (0.00014) RY*( 3) H   7           s(  0.00%)p 1.00(100.00%)
                                            0.0000  0.0000  0.0000  1.0000  0.0000
    56. (0.00004) RY*( 4) H   7           s(  0.89%)p99.99( 99.11%)
    57. (0.00294) RY*( 1) H   8           s( 99.19%)p 0.01(  0.81%)
                                            0.0068  0.9959 -0.0676  0.0000  0.0590
    58. (0.00021) RY*( 2) H   8           s(  0.01%)p 1.00( 99.99%)
                                           -0.0033  0.0072  0.7158  0.0000  0.6983
    59. (0.00014) RY*( 3) H   8           s(  0.00%)p 1.00(100.00%)
                                            0.0000  0.0000  0.0000  1.0000  0.0000
    60. (0.00004) RY*( 4) H   8           s(  0.89%)p99.99( 99.11%)
    61. (0.00210) RY*( 1) H   9           s( 98.12%)p 0.02(  1.88%)
                                            0.0063  0.9905  0.0886 -0.0261 -0.1012
    62. (0.00024) RY*( 2) H   9           s(  0.03%)p99.99( 99.97%)
                                            0.0002  0.0170  0.5150 -0.4451  0.7324
    63. (0.00014) RY*( 3) H   9           s(  0.00%)p 1.00(100.00%)
                                            0.0063 -0.0027  0.4858  0.8556  0.1784
    64. (0.00004) RY*( 4) H   9           s(  1.93%)p50.68( 98.07%)
    65. (0.00210) RY*( 1) H  10           s( 98.12%)p 0.02(  1.88%)
                                            0.0063  0.9905 -0.0886 -0.0261 -0.1012
    66. (0.00024) RY*( 2) H  10           s(  0.03%)p99.99( 99.97%)
                                            0.0002  0.0170 -0.5150 -0.4451  0.7324
    67. (0.00014) RY*( 3) H  10           s(  0.00%)p 1.00(100.00%)
                                            0.0063 -0.0027 -0.4858  0.8556  0.1784
    68. (0.00004) RY*( 4) H  10           s(  1.93%)p50.68( 98.07%)
    69. (0.00151) RY*( 1) H  11           s( 97.05%)p 0.03(  2.95%)
                                            0.0060  0.9851  0.0000 -0.1579  0.0673
    70. (0.00024) RY*( 2) H  11           s(  0.00%)p 1.00(100.00%)
                                            0.0000  0.0000  1.0000  0.0000  0.0000
    71. (0.00014) RY*( 3) H  11           s(  0.01%)p99.99( 99.99%)
                                           -0.0067  0.0085 -0.0000 -0.3470 -0.9378
    72. (0.00003) RY*( 4) H  11           s(  3.03%)p32.02( 96.97%)
    73. (0.00573) BD*( 1) C   1 - H   2  
                ( 39.05%)   0.6249* C   1 s( 23.47%)p 3.26( 76.50%)d 0.00(  0.03%)
                                           -0.0000 -0.4845 -0.0000  0.0000 -0.0000
                                           -0.7165 -0.0020 -0.5014  0.0134  0.0000
                                           -0.0000 -0.0145  0.0090  0.0006
                ( 60.95%)  -0.7807* H   2 s( 99.91%)p 0.00(  0.09%)
                                           -0.9995  0.0009 -0.0000  0.0256  0.0166
    74. (0.00944) BD*( 1) C   1 - H   3  
                ( 39.32%)   0.6271* C   1 s( 23.24%)p 3.30( 76.72%)d 0.00(  0.03%)
                                           -0.0000 -0.4821  0.0044 -0.7069  0.0042
                                           -0.0349 -0.0161  0.5157  0.0037 -0.0013
                                            0.0145 -0.0000 -0.0099 -0.0007
                ( 60.68%)  -0.7790* H   3 s( 99.91%)p 0.00(  0.09%)
                                           -0.9995  0.0023  0.0240  0.0025 -0.0181
    75. (0.00944) BD*( 1) C   1 - H   4  
                ( 39.32%)   0.6271* C   1 s( 23.24%)p 3.30( 76.72%)d 0.00(  0.03%)
                                            0.0000  0.4821 -0.0044 -0.7069  0.0042
                                            0.0349  0.0161 -0.5157 -0.0037 -0.0013
                                            0.0145  0.0000  0.0099  0.0007
                ( 60.68%)  -0.7790* H   4 s( 99.91%)p 0.00(  0.09%)
                                            0.9995 -0.0023  0.0240 -0.0025  0.0181
    76. (0.00901) BD*( 1) C   1 - C   5  
                ( 50.09%)   0.7078* C   1 s( 30.02%)p 2.33( 69.94%)d 0.00(  0.04%)
                                            0.0004  0.5478  0.0104  0.0000 -0.0000
                                           -0.6952  0.0037  0.4647  0.0116 -0.0000
                                           -0.0000 -0.0157 -0.0124 -0.0013
                ( 49.91%)  -0.7064* C   5 s( 27.94%)p 2.58( 72.02%)d 0.00(  0.04%)
                                            0.0003  0.5285  0.0119 -0.0000  0.0000
                                            0.7068  0.0146 -0.4694  0.0098  0.0000
                                           -0.0000 -0.0168 -0.0128  0.0003
    77. (0.00901) BD*( 1) C   5 - C   6  
                ( 49.91%)   0.7064* C   5 s( 27.94%)p 2.58( 72.02%)d 0.00(  0.04%)
                                           -0.0003 -0.5285 -0.0119  0.0000 -0.0000
                                            0.7068  0.0146  0.4694 -0.0098 -0.0000
                                            0.0000 -0.0168  0.0128 -0.0003
                ( 50.09%)  -0.7078* C   6 s( 30.02%)p 2.33( 69.94%)d 0.00(  0.04%)
                                           -0.0004 -0.5478 -0.0104 -0.0000 -0.0000
                                           -0.6952  0.0037 -0.4647 -0.0116  0.0000
                                            0.0000 -0.0157  0.0124  0.0013
    78. (0.01700) BD*( 1) C   5 - H   7  
                ( 39.21%)   0.6262* C   5 s( 22.07%)p 3.53( 77.89%)d 0.00(  0.03%)
                                            0.0001 -0.4697  0.0107 -0.7068  0.0148
                                           -0.0000 -0.0000 -0.5283 -0.0058 -0.0000
                                           -0.0150 -0.0000 -0.0107 -0.0006
                ( 60.79%)  -0.7797* H   7 s( 99.90%)p 0.00(  0.10%)
                                           -0.9995  0.0041  0.0238 -0.0000  0.0197
    79. (0.01700) BD*( 1) C   5 - H   8  
                ( 39.21%)   0.6262* C   5 s( 22.07%)p 3.53( 77.89%)d 0.00(  0.03%)
                                           -0.0001  0.4697 -0.0107 -0.7068  0.0148
                                            0.0000  0.0000  0.5283  0.0058 -0.0000
                                           -0.0150  0.0000  0.0107  0.0006
                ( 60.79%)  -0.7797* H   8 s( 99.90%)p 0.00(  0.10%)
                                            0.9995 -0.0041  0.0238 -0.0000 -0.0197
    80. (0.00944) BD*( 1) C   6 - H   9  
                ( 39.32%)   0.6271* C   6 s( 23.24%)p 3.30( 76.72%)d 0.00(  0.03%)
                                           -0.0000 -0.4821  0.0044 -0.7069  0.0042
                                            0.0349  0.0161  0.5157  0.0037  0.0013
                                            0.0145  0.0000 -0.0099 -0.0007
                ( 60.68%)  -0.7790* H   9 s( 99.91%)p 0.00(  0.09%)
                                           -0.9995  0.0023  0.0240 -0.0025 -0.0181
    81. (0.00944) BD*( 1) C   6 - H  10  
                ( 39.32%)   0.6271* C   6 s( 23.24%)p 3.30( 76.72%)d 0.00(  0.03%)
                                            0.0000  0.4821 -0.0044 -0.7069  0.0042
                                           -0.0349 -0.0161 -0.5157 -0.0037  0.0013
                                            0.0145 -0.0000  0.0099  0.0007
                ( 60.68%)  -0.7790* H  10 s( 99.91%)p 0.00(  0.09%)
                                            0.9995 -0.0023  0.0240  0.0025  0.0181
    82. (0.00573) BD*( 1) C   6 - H  11  
                ( 39.05%)   0.6249* C   6 s( 23.47%)p 3.26( 76.50%)d 0.00(  0.03%)
                                            0.0000  0.4845  0.0000 -0.0000  0.0000
                                           -0.7165 -0.0020  0.5014 -0.0134  0.0000
                                            0.0000 -0.0145 -0.0090 -0.0006
                ( 60.95%)  -0.7807* H  11 s( 99.91%)p 0.00(  0.09%)
                                            0.9995 -0.0009 -0.0000  0.0256 -0.0166


 NHO Directionality and "Bond Bending" (deviations from line of nuclear centers)

         [Thresholds for printing:  angular deviation  >  1.0 degree]
                                    hybrid p-character > 25.0%
                                    orbital occupancy  >  0.10e

                                Line of Centers        Hybrid 1              Hybrid 2
                                ---------------  -------------------   ------------------
                NBO               Theta   Phi    Theta   Phi    Dev    Theta   Phi    Dev
 ========================================================================================
     4. BD (   1) C   1 - C   5    56.5  270.0    55.4  270.0   1.1      --     --    --
     5. BD (   1) C   5 - C   6   123.5  270.0     --     --    --      55.4   90.0   1.1


 Second Order Perturbation Theory Analysis of Fock Matrix in NBO Basis

     Threshold for printing:   0.50 kcal/mol
                                                                              E(2)  E(j)-E(i) F(i,j)
         Donor NBO (i)                     Acceptor NBO (j)                 kcal/mol   a.u.    a.u. 
 ===================================================================================================

 within unit  1
   1. BD (   1) C   1 - H   2        / 36. RY*(   2) C   5                    0.53    1.66    0.027
   1. BD (   1) C   1 - H   2        / 77. BD*(   1) C   5 - C   6            3.72    0.89    0.051
   2. BD (   1) C   1 - H   3        / 79. BD*(   1) C   5 - H   8            3.29    0.94    0.050
   3. BD (   1) C   1 - H   4        / 78. BD*(   1) C   5 - H   7            3.29    0.94    0.050
   4. BD (   1) C   1 - C   5        / 44. RY*(   1) C   6                    1.29    1.38    0.038
   4. BD (   1) C   1 - C   5        / 77. BD*(   1) C   5 - C   6            0.63    1.00    0.022
   4. BD (   1) C   1 - C   5        / 82. BD*(   1) C   6 - H  11            2.06    1.05    0.042
   5. BD (   1) C   5 - C   6        / 14. RY*(   1) C   1                    1.29    1.38    0.038
   5. BD (   1) C   5 - C   6        / 73. BD*(   1) C   1 - H   2            2.06    1.05    0.042
   5. BD (   1) C   5 - C   6        / 76. BD*(   1) C   1 - C   5            0.63    1.00    0.022
   6. BD (   1) C   5 - H   7        / 75. BD*(   1) C   1 - H   4            3.57    0.92    0.051
   6. BD (   1) C   5 - H   7        / 81. BD*(   1) C   6 - H  10            3.57    0.92    0.051
   7. BD (   1) C   5 - H   8        / 74. BD*(   1) C   1 - H   3            3.57    0.92    0.051
   7. BD (   1) C   5 - H   8        / 80. BD*(   1) C   6 - H   9            3.57    0.92    0.051
   8. BD (   1) C   6 - H   9        / 79. BD*(   1) C   5 - H   8            3.29    0.94    0.050
   9. BD (   1) C   6 - H  10        / 78. BD*(   1) C   5 - H   7            3.29    0.94    0.050
  10. BD (   1) C   6 - H  11        / 36. RY*(   2) C   5                    0.53    1.66    0.027
  10. BD (   1) C   6 - H  11        / 76. BD*(   1) C   1 - C   5            3.72    0.89    0.051
  11. CR (   1) C   1                / 37. RY*(   3) C   5                    0.73   10.80    0.079
  11. CR (   1) C   1                / 39. RY*(   5) C   5                    0.58   11.02    0.072
  12. CR (   1) C   5                / 16. RY*(   3) C   1                    1.01   10.97    0.094
  12. CR (   1) C   5                / 46. RY*(   3) C   6                    1.01   10.97    0.094
  13. CR (   1) C   6                / 37. RY*(   3) C   5                    0.73   10.80    0.079
  13. CR (   1) C   6                / 39. RY*(   5) C   5                    0.58   11.02    0.072


 Natural Bond Orbitals (Summary):

                                                            Principal Delocalizations
           NBO                        Occupancy    Energy   (geminal,vicinal,remote)
 ====================================================================================
 Molecular unit  1  (C3H8)
     1. BD (   1) C   1 - H   2          1.98821    -0.47900  77(v),36(v)
     2. BD (   1) C   1 - H   3          1.98880    -0.47832  79(v)
     3. BD (   1) C   1 - H   4          1.98880    -0.47832  78(v)
     4. BD (   1) C   1 - C   5          1.98907    -0.58983  82(v),44(v),77(g)
     5. BD (   1) C   5 - C   6          1.98907    -0.58983  73(v),14(v),76(g)
     6. BD (   1) C   5 - H   7          1.97700    -0.46926  75(v),81(v)
     7. BD (   1) C   5 - H   8          1.97700    -0.46926  74(v),80(v)
     8. BD (   1) C   6 - H   9          1.98880    -0.47832  79(v)
     9. BD (   1) C   6 - H  10          1.98880    -0.47832  78(v)
    10. BD (   1) C   6 - H  11          1.98821    -0.47900  76(v),36(v)
    11. CR (   1) C   1                  1.99938   -10.05387  37(v),39(v)
    12. CR (   1) C   5                  1.99929   -10.05641  16(v),46(v)
    13. CR (   1) C   6                  1.99938   -10.05387  37(v),39(v)
    14. RY*(   1) C   1                  0.00319     0.78920   
    15. RY*(   2) C   1                  0.00153     0.95968   
    16. RY*(   3) C   1                  0.00028     0.91561   
    17. RY*(   4) C   1                  0.00015     0.99760   
    18. RY*(   5) C   1                  0.00004     1.77280   
    19. RY*(   6) C   1                  0.00001     1.78236   
    20. RY*(   7) C   1                  0.00001     1.41841   
    21. RY*(   8) C   1                  0.00000     1.82155   
    22. RY*(   9) C   1                  0.00000     1.44161   
    23. RY*(   1) H   2                  0.00151     0.47738   
    24. RY*(   2) H   2                  0.00024     1.68241   
    25. RY*(   3) H   2                  0.00014     1.67102   
    26. RY*(   4) H   2                  0.00003     2.05406   
    27. RY*(   1) H   3                  0.00210     0.45446   
    28. RY*(   2) H   3                  0.00024     1.68726   
    29. RY*(   3) H   3                  0.00014     1.67629   
    30. RY*(   4) H   3                  0.00004     2.08276   
    31. RY*(   1) H   4                  0.00210     0.45446   
    32. RY*(   2) H   4                  0.00024     1.68726   
    33. RY*(   3) H   4                  0.00014     1.67629   
    34. RY*(   4) H   4                  0.00004     2.08276   
    35. RY*(   1) C   5                  0.00272     0.95150   
    36. RY*(   2) C   5                  0.00142     1.18365   
    37. RY*(   3) C   5                  0.00105     0.75015   
    38. RY*(   4) C   5                  0.00043     1.65563   
    39. RY*(   5) C   5                  0.00017     0.96481   
    40. RY*(   6) C   5                  0.00017     1.59618   
    41. RY*(   7) C   5                  0.00003     1.52929   
    42. RY*(   8) C   5                  0.00000     1.69186   
    43. RY*(   9) C   5                  0.00000     1.74080   
    44. RY*(   1) C   6                  0.00319     0.78920   
    45. RY*(   2) C   6                  0.00153     0.95968   
    46. RY*(   3) C   6                  0.00028     0.91561   
    47. RY*(   4) C   6                  0.00015     0.99760   
    48. RY*(   5) C   6                  0.00004     1.77280   
    49. RY*(   6) C   6                  0.00001     1.78236   
    50. RY*(   7) C   6                  0.00001     1.41841   
    51. RY*(   8) C   6                  0.00000     1.82155   
    52. RY*(   9) C   6                  0.00000     1.44161   
    53. RY*(   1) H   7                  0.00294     0.42537   
    54. RY*(   2) H   7                  0.00021     1.70588   
    55. RY*(   3) H   7                  0.00014     1.67587   
    56. RY*(   4) H   7                  0.00004     2.13262   
    57. RY*(   1) H   8                  0.00294     0.42537   
    58. RY*(   2) H   8                  0.00021     1.70588   
    59. RY*(   3) H   8                  0.00014     1.67587   
    60. RY*(   4) H   8                  0.00004     2.13262   
    61. RY*(   1) H   9                  0.00210     0.45446   
    62. RY*(   2) H   9                  0.00024     1.68726   
    63. RY*(   3) H   9                  0.00014     1.67629   
    64. RY*(   4) H   9                  0.00004     2.08276   
    65. RY*(   1) H  10                  0.00210     0.45446   
    66. RY*(   2) H  10                  0.00024     1.68726   
    67. RY*(   3) H  10                  0.00014     1.67629   
    68. RY*(   4) H  10                  0.00004     2.08276   
    69. RY*(   1) H  11                  0.00151     0.47738   
    70. RY*(   2) H  11                  0.00024     1.68241   
    71. RY*(   3) H  11                  0.00014     1.67102   
    72. RY*(   4) H  11                  0.00003     2.05406   
    73. BD*(   1) C   1 - H   2          0.00573     0.45665   
    74. BD*(   1) C   1 - H   3          0.00944     0.44937   
    75. BD*(   1) C   1 - H   4          0.00944     0.44937   
    76. BD*(   1) C   1 - C   5          0.00901     0.40631   
    77. BD*(   1) C   5 - C   6          0.00901     0.40631   
    78. BD*(   1) C   5 - H   7          0.01700     0.45716   
    79. BD*(   1) C   5 - H   8          0.01700     0.45716   
    80. BD*(   1) C   6 - H   9          0.00944     0.44937   
    81. BD*(   1) C   6 - H  10          0.00944     0.44937   
    82. BD*(   1) C   6 - H  11          0.00573     0.45665   
       -------------------------------
              Total Lewis   25.86179  ( 99.4684%)
        Valence non-Lewis    0.10125  (  0.3894%)
        Rydberg non-Lewis    0.03696  (  0.1422%)
       -------------------------------
            Total unit  1   26.00000  (100.0000%)
           Charge unit  1    0.00000
 Calling FoFJK, ICntrl=    100127 FMM=F ISym2X=1 I1Cent= 0 IOpClX= 0 NMat=1 NMatS=1 NMatT=0.
 Full mass-weighted force constant matrix:
 Low frequencies ---   -0.0003    0.0004    0.0005   10.6916   13.9229   21.4411
 Low frequencies ---  229.3829  280.5438  365.7763
 Diagonal vibrational polarizability:
        0.5896716       0.3948665       0.4261548
 Harmonic frequencies (cm**-1), IR intensities (KM/Mole), Raman scattering
 activities (A**4/AMU), depolarization ratios for plane and unpolarized
 incident light, reduced masses (AMU), force constants (mDyne/A),
 and normal coordinates:
                      1                      2                      3
                     A2                     B1                     A1
 Frequencies --    229.3794               280.5403               365.7763
 Red. masses --      1.0280                 1.1378                 2.0413
 Frc consts  --      0.0319                 0.0528                 0.1609
 IR Inten    --      0.0000                 0.0008                 0.1141
  Atom  AN      X      Y      Z        X      Y      Z        X      Y      Z
     1   6    -0.03  -0.00  -0.00     0.04   0.00   0.00    -0.00   0.17   0.06
     2   1     0.37   0.00  -0.00     0.46  -0.00   0.00    -0.00  -0.03   0.34
     3   1    -0.24  -0.18  -0.30    -0.10  -0.26  -0.21     0.01   0.39   0.08
     4   1    -0.24   0.18   0.30    -0.10   0.26   0.21    -0.01   0.39   0.08
     5   6    -0.00   0.00   0.00    -0.09  -0.00  -0.00     0.00  -0.00  -0.17
     6   6     0.03   0.00  -0.00     0.04  -0.00   0.00     0.00  -0.17   0.06
     7   1    -0.00   0.01   0.00    -0.16   0.00   0.09    -0.01   0.00  -0.15
     8   1    -0.00  -0.01  -0.00    -0.16   0.00  -0.09     0.01  -0.00  -0.15
     9   1     0.24  -0.18   0.30    -0.10   0.26  -0.21     0.01  -0.39   0.08
    10   1     0.24   0.18  -0.30    -0.10  -0.26   0.21    -0.01  -0.39   0.08
    11   1    -0.37  -0.00  -0.00     0.46  -0.00   0.00    -0.00   0.03   0.34
                      4                      5                      6
                     B1                     A1                     A2
 Frequencies --    753.8680               880.1735               904.7172
 Red. masses --      1.0790                 2.4969                 1.1047
 Frc consts  --      0.3613                 1.1397                 0.5327
 IR Inten    --      3.3964                 0.8268                 0.0000
  Atom  AN      X      Y      Z        X      Y      Z        X      Y      Z
     1   6     0.02  -0.00  -0.00     0.00   0.21  -0.06    -0.07   0.00  -0.00
     2   1    -0.12  -0.00   0.00    -0.00   0.46  -0.40     0.20   0.00  -0.00
     3   1    -0.14   0.21  -0.19    -0.02  -0.01  -0.11     0.13  -0.30   0.24
     4   1    -0.14  -0.21   0.19     0.02  -0.01  -0.11     0.13   0.30  -0.24
     5   6     0.08  -0.00  -0.00     0.00   0.00   0.19     0.00  -0.00   0.00
     6   6     0.02   0.00   0.00    -0.00  -0.21  -0.06     0.07  -0.00  -0.00
     7   1    -0.28   0.00   0.46     0.00  -0.00   0.19     0.00   0.35   0.00
     8   1    -0.28   0.00  -0.46    -0.00   0.00   0.19     0.00  -0.35   0.00
     9   1    -0.14  -0.21  -0.19    -0.02   0.01  -0.11    -0.13  -0.30  -0.24
    10   1    -0.14   0.21   0.19     0.02   0.01  -0.11    -0.13   0.30   0.24
    11   1    -0.12   0.00  -0.00     0.00  -0.46  -0.40    -0.20  -0.00  -0.00
                      7                      8                      9
                     B2                     B2                     A1
 Frequencies --    926.4042              1069.1199              1168.1481
 Red. masses --      1.1979                 2.3356                 1.8172
 Frc consts  --      0.6057                 1.5729                 1.4610
 IR Inten    --      1.4561                 0.5632                 1.1717
  Atom  AN      X      Y      Z        X      Y      Z        X      Y      Z
     1   6     0.00  -0.02  -0.08    -0.00  -0.13   0.10    -0.00  -0.04  -0.13
     2   1    -0.00  -0.32   0.35     0.00  -0.17   0.15     0.00  -0.30   0.26
     3   1     0.04   0.33  -0.00     0.02  -0.15   0.13     0.07   0.37   0.00
     4   1    -0.04   0.33  -0.00    -0.02  -0.15   0.13    -0.07   0.37   0.00
     5   6    -0.00  -0.04  -0.00    -0.00   0.25   0.00     0.00   0.00   0.19
     6   6    -0.00  -0.02   0.08     0.00  -0.13  -0.10    -0.00   0.04  -0.13
     7   1     0.00   0.20  -0.00    -0.00   0.56   0.00     0.02  -0.00   0.17
     8   1     0.00   0.20   0.00    -0.00   0.56  -0.00    -0.02  -0.00   0.17
     9   1    -0.04   0.33   0.00    -0.02  -0.15  -0.13     0.07  -0.37   0.00
    10   1     0.04   0.33   0.00     0.02  -0.15  -0.13    -0.07  -0.37   0.00
    11   1     0.00  -0.32  -0.35     0.00  -0.17  -0.15     0.00   0.30   0.26
                     10                     11                     12
                     B1                     A2                     B2
 Frequencies --   1199.9721              1306.2055              1354.4926
 Red. masses --      1.6776                 1.1270                 1.3649
 Frc consts  --      1.4232                 1.1329                 1.4753
 IR Inten    --      0.2979                 0.0000                 5.6508
  Atom  AN      X      Y      Z        X      Y      Z        X      Y      Z
     1   6    -0.12   0.00   0.00     0.07   0.00  -0.00     0.00   0.00   0.06
     2   1     0.24   0.00  -0.00    -0.11  -0.00   0.00    -0.00   0.20  -0.21
     3   1     0.10  -0.24   0.26    -0.04   0.12  -0.14    -0.13   0.09  -0.14
     4   1     0.10   0.24  -0.26    -0.04  -0.12   0.14     0.13   0.09  -0.14
     5   6     0.18   0.00  -0.00     0.00   0.00  -0.00     0.00  -0.16   0.00
     6   6    -0.12  -0.00   0.00    -0.07  -0.00   0.00    -0.00   0.00  -0.06
     7   1    -0.10  -0.00   0.36     0.00   0.64  -0.00    -0.00   0.56   0.00
     8   1    -0.10   0.00  -0.36    -0.00  -0.64  -0.00     0.00   0.56   0.00
     9   1     0.10   0.24   0.26     0.04   0.12   0.14     0.13   0.09   0.14
    10   1     0.10  -0.24  -0.26     0.04  -0.12  -0.14    -0.13   0.09   0.14
    11   1     0.24  -0.00  -0.00     0.11   0.00   0.00    -0.00   0.20   0.21
                     13                     14                     15
                     B2                     A1                     A2
 Frequencies --   1392.0331              1404.9908              1459.9835
 Red. masses --      1.3412                 1.2416                 1.0343
 Frc consts  --      1.5312                 1.4440                 1.2989
 IR Inten    --      3.6680                 1.0190                 0.0000
  Atom  AN      X      Y      Z        X      Y      Z        X      Y      Z
     1   6    -0.00  -0.10   0.03    -0.00   0.08  -0.06    -0.03  -0.00  -0.00
     2   1     0.00   0.16  -0.32    -0.00  -0.21   0.35     0.50   0.00  -0.00
     3   1    -0.07   0.38  -0.04     0.15  -0.34   0.14     0.04   0.34   0.10
     4   1     0.07   0.38  -0.04    -0.15  -0.34   0.14     0.04  -0.34  -0.10
     5   6    -0.00   0.09  -0.00    -0.00   0.00   0.01     0.00  -0.00   0.00
     6   6     0.00  -0.10  -0.03     0.00  -0.08  -0.06     0.03   0.00  -0.00
     7   1     0.00  -0.24  -0.00    -0.01  -0.00   0.04     0.00   0.06  -0.00
     8   1    -0.00  -0.24  -0.00     0.01   0.00   0.04    -0.00  -0.06  -0.00
     9   1     0.07   0.38   0.04     0.15   0.34   0.14    -0.04   0.34  -0.10
    10   1    -0.07   0.38   0.04    -0.15   0.34   0.14    -0.04  -0.34   0.10
    11   1     0.00   0.16   0.32     0.00   0.21   0.35    -0.50  -0.00  -0.00
                     16                     17                     18
                     A1                     B2                     B1
 Frequencies --   1462.4708              1470.1212              1478.2335
 Red. masses --      1.0395                 1.0590                 1.0394
 Frc consts  --      1.3099                 1.3485                 1.3381
 IR Inten    --      0.1286                 1.1429                10.5467
  Atom  AN      X      Y      Z        X      Y      Z        X      Y      Z
     1   6    -0.00   0.01   0.01    -0.00  -0.01  -0.03    -0.03   0.00   0.00
     2   1     0.00  -0.09   0.14     0.00   0.14  -0.22     0.49  -0.00   0.00
     3   1    -0.17  -0.04  -0.23     0.28   0.05   0.36     0.03   0.34   0.09
     4   1     0.17  -0.04  -0.23    -0.28   0.05   0.36     0.03  -0.34  -0.09
     5   6     0.00  -0.00  -0.05    -0.00  -0.05   0.00    -0.03   0.00  -0.00
     6   6     0.00  -0.01   0.01    -0.00  -0.01   0.03    -0.03   0.00  -0.00
     7   1    -0.34   0.00   0.44     0.00   0.12  -0.00     0.00  -0.00  -0.05
     8   1     0.34  -0.00   0.44    -0.00   0.12  -0.00     0.00  -0.00   0.05
     9   1    -0.17   0.04  -0.23    -0.28   0.05  -0.36     0.03  -0.34   0.09
    10   1     0.17   0.04  -0.23     0.28   0.05  -0.36     0.03   0.34  -0.09
    11   1    -0.00   0.09   0.14     0.00   0.14   0.22     0.49  -0.00  -0.00
                     19                     20                     21
                     A1                     A1                     B2
 Frequencies --   1485.8843              3014.4251              3016.1214
 Red. masses --      1.0848                 1.0595                 1.0360
 Frc consts  --      1.4111                 5.6721                 5.5526
 IR Inten    --      3.1675                39.1850                36.2680
  Atom  AN      X      Y      Z        X      Y      Z        X      Y      Z
     1   6     0.00  -0.02  -0.02     0.00   0.01   0.00    -0.00  -0.03   0.02
     2   1    -0.00   0.12  -0.21    -0.00  -0.11  -0.09     0.00   0.29   0.21
     3   1     0.21   0.07   0.29    -0.03   0.00   0.02     0.35   0.01  -0.25
     4   1    -0.21   0.07   0.29     0.03   0.00   0.02    -0.35   0.01  -0.25
     5   6     0.00  -0.00  -0.07     0.00   0.00  -0.07     0.00   0.00   0.00
     6   6    -0.00   0.02  -0.02    -0.00  -0.01   0.00    -0.00  -0.03  -0.02
     7   1    -0.28   0.00   0.31     0.56  -0.00   0.40    -0.00  -0.00  -0.00
     8   1     0.28  -0.00   0.31    -0.56   0.00   0.40     0.00  -0.00  -0.00
     9   1     0.21  -0.07   0.29    -0.03  -0.00   0.02    -0.35   0.01   0.25
    10   1    -0.21  -0.07   0.29     0.03  -0.00   0.02     0.35   0.01   0.25
    11   1    -0.00  -0.12  -0.21     0.00   0.11  -0.09     0.00   0.29  -0.21
                     22                     23                     24
                     A1                     B1                     A2
 Frequencies --   3019.8462              3040.2453              3081.7623
 Red. masses --      1.0377                 1.1012                 1.1020
 Frc consts  --      5.5757                 5.9967                 6.1665
 IR Inten    --     13.0112                 7.1320                 0.0000
  Atom  AN      X      Y      Z        X      Y      Z        X      Y      Z
     1   6     0.00  -0.03   0.02     0.02   0.00   0.00    -0.07  -0.00  -0.00
     2   1    -0.00   0.28   0.20     0.01  -0.00  -0.00    -0.02   0.00   0.00
     3   1     0.35   0.01  -0.25    -0.15  -0.01   0.11     0.40   0.01  -0.30
     4   1    -0.35   0.01  -0.25    -0.15   0.01  -0.11     0.40  -0.01   0.30
     5   6    -0.00  -0.00  -0.01    -0.09   0.00  -0.00     0.00  -0.00  -0.00
     6   6     0.00   0.03   0.02     0.02  -0.00  -0.00     0.07   0.00  -0.00
     7   1     0.09   0.00   0.07     0.52  -0.00   0.40     0.00  -0.00   0.00
     8   1    -0.09  -0.00   0.07     0.52  -0.00  -0.40    -0.00   0.00   0.00
     9   1     0.35  -0.01  -0.25    -0.15   0.01   0.11    -0.40   0.01   0.30
    10   1    -0.35  -0.01  -0.25    -0.15  -0.01  -0.11    -0.40  -0.01  -0.30
    11   1     0.00  -0.28   0.20     0.01   0.00   0.00     0.02  -0.00   0.00
                     25                     26                     27
                     B1                     B2                     A1
 Frequencies --   3091.6996              3092.3385              3094.5785
 Red. masses --      1.1027                 1.1020                 1.1007
 Frc consts  --      6.2104                 6.2085                 6.2103
 IR Inten    --     96.7396                28.6394                50.8203
  Atom  AN      X      Y      Z        X      Y      Z        X      Y      Z
     1   6    -0.06   0.00   0.00    -0.00  -0.04  -0.05     0.00  -0.04  -0.05
     2   1    -0.01  -0.00  -0.00    -0.00   0.50   0.35    -0.00   0.49   0.34
     3   1     0.37   0.02  -0.28    -0.21  -0.02   0.14    -0.21  -0.02   0.14
     4   1     0.37  -0.02   0.28     0.21  -0.02   0.14     0.21  -0.02   0.14
     5   6    -0.04   0.00  -0.00    -0.00  -0.00   0.00     0.00  -0.00  -0.01
     6   6    -0.06   0.00  -0.00    -0.00  -0.04   0.05    -0.00   0.04  -0.05
     7   1     0.21   0.00   0.16     0.00  -0.00   0.00     0.08   0.00   0.06
     8   1     0.21   0.00  -0.16     0.00  -0.00  -0.00    -0.08  -0.00   0.06
     9   1     0.37  -0.02  -0.28     0.21  -0.02  -0.14    -0.21   0.02   0.14
    10   1     0.37   0.02   0.28    -0.21  -0.02  -0.14     0.21   0.02   0.14
    11   1    -0.01  -0.00   0.00    -0.00   0.50  -0.35     0.00  -0.49   0.34

 -------------------
 - Thermochemistry -
 -------------------
 Temperature   298.150 Kelvin.  Pressure   1.00000 Atm.
 Atom     1 has atomic number  6 and mass  12.00000
 Atom     2 has atomic number  1 and mass   1.00783
 Atom     3 has atomic number  1 and mass   1.00783
 Atom     4 has atomic number  1 and mass   1.00783
 Atom     5 has atomic number  6 and mass  12.00000
 Atom     6 has atomic number  6 and mass  12.00000
 Atom     7 has atomic number  1 and mass   1.00783
 Atom     8 has atomic number  1 and mass   1.00783
 Atom     9 has atomic number  1 and mass   1.00783
 Atom    10 has atomic number  1 and mass   1.00783
 Atom    11 has atomic number  1 and mass   1.00783
 Molecular mass:    44.06260 amu.
 Principal axes and moments of inertia in atomic units:
                           1         2         3
     Eigenvalues --    61.62898 216.20266 243.85791
           X           -0.00000   0.00000   1.00000
           Y            1.00000   0.00000   0.00000
           Z           -0.00000   1.00000   0.00000
 This molecule is an asymmetric top.
 Rotational symmetry number  2.
 Rotational temperatures (Kelvin)      1.40541     0.40061     0.35518
 Rotational constants (GHZ):          29.28397     8.34745     7.40079
 Zero-point vibrational energy     269420.1 (Joules/Mol)
                                   64.39296 (Kcal/Mol)
 Warning -- explicit consideration of   3 degrees of freedom as
           vibrations may cause significant error
 Vibrational temperatures:    330.03   403.63   526.27  1084.65  1266.37
          (Kelvin)           1301.69  1332.89  1538.23  1680.70  1726.49
                             1879.34  1948.81  2002.83  2021.47  2100.59
                             2104.17  2115.18  2126.85  2137.86  4337.09
                             4339.53  4344.89  4374.23  4433.97  4448.27
                             4449.19  4452.41
 
 Zero-point correction=                           0.102617 (Hartree/Particle)
 Thermal correction to Energy=                    0.107134
 Thermal correction to Enthalpy=                  0.108078
 Thermal correction to Gibbs Free Energy=         0.077630
 Sum of electronic and zero-point Energies=           -119.041456
 Sum of electronic and thermal Energies=              -119.036938
 Sum of electronic and thermal Enthalpies=            -119.035994
 Sum of electronic and thermal Free Energies=         -119.066442
 
                     E (Thermal)             CV                S
                      KCal/Mol        Cal/Mol-Kelvin    Cal/Mol-Kelvin
 Total                   67.228             14.862             64.083
 Electronic               0.000              0.000              0.000
 Translational            0.889              2.981             37.275
 Rotational               0.889              2.981             21.323
 Vibrational             65.450              8.900              5.484
 Vibration     1          0.652              1.796              1.884
 Vibration     2          0.680              1.710              1.530
 Vibration     3          0.739              1.543              1.097
                       Q            Log10(Q)             Ln(Q)
 Total Bot       0.196102D-35        -35.707519        -82.219600
 Total V=0       0.311065D+12         11.492852         26.463269
 Vib (Bot)       0.167192D-46        -46.776785       -107.707527
 Vib (Bot)    1  0.858890D+00         -0.066063         -0.152115
 Vib (Bot)    2  0.685131D+00         -0.164227         -0.378146
 Vib (Bot)    3  0.499162D+00         -0.301758         -0.694824
 Vib (V=0)       0.265207D+01          0.423586          0.975342
 Vib (V=0)    1  0.149383D+01          0.174300          0.401341
 Vib (V=0)    2  0.134818D+01          0.129747          0.298753
 Vib (V=0)    3  0.120651D+01          0.081533          0.187736
 Electronic      0.100000D+01          0.000000          0.000000
 Translational   0.114963D+08          7.060559         16.257538
 Rotational      0.102025D+05          4.008707          9.230389
 ***** Axes restored to original set *****
 -------------------------------------------------------------------
 Center     Atomic                   Forces (Hartrees/Bohr)
 Number     Number              X              Y              Z
 -------------------------------------------------------------------
      1        6          -0.000012776    0.000051462   -0.000024011
      2        1           0.000028396   -0.000074654   -0.000130195
      3        1          -0.000075189   -0.000036013    0.000034258
      4        1           0.000078699    0.000006483    0.000043455
      5        6           0.000018977   -0.000091287    0.000104271
      6        6          -0.000001664    0.000017999   -0.000055329
      7        1          -0.000058705    0.000018239   -0.000040317
      8        1           0.000045160    0.000046921   -0.000034110
      9        1          -0.000068161   -0.000057177    0.000014450
     10        1           0.000085728   -0.000014682    0.000023647
     11        1          -0.000040465    0.000132710    0.000063881
 -------------------------------------------------------------------
 Cartesian Forces:  Max     0.000132710 RMS     0.000059367
 FormGI is forming the generalized inverse of G from B-inverse, IUseBI=4.

 GradGradGradGradGradGradGradGradGradGradGradGradGradGradGradGradGradGrad
 Berny optimization.
 Internal  Forces:  Max     0.000145345 RMS     0.000050623
 Search for a local minimum.
 Step number   1 out of a maximum of    2
 All quantities printed in internal units (Hartrees-Bohrs-Radians)
 Second derivative matrix not updated -- analytic derivatives used.
 ITU=  0
     Eigenvalues ---    0.00241   0.00287   0.03526   0.03830   0.04361
     Eigenvalues ---    0.04420   0.04457   0.04494   0.07111   0.10252
     Eigenvalues ---    0.11777   0.12160   0.12788   0.14157   0.14891
     Eigenvalues ---    0.16222   0.21370   0.29235   0.30249   0.32280
     Eigenvalues ---    0.33002   0.33135   0.33141   0.33297   0.33397
     Eigenvalues ---    0.33959   0.34110
 Angle between quadratic step and forces=  29.91 degrees.
 Linear search not attempted -- first point.
 Iteration  1 RMS(Cart)=  0.00034186 RMS(Int)=  0.00000009
 Iteration  2 RMS(Cart)=  0.00000011 RMS(Int)=  0.00000003
 ClnCor:  largest displacement from symmetrization is 9.36D-09 for atom     9.
 Variable       Old X    -DE/DX   Delta X   Delta X   Delta X     New X
                                 (Linear)    (Quad)   (Total)
    R1        2.08354  -0.00015   0.00000  -0.00040  -0.00040   2.08313
    R2        2.08620  -0.00009   0.00000  -0.00026  -0.00026   2.08593
    R3        2.08620  -0.00009   0.00000  -0.00026  -0.00026   2.08593
    R4        2.89271  -0.00007   0.00000  -0.00017  -0.00017   2.89253
    R5        2.89271  -0.00007   0.00000  -0.00017  -0.00017   2.89253
    R6        2.08878  -0.00007   0.00000  -0.00023  -0.00023   2.08855
    R7        2.08878  -0.00007   0.00000  -0.00023  -0.00023   2.08855
    R8        2.08620  -0.00009   0.00000  -0.00026  -0.00026   2.08593
    R9        2.08620  -0.00009   0.00000  -0.00026  -0.00026   2.08593
   R10        2.08354  -0.00015   0.00000  -0.00040  -0.00040   2.08313
    A1        1.87808   0.00001   0.00000   0.00004   0.00004   1.87812
    A2        1.87808   0.00001   0.00000   0.00004   0.00004   1.87812
    A3        1.94930  -0.00008   0.00000  -0.00058  -0.00058   1.94872
    A4        1.87339  -0.00003   0.00000  -0.00009  -0.00009   1.87330
    A5        1.94077   0.00004   0.00000   0.00030   0.00030   1.94107
    A6        1.94077   0.00004   0.00000   0.00030   0.00030   1.94107
    A7        1.97298  -0.00004   0.00000  -0.00001  -0.00001   1.97297
    A8        1.90969   0.00001   0.00000  -0.00003  -0.00003   1.90966
    A9        1.90969   0.00001   0.00000  -0.00003  -0.00003   1.90966
   A10        1.90969   0.00001   0.00000  -0.00003  -0.00003   1.90966
   A11        1.90969   0.00001   0.00000  -0.00003  -0.00003   1.90966
   A12        1.84791  -0.00000   0.00000   0.00014   0.00014   1.84805
   A13        1.94077   0.00004   0.00000   0.00030   0.00030   1.94107
   A14        1.94077   0.00004   0.00000   0.00030   0.00030   1.94107
   A15        1.94930  -0.00008   0.00000  -0.00058  -0.00058   1.94872
   A16        1.87339  -0.00003   0.00000  -0.00009  -0.00009   1.87330
   A17        1.87808   0.00001   0.00000   0.00004   0.00004   1.87812
   A18        1.87808   0.00001   0.00000   0.00004   0.00004   1.87812
    D1        3.14159   0.00000   0.00000  -0.00000   0.00000   3.14159
    D2       -1.00865  -0.00000   0.00000  -0.00007  -0.00007  -1.00872
    D3        1.00865   0.00000   0.00000   0.00007   0.00007   1.00872
    D4       -1.04330  -0.00001   0.00000  -0.00014  -0.00014  -1.04345
    D5        1.08964  -0.00001   0.00000  -0.00021  -0.00021   1.08942
    D6        3.10694  -0.00000   0.00000  -0.00007  -0.00007   3.10687
    D7        1.04330   0.00001   0.00000   0.00014   0.00014   1.04345
    D8       -3.10694   0.00000   0.00000   0.00007   0.00007  -3.10687
    D9       -1.08964   0.00001   0.00000   0.00021   0.00021  -1.08942
   D10        1.04330   0.00001   0.00000   0.00014   0.00014   1.04345
   D11       -1.04330  -0.00001   0.00000  -0.00014  -0.00014  -1.04345
   D12        3.14159  -0.00000   0.00000  -0.00000   0.00000   3.14159
   D13       -1.08964   0.00001   0.00000   0.00021   0.00021  -1.08942
   D14        3.10694  -0.00000   0.00000  -0.00007  -0.00007   3.10687
   D15        1.00865   0.00000   0.00000   0.00007   0.00007   1.00872
   D16       -3.10694   0.00000   0.00000   0.00007   0.00007  -3.10687
   D17        1.08964  -0.00001   0.00000  -0.00021  -0.00021   1.08942
   D18       -1.00865  -0.00000   0.00000  -0.00007  -0.00007  -1.00872
         Item               Value     Threshold  Converged?
 Maximum Force            0.000145     0.000450     YES
 RMS     Force            0.000051     0.000300     YES
 Maximum Displacement     0.001250     0.001800     YES
 RMS     Displacement     0.000342     0.001200     YES
 Predicted change in Energy=-2.179247D-07
 Optimization completed.
    -- Stationary point found.
                           ----------------------------
                           !   Optimized Parameters   !
                           ! (Angstroms and Degrees)  !
 --------------------------                            --------------------------
 ! Name  Definition              Value          Derivative Info.                !
 --------------------------------------------------------------------------------
 ! R1    R(1,2)                  1.1026         -DE/DX =   -0.0001              !
 ! R2    R(1,3)                  1.104          -DE/DX =   -0.0001              !
 ! R3    R(1,4)                  1.104          -DE/DX =   -0.0001              !
 ! R4    R(1,5)                  1.5308         -DE/DX =   -0.0001              !
 ! R5    R(5,6)                  1.5308         -DE/DX =   -0.0001              !
 ! R6    R(5,7)                  1.1053         -DE/DX =   -0.0001              !
 ! R7    R(5,8)                  1.1053         -DE/DX =   -0.0001              !
 ! R8    R(6,9)                  1.104          -DE/DX =   -0.0001              !
 ! R9    R(6,10)                 1.104          -DE/DX =   -0.0001              !
 ! R10   R(6,11)                 1.1026         -DE/DX =   -0.0001              !
 ! A1    A(2,1,3)              107.606          -DE/DX =    0.0                 !
 ! A2    A(2,1,4)              107.606          -DE/DX =    0.0                 !
 ! A3    A(2,1,5)              111.6868         -DE/DX =   -0.0001              !
 ! A4    A(3,1,4)              107.3374         -DE/DX =    0.0                 !
 ! A5    A(3,1,5)              111.1981         -DE/DX =    0.0                 !
 ! A6    A(4,1,5)              111.1981         -DE/DX =    0.0                 !
 ! A7    A(1,5,6)              113.0436         -DE/DX =    0.0                 !
 ! A8    A(1,5,7)              109.4172         -DE/DX =    0.0                 !
 ! A9    A(1,5,8)              109.4172         -DE/DX =    0.0                 !
 ! A10   A(6,5,7)              109.4172         -DE/DX =    0.0                 !
 ! A11   A(6,5,8)              109.4172         -DE/DX =    0.0                 !
 ! A12   A(7,5,8)              105.8772         -DE/DX =    0.0                 !
 ! A13   A(5,6,9)              111.1981         -DE/DX =    0.0                 !
 ! A14   A(5,6,10)             111.1981         -DE/DX =    0.0                 !
 ! A15   A(5,6,11)             111.6868         -DE/DX =   -0.0001              !
 ! A16   A(9,6,10)             107.3374         -DE/DX =    0.0                 !
 ! A17   A(9,6,11)             107.606          -DE/DX =    0.0                 !
 ! A18   A(10,6,11)            107.606          -DE/DX =    0.0                 !
 ! D1    D(2,1,5,6)            180.0            -DE/DX =    0.0                 !
 ! D2    D(2,1,5,7)            -57.7916         -DE/DX =    0.0                 !
 ! D3    D(2,1,5,8)             57.7916         -DE/DX =    0.0                 !
 ! D4    D(3,1,5,6)            -59.7769         -DE/DX =    0.0                 !
 ! D5    D(3,1,5,7)             62.4315         -DE/DX =    0.0                 !
 ! D6    D(3,1,5,8)            178.0147         -DE/DX =    0.0                 !
 ! D7    D(4,1,5,6)             59.7769         -DE/DX =    0.0                 !
 ! D8    D(4,1,5,7)           -178.0147         -DE/DX =    0.0                 !
 ! D9    D(4,1,5,8)            -62.4315         -DE/DX =    0.0                 !
 ! D10   D(1,5,6,9)             59.7769         -DE/DX =    0.0                 !
 ! D11   D(1,5,6,10)           -59.7769         -DE/DX =    0.0                 !
 ! D12   D(1,5,6,11)           180.0            -DE/DX =    0.0                 !
 ! D13   D(7,5,6,9)            -62.4315         -DE/DX =    0.0                 !
 ! D14   D(7,5,6,10)           178.0147         -DE/DX =    0.0                 !
 ! D15   D(7,5,6,11)            57.7916         -DE/DX =    0.0                 !
 ! D16   D(8,5,6,9)           -178.0147         -DE/DX =    0.0                 !
 ! D17   D(8,5,6,10)            62.4315         -DE/DX =    0.0                 !
 ! D18   D(8,5,6,11)           -57.7916         -DE/DX =    0.0                 !
 --------------------------------------------------------------------------------
 GradGradGradGradGradGradGradGradGradGradGradGradGradGradGradGradGradGrad


 ----------------------------------------------------------------------

 Electric dipole moment (input orientation):
 (Debye = 10**-18 statcoulomb cm , SI units = C m)
                  (au)            (Debye)         (10**-30 SI)
   Tot        0.259000D-01      0.658313D-01      0.219590D+00
   x          0.351381D-02      0.893122D-02      0.297913D-01
   y         -0.169028D-01     -0.429628D-01     -0.143308D+00
   z          0.193070D-01      0.490734D-01      0.163691D+00

 Dipole polarizability, Alpha (input orientation).
 (esu units = cm**3 , SI units = C**2 m**2 J**-1)
 Alpha(0;0):
               (au)            (10**-24 esu)      (10**-40 SI)
   iso        0.361583D+02      0.535811D+01      0.596170D+01
   aniso      0.519468D+01      0.769772D+00      0.856487D+00
   xx         0.341427D+02      0.505943D+01      0.562937D+01
   yx        -0.107748D+01     -0.159666D+00     -0.177652D+00
   yy         0.372581D+02      0.552108D+01      0.614303D+01
   zx        -0.761515D+00     -0.112845D+00     -0.125557D+00
   zy         0.204905D+01      0.303638D+00      0.337843D+00
   zz         0.370741D+02      0.549382D+01      0.611269D+01

 ----------------------------------------------------------------------

 Dipole orientation:
     6         -1.44093365         -1.02243570         -1.18110496
     1         -1.93216821          0.61566252          0.00904143
     1          0.14328769         -0.45430594         -2.41386100
     1         -3.07635924         -1.41981693         -2.41386100
     6         -0.74787489         -3.33354820          0.41456962
     6         -0.05481612         -5.64466070         -1.18110496
     1          0.84871025         -2.85476263          1.67341746
     1         -2.34446003         -3.81233378          1.67341746
     1          1.58060946         -5.24727947         -2.41386100
     1         -1.63903746         -6.21279046         -2.41386100
     1          0.43641844         -7.28275893          0.00904143

 Electric dipole moment (dipole orientation):
 (Debye = 10**-18 statcoulomb cm , SI units = C m)
                  (au)            (Debye)         (10**-30 SI)
   Tot        0.259000D-01      0.658313D-01      0.219590D+00
   x          0.000000D+00      0.000000D+00      0.000000D+00
   y          0.000000D+00      0.000000D+00      0.000000D+00
   z          0.259000D-01      0.658313D-01      0.219590D+00

 Dipole polarizability, Alpha (dipole orientation).
 (esu units = cm**3 , SI units = C**2 m**2 J**-1)
 Alpha(0;0):
               (au)            (10**-24 esu)      (10**-40 SI)
   iso        0.361583D+02      0.535811D+01      0.596170D+01
   aniso      0.519468D+01      0.769772D+00      0.856487D+00
   xx         0.342728D+02      0.507870D+01      0.565082D+01
   yx        -0.157764D+01     -0.233782D+00     -0.260117D+00
   yy         0.390606D+02      0.578818D+01      0.644022D+01
   zx         0.000000D+00      0.000000D+00      0.000000D+00
   zy         0.000000D+00      0.000000D+00      0.000000D+00
   zz         0.351416D+02      0.520745D+01      0.579407D+01

 ----------------------------------------------------------------------
 Unable to Open any file for archive entry.
 1\1\GINC-LOCALHOST\Freq\RB3LYP\CC-pVDZ\C3H8\USER\21-Mar-2026\0\\#N Geo
 m=AllCheck Guess=TCheck SCRF=Check GenChk RB3LYP/CC-pVDZ Freq\\Propane
 -dft-cc-pvdz\\0,1\C,-0.8667083427,-0.0398099574,-0.7155621649\H,-0.994
 5020495,0.1913084936,0.3549012957\H,-0.1104670578,0.6557296667,-1.1193
 79442\H,-1.8221818209,0.1830506987,-1.2216730257\C,-0.4513048947,-1.49
 68364124,-0.9340162716\C,-0.2650163209,-1.8517277782,-2.4113642326\H,0
 .4878901872,-1.6971846078,-0.3867114469\H,-1.2097483565,-2.1659765188,
 -0.4881638234\H,0.5134519282,-1.2231217863,-2.8778257368\H,-1.19826283
 49,-1.6958007543,-2.9801193206\H,0.0336645109,-2.904882325,-2.54287184
 36\\Version=ES64L-G16RevC.02\State=1-A1\HF=-119.1440724\RMSD=9.556e-10
 \RMSF=5.937e-05\ZeroPoint=0.1026167\Thermal=0.107134\ETot=-119.0369384
 \HTot=-119.0359943\GTot=-119.066442\Dipole=0.0035138,-0.0169028,0.0193
 07\DipoleDeriv=0.1169497,0.0185086,0.0086715,0.0170964,0.0651515,-0.02
 07182,0.0151971,-0.0443493,0.0732096,0.0559035,0.0238567,0.0283536,0.0
 223583,-0.0049985,-0.054442,0.0352776,-0.0795161,-0.158698,-0.0543493,
 -0.0966251,0.0586862,-0.0604763,-0.072123,0.0318037,0.0606559,0.065398
 7,0.0271606,-0.1097118,0.0622153,-0.0800535,0.0299639,0.0009359,-0.000
 19,-0.1000323,0.0314317,0.0094642,0.1604461,-0.0030962,-0.0075027,-0.0
 030962,0.16448,0.0271468,-0.0075027,0.0271468,0.1592476,0.1172893,0.01
 57685,0.0156514,0.0171807,0.0700699,-0.0448567,0.0091259,-0.0212255,0.
 0679517,-0.1186691,0.0650306,-0.1014514,0.0510518,-0.0098095,-0.001932
 1,-0.0865155,0.0030277,-0.0625026,-0.0565783,-0.0897161,0.0859218,-0.0
 757374,-0.0922885,0.0412081,0.0709859,0.0362483,-0.0421143,-0.0516792,
 -0.0831462,0.0772936,-0.099781,-0.0185648,0.0638844,0.0544737,0.023365
 6,-0.0290677,-0.1050989,0.0241509,-0.1069246,0.0368883,0.0528785,0.022
 0627,-0.0660956,-0.0026351,-0.0470913,0.045498,0.063053,0.021354,0.064
 5514,-0.1557314,-0.0639667,0.0144299,-0.0388927,0.0024404\Polar=34.142
 7247,-1.0774786,37.2581156,-0.7615152,2.0490514,37.0741079\Quadrupole=
 0.2243295,-0.1097978,-0.1145317,0.107226,0.0497444,-0.0997546\PG=C02V 
 [C2(C1),SGV(C2H2),SGV'(H2),X(H4)]\NImag=0\\0.54880481,0.02192670,0.477
 45628,0.00184187,-0.00873213,0.56449856,-0.04823420,0.00595120,0.02839
 519,0.04837731,0.00581170,-0.05544847,-0.04847860,-0.00793053,0.060921
 21,0.02903977,-0.05081282,-0.29603031,-0.03186361,0.05582299,0.3195208
 8,-0.17161157,-0.11206205,0.06677055,-0.00252302,-0.00104664,0.0004369
 2,0.18332752,-0.11054301,-0.14381729,0.05837527,0.00507809,0.00367740,
 -0.00199771,0.12120642,0.15990895,0.06688346,0.05929674,-0.08099572,0.
 02150165,0.01914550,-0.01037637,-0.07374889,-0.06476428,0.08359182,-0.
 24098278,0.04198987,-0.10386699,0.00379983,-0.00127808,0.00219398,-0.0
 1829705,0.00434954,-0.01038033,0.26038768,0.04057941,-0.05425545,0.021
 43083,-0.00566589,0.00016446,-0.00225892,-0.01646904,0.00338920,-0.010
 02886,-0.04799557,0.06058464,-0.10448167,0.02232644,-0.10118635,-0.026
 89674,0.00566243,-0.01318627,0.01093078,-0.00289980,0.00531104,0.11483
 074,-0.02407259,0.10585598,-0.08618378,0.03143697,0.00336526,-0.002550
 20,0.00273406,-0.00033872,0.00656646,-0.02293118,-0.00337803,-0.007803
 97,0.02894089,0.00428101,0.57387352,0.03130609,-0.18811043,-0.01182949
 ,0.00074521,-0.00480959,0.00136548,0.00671069,-0.02051929,-0.00277275,
 0.00113138,-0.00664002,-0.00075403,0.02617967,0.49470362,0.00397001,-0
 .01401946,-0.07895187,0.00885136,-0.03191460,-0.00245713,-0.00363253,0
 .01194014,0.00058566,-0.00393148,0.01519466,0.00107683,0.01474798,-0.0
 3476673,0.49585135,-0.00148331,0.00331958,0.01014609,-0.00013733,0.001
 79542,0.00040695,0.00041852,-0.00085489,-0.00108030,0.00030439,-0.0000
 3778,0.00113119,-0.07888577,0.00289525,0.01313077,0.55459709,0.0050435
 1,-0.01060507,-0.03520739,0.00195794,-0.00634048,-0.00169603,0.0001052
 2,0.00156158,-0.00052612,-0.00080134,0.00154558,0.00003228,0.00276437,
 -0.08239201,-0.02273522,-0.00072626,0.56136276,0.00218012,-0.00636019,
 -0.00705187,-0.00034404,0.00102355,0.00141010,-0.00040831,0.00137782,0
 .00088982,-0.00044902,0.00141729,0.00101996,0.01373551,-0.02492518,-0.
 19196831,0.00959255,-0.01738777,0.47479980,-0.00778701,0.00137665,-0.0
 0373526,0.00004224,0.00013702,0.00050360,0.00102506,0.00025680,0.00005
 219,0.00118327,0.00204584,0.00072057,-0.23281579,0.03659294,-0.1055634
 2,0.00391712,-0.00086604,0.00316018,0.25102118,0.02872429,-0.00740484,
 0.01532705,-0.00036961,0.00120997,-0.00029369,-0.00048450,0.00120719,0
 .00044971,0.00205075,-0.00625269,-0.00092178,0.03512839,-0.05382417,0.
 02136675,-0.00692023,0.00055043,-0.00431295,-0.04257629,0.06064287,0.0
 0479013,-0.00131052,0.00195018,0.00028810,0.00040638,0.00055399,-0.000
 31190,0.00032691,-0.00006316,0.00043334,-0.00128248,0.00084592,-0.1039
 9859,0.02188639,-0.10577697,-0.02811668,0.00476942,-0.01770921,0.11496
 554,-0.02090445,0.11834363,0.00644443,0.00690972,-0.00397380,0.0003336
 6,-0.00072191,-0.00032755,0.00100347,0.00245501,-0.00005044,0.00097960
 ,-0.00043868,-0.00017362,-0.17049541,-0.10616002,0.06907625,-0.0029501
 7,-0.00180113,0.00109879,-0.01947899,-0.01606703,0.01044098,0.18180220
 ,-0.02235916,-0.02106850,0.01197353,-0.00013456,0.00101547,-0.00051397
 ,0.00241900,-0.00602430,-0.00110972,0.00029525,0.00123392,0.00043470,-
 0.10469547,-0.13660819,0.06020792,0.00617429,0.00443184,-0.00398632,0.
 00341463,0.00298088,-0.00253112,0.11435215,0.15259073,-0.00362155,-0.0
 0353754,0.00138241,-0.00048506,0.00013674,0.00045707,0.00038055,-0.001
 26963,0.00079733,0.00022451,0.00043423,-0.00004444,0.06751142,0.059688
 28,-0.08531333,0.02349801,0.01907993,-0.01472333,-0.01037463,-0.009443
 46,0.00588708,-0.07726795,-0.06346801,0.09561475,0.00004464,-0.0004419
 1,-0.00045952,0.00020815,0.00024959,-0.00017480,0.00007161,0.00058297,
 0.00025017,-0.00007598,-0.00005842,0.00002720,-0.00286032,-0.00184544,
 0.00086990,-0.17630211,-0.10592156,0.07526939,0.00088018,0.00051499,0.
 00018786,0.00148916,0.00041508,0.00074953,0.18840992,0.00090050,0.0013
 1357,-0.00024211,-0.00003848,0.00011839,0.00016613,-0.00037459,0.00021
 028,0.00014960,0.00000654,-0.00002626,-0.00001338,0.00601632,0.0035601
 8,-0.00319649,-0.10649555,-0.13196150,0.06118447,0.00004598,0.00014602
 ,0.00064574,0.00076696,0.00068915,-0.00174534,0.11688996,0.13981690,-0
 .00019600,0.00152618,0.00151172,-0.00044081,0.00003470,0.00022523,-0.0
 0025119,-0.00103940,0.00023447,-0.00001737,-0.00015589,0.00000082,0.02
 388685,0.01924425,-0.01406702,0.07414672,0.05992769,-0.08816097,-0.000
 46716,0.00042634,0.00114288,0.00076607,-0.00204288,-0.00640180,-0.0835
 7378,-0.06614781,0.09860148,0.00060529,-0.00016535,0.00041276,0.000230
 19,-0.00018344,0.00005932,-0.00009330,0.00003722,-0.00002578,0.0001502
 4,-0.00049153,-0.00031613,0.00374332,-0.00043793,0.00287055,-0.2352535
 2,0.03189565,-0.11147768,0.00162689,0.00045135,0.00116412,0.00097019,-
 0.00009348,-0.00051574,-0.01836247,0.00412549,-0.01088805,0.25323370,-
 0.00131120,0.00073644,-0.00014267,0.00009631,0.00003435,0.00023848,-0.
 00004172,-0.00001185,-0.00003061,0.00034342,0.00010584,0.00003483,-0.0
 0646732,-0.00000198,-0.00349904,0.03236106,-0.05106446,0.01888652,0.00
 006836,0.00049574,-0.00167487,0.00036817,0.00006010,0.00046922,-0.0157
 3322,0.00244142,-0.01001843,-0.03557740,0.05066799,-0.00075898,0.00137
 799,0.00152820,0.00036379,0.00023065,0.00028723,0.00008340,-0.00012207
 ,0.00000374,0.00075181,-0.00082794,0.00026029,-0.02861340,0.00472178,-
 0.01710850,-0.10985324,0.01832621,-0.11010660,0.00129134,-0.00189793,-
 0.00634613,0.00017332,0.00056536,0.00113879,0.01126340,-0.00271468,0.0
 0632425,0.12188365,-0.01959341,0.12292660,0.00038347,-0.00024137,0.001
 10384,0.00045338,0.00043282,0.00006414,0.00011229,0.00036303,-0.000023
 71,0.00035478,-0.00040924,-0.00005333,-0.00258807,0.00288215,-0.000389
 39,-0.06422492,0.06834962,0.00764251,0.00038584,-0.00045212,0.00015709
 ,-0.00009815,0.00021225,-0.00009909,0.00649722,-0.02184312,-0.00296527
 ,-0.00685053,0.02589356,0.00341491,0.06557470,-0.00007885,0.00120377,-
 0.00247428,0.00031032,-0.00054271,-0.00001993,0.00003721,0.00041813,0.
 00019078,-0.00009175,0.00015078,0.00017089,0.00089330,-0.00535813,0.00
 142207,0.06848912,-0.28708867,-0.02691724,-0.00049590,0.00024860,-0.00
 033142,0.00033675,0.00069890,-0.00034441,0.00534795,-0.01630815,-0.001
 75474,0.00043942,-0.00346360,-0.00006596,-0.07518759,0.31004108,0.0003
 5284,0.00024530,-0.00665495,0.00063018,-0.00206975,-0.00040443,-0.0002
 4940,0.00007274,0.00002135,0.00021081,0.00014967,0.00004621,0.00880069
 ,-0.03185802,-0.00187072,0.00699793,-0.02458302,-0.04839938,-0.0005529
 6,0.00020443,0.00117177,0.00023795,0.00047052,0.00120545,-0.00440935,0
 .01191387,0.00058893,-0.00316700,0.01533000,0.00109213,-0.00885171,0.0
 3012424,0.05320362\\0.00001278,-0.00005146,0.00002401,-0.00002840,0.00
 007465,0.00013019,0.00007519,0.00003601,-0.00003426,-0.00007870,-0.000
 00648,-0.00004345,-0.00001898,0.00009129,-0.00010427,0.00000166,-0.000
 01800,0.00005533,0.00005871,-0.00001824,0.00004032,-0.00004516,-0.0000
 4692,0.00003411,0.00006816,0.00005718,-0.00001445,-0.00008573,0.000014
 68,-0.00002365,0.00004046,-0.00013271,-0.00006388\\\@
 The archive entry for this job was punched.


 GARLIC THEN HAVE POWER TO SAVE FROM DEATH
 BEAR WITH IT THOUGH IT MAKETH UNSAVORY BREATH,
 AND SCORN NOT GARLIC LIKE SOME THAT THINK
 IT ONLY MAKETH MEN WINK AND DRINK AND STINK.
   --  SIR JOHN HARRINGTON,
       "THE ENGLISHMAN'S DOCTOR", 1609
 Job cpu time:       0 days  0 hours  1 minutes 59.0 seconds.
 Elapsed time:       0 days  0 hours  0 minutes  5.7 seconds.
 File lengths (MBytes):  RWF=     10 Int=      0 D2E=      0 Chk=      2 Scr=      1
 Normal termination of Gaussian 16 at Sat Mar 21 10:17:18 2026.
