 Entering Gaussian System, Link 0=g16
 Input=Propane-HF-ccpvdz.gjf
 Output=Propane-HF-ccpvdz.log
 Initial command:
 /home/user/gaussian16_I/g16/l1.exe "/home/user/gaussian16_I/temp/Gau-3566872.inp" -scrdir="/home/user/gaussian16_I/temp/"
 Entering Link 1 = /home/user/gaussian16_I/g16/l1.exe PID=   3566873.
  
 Copyright (c) 1988-2021, Gaussian, Inc.  All Rights Reserved.
  
 This is part of the Gaussian(R) 16 program.  It is based on
 the Gaussian(R) 09 system (copyright 2009, Gaussian, Inc.),
 the Gaussian(R) 03 system (copyright 2003, Gaussian, Inc.),
 the Gaussian(R) 98 system (copyright 1998, Gaussian, Inc.),
 the Gaussian(R) 94 system (copyright 1995, Gaussian, Inc.),
 the Gaussian 92(TM) system (copyright 1992, Gaussian, Inc.),
 the Gaussian 90(TM) system (copyright 1990, Gaussian, Inc.),
 the Gaussian 88(TM) system (copyright 1988, Gaussian, Inc.),
 the Gaussian 86(TM) system (copyright 1986, Carnegie Mellon
 University), and the Gaussian 82(TM) system (copyright 1983,
 Carnegie Mellon University). Gaussian is a federally registered
 trademark of Gaussian, Inc.
  
 This software contains proprietary and confidential information,
 including trade secrets, belonging to Gaussian, Inc.
  
 This software is provided under written license and may be
 used, copied, transmitted, or stored only in accord with that
 written license.
  
 The following legend is applicable only to US Government
 contracts under FAR:
  
                    RESTRICTED RIGHTS LEGEND
  
 Use, reproduction and disclosure by the US Government is
 subject to restrictions as set forth in subparagraphs (a)
 and (c) of the Commercial Computer Software - Restricted
 Rights clause in FAR 52.227-19.
  
 Gaussian, Inc.
 340 Quinnipiac St., Bldg. 40, Wallingford CT 06492
  
  
 ---------------------------------------------------------------
 Warning -- This program may not be used in any manner that
 competes with the business of Gaussian, Inc. or will provide
 assistance to any competitor of Gaussian, Inc.  The licensee
 of this program is prohibited from giving any competitor of
 Gaussian, Inc. access to this program.  By using this program,
 the user acknowledges that Gaussian, Inc. is engaged in the
 business of creating and licensing software in the field of
 computational chemistry and represents and warrants to the
 licensee that it is not a competitor of Gaussian, Inc. and that
 it will not use this program in any manner prohibited above.
 ---------------------------------------------------------------
  

 Cite this work as:
 Gaussian 16, Revision C.02,
 M. J. Frisch, G. W. Trucks, H. B. Schlegel, G. E. Scuseria, 
 M. A. Robb, J. R. Cheeseman, G. Scalmani, V. Barone, 
 G. A. Petersson, H. Nakatsuji, X. Li, M. Caricato, A. V. Marenich, 
 J. Bloino, B. G. Janesko, R. Gomperts, B. Mennucci, H. P. Hratchian, 
 J. V. Ortiz, A. F. Izmaylov, J. L. Sonnenberg, D. Williams-Young, 
 F. Ding, F. Lipparini, F. Egidi, J. Goings, B. Peng, A. Petrone, 
 T. Henderson, D. Ranasinghe, V. G. Zakrzewski, J. Gao, N. Rega, 
 G. Zheng, W. Liang, M. Hada, M. Ehara, K. Toyota, R. Fukuda, 
 J. Hasegawa, M. Ishida, T. Nakajima, Y. Honda, O. Kitao, H. Nakai, 
 T. Vreven, K. Throssell, J. A. Montgomery, Jr., J. E. Peralta, 
 F. Ogliaro, M. J. Bearpark, J. J. Heyd, E. N. Brothers, K. N. Kudin, 
 V. N. Staroverov, T. A. Keith, R. Kobayashi, J. Normand, 
 K. Raghavachari, A. P. Rendell, J. C. Burant, S. S. Iyengar, 
 J. Tomasi, M. Cossi, J. M. Millam, M. Klene, C. Adamo, R. Cammi, 
 J. W. Ochterski, R. L. Martin, K. Morokuma, O. Farkas, 
 J. B. Foresman, and D. J. Fox, Gaussian, Inc., Wallingford CT, 2019.
 
 ******************************************
 Gaussian 16:  ES64L-G16RevC.02  7-Dec-2021
                21-Mar-2026 
 ******************************************
 %mem=10GB
 %CPU=0-23
 SetSPE:  set environment variable "OMP_PROC_BIND" = "true"
 SetSPE:  set environment variable "OMP_PLACES" = "{0},{1},{2},{3},{4},{5},{6},{7},{8},{9},{10},{11},{12},{13},{14},{15},{16},{17},{18},{19},{20},{21},{22},{23}"
 Will use up to   24 processors via shared memory.
 %chk=Propane-HF-ccpvdz.chk
 -----------------------------------------------
 # opt freq hf/cc-pvdz pop=nbo geom=connectivity
 -----------------------------------------------
 1/18=20,19=15,38=1,57=2/1,3;
 2/9=110,12=2,17=6,18=5,40=1/2;
 3/5=16,11=9,25=1,30=1,71=1/1,2,3;
 4//1;
 5/5=2,38=5/2;
 6/7=2,8=2,9=2,10=2,28=1,40=1/1,7;
 7//1,2,3,16;
 1/18=20,19=15/3(2);
 2/9=110/2;
 99//99;
 2/9=110/2;
 3/5=16,11=9,25=1,30=1,71=1/1,2,3;
 4/5=5,16=3,69=1/1;
 5/5=2,38=5/2;
 7//1,2,3,16;
 1/18=20,19=15/3(-5);
 2/9=110/2;
 6/7=2,8=2,9=2,10=2,19=2,28=1,40=1/1,7;
 99/9=1/99;
 ------------------
 Propane-HF-cc-pvdz
 ------------------
 Symbolic Z-matrix:
 Charge =  0 Multiplicity = 1
 C                    -0.86401  -0.04457  -0.73872 
 H                    -0.98605   0.17217   0.30197 
 H                    -0.10708   0.59076  -1.14898 
 H                    -1.78856   0.12643  -1.24947 
 C                    -0.44711  -1.51703  -0.91095 
 C                    -0.27146  -1.82897  -2.40876 
 H                     0.47744  -1.68803  -0.4002 
 H                    -1.20404  -2.15236  -0.50069 
 H                     0.48547  -1.19364  -2.81903 
 H                    -1.19601  -1.65797  -2.91952 
 H                     0.01821  -2.85204  -2.52844 
 

 GradGradGradGradGradGradGradGradGradGradGradGradGradGradGradGradGradGrad
 Berny optimization.
 Initialization pass.
                           ----------------------------
                           !    Initial Parameters    !
                           ! (Angstroms and Degrees)  !
 --------------------------                            --------------------------
 ! Name  Definition              Value          Derivative Info.                !
 --------------------------------------------------------------------------------
 ! R1    R(1,2)                  1.07           estimate D2E/DX2                !
 ! R2    R(1,3)                  1.07           estimate D2E/DX2                !
 ! R3    R(1,4)                  1.07           estimate D2E/DX2                !
 ! R4    R(1,5)                  1.54           estimate D2E/DX2                !
 ! R5    R(5,6)                  1.54           estimate D2E/DX2                !
 ! R6    R(5,7)                  1.07           estimate D2E/DX2                !
 ! R7    R(5,8)                  1.07           estimate D2E/DX2                !
 ! R8    R(6,9)                  1.07           estimate D2E/DX2                !
 ! R9    R(6,10)                 1.07           estimate D2E/DX2                !
 ! R10   R(6,11)                 1.07           estimate D2E/DX2                !
 ! A1    A(2,1,3)              109.4712         estimate D2E/DX2                !
 ! A2    A(2,1,4)              109.4712         estimate D2E/DX2                !
 ! A3    A(2,1,5)              109.4712         estimate D2E/DX2                !
 ! A4    A(3,1,4)              109.4712         estimate D2E/DX2                !
 ! A5    A(3,1,5)              109.4712         estimate D2E/DX2                !
 ! A6    A(4,1,5)              109.4712         estimate D2E/DX2                !
 ! A7    A(1,5,6)              109.4712         estimate D2E/DX2                !
 ! A8    A(1,5,7)              109.4712         estimate D2E/DX2                !
 ! A9    A(1,5,8)              109.4712         estimate D2E/DX2                !
 ! A10   A(6,5,7)              109.4712         estimate D2E/DX2                !
 ! A11   A(6,5,8)              109.4712         estimate D2E/DX2                !
 ! A12   A(7,5,8)              109.4712         estimate D2E/DX2                !
 ! A13   A(5,6,9)              109.4712         estimate D2E/DX2                !
 ! A14   A(5,6,10)             109.4712         estimate D2E/DX2                !
 ! A15   A(5,6,11)             109.4712         estimate D2E/DX2                !
 ! A16   A(9,6,10)             109.4712         estimate D2E/DX2                !
 ! A17   A(9,6,11)             109.4712         estimate D2E/DX2                !
 ! A18   A(10,6,11)            109.4712         estimate D2E/DX2                !
 ! D1    D(2,1,5,6)            180.0            estimate D2E/DX2                !
 ! D2    D(2,1,5,7)            -60.0            estimate D2E/DX2                !
 ! D3    D(2,1,5,8)             60.0            estimate D2E/DX2                !
 ! D4    D(3,1,5,6)            -60.0            estimate D2E/DX2                !
 ! D5    D(3,1,5,7)             60.0            estimate D2E/DX2                !
 ! D6    D(3,1,5,8)            180.0            estimate D2E/DX2                !
 ! D7    D(4,1,5,6)             60.0            estimate D2E/DX2                !
 ! D8    D(4,1,5,7)           -180.0            estimate D2E/DX2                !
 ! D9    D(4,1,5,8)            -60.0            estimate D2E/DX2                !
 ! D10   D(1,5,6,9)             60.0            estimate D2E/DX2                !
 ! D11   D(1,5,6,10)           -60.0            estimate D2E/DX2                !
 ! D12   D(1,5,6,11)           180.0            estimate D2E/DX2                !
 ! D13   D(7,5,6,9)            -60.0            estimate D2E/DX2                !
 ! D14   D(7,5,6,10)           180.0            estimate D2E/DX2                !
 ! D15   D(7,5,6,11)            60.0            estimate D2E/DX2                !
 ! D16   D(8,5,6,9)            180.0            estimate D2E/DX2                !
 ! D17   D(8,5,6,10)            60.0            estimate D2E/DX2                !
 ! D18   D(8,5,6,11)           -60.0            estimate D2E/DX2                !
 --------------------------------------------------------------------------------
 Trust Radius=3.00D-01 FncErr=1.00D-07 GrdErr=1.00D-07 EigMax=2.50D+02 EigMin=1.00D-04
 Number of steps in this run=     56 maximum allowed number of steps=    100.
 GradGradGradGradGradGradGradGradGradGradGradGradGradGradGradGradGradGrad

                          Input orientation:                          
 ---------------------------------------------------------------------
 Center     Atomic      Atomic             Coordinates (Angstroms)
 Number     Number       Type             X           Y           Z
 ---------------------------------------------------------------------
      1          6           0       -0.864010   -0.044571   -0.738716
      2          1           0       -0.986054    0.172170    0.301970
      3          1           0       -0.107082    0.590758   -1.148981
      4          1           0       -1.788560    0.126429   -1.249467
      5          6           0       -0.447108   -1.517027   -0.910954
      6          6           0       -0.271456   -1.828972   -2.408765
      7          1           0        0.477442   -1.688027   -0.400203
      8          1           0       -1.204036   -2.152356   -0.500690
      9          1           0        0.485472   -1.193642   -2.819029
     10          1           0       -1.196006   -1.657971   -2.919516
     11          1           0        0.018210   -2.852042   -2.528436
 ---------------------------------------------------------------------
                    Distance matrix (angstroms):
                    1          2          3          4          5
     1  C    0.000000
     2  H    1.070000   0.000000
     3  H    1.070000   1.747303   0.000000
     4  H    1.070000   1.747303   1.747303   0.000000
     5  C    1.540000   2.148263   2.148263   2.148263   0.000000
     6  C    2.514809   3.444314   2.732978   2.732978   1.540000
     7  H    2.148263   2.468846   2.468846   3.024610   1.070000
     8  H    2.148263   2.468846   3.024610   2.468846   1.070000
     9  H    2.732978   3.710993   2.514809   3.062243   2.148263
    10  H    2.732978   3.710993   3.062243   2.514809   2.148263
    11  H    3.444314   4.262112   3.710993   3.710993   2.148263
                    6          7          8          9         10
     6  C    0.000000
     7  H    2.148263   0.000000
     8  H    2.148263   1.747303   0.000000
     9  H    1.070000   2.468846   3.024610   0.000000
    10  H    1.070000   3.024610   2.468846   1.747303   0.000000
    11  H    1.070000   2.468846   2.468846   1.747303   1.747303
                   11
    11  H    0.000000
 Stoichiometry    C3H8
 Framework group  C2V[C2(C),SGV(C2H2),SGV'(H2),X(H4)]
 Deg. of freedom     9
 Full point group                 C2V     NOp   4
 Largest Abelian subgroup         C2V     NOp   4
 Largest concise Abelian subgroup C2V     NOp   4
                         Standard orientation:                         
 ---------------------------------------------------------------------
 Center     Atomic      Atomic             Coordinates (Angstroms)
 Number     Number       Type             X           Y           Z
 ---------------------------------------------------------------------
      1          6           0       -0.000000    1.257405   -0.273575
      2          1           0       -0.000000    2.131056    0.344190
      3          1           0        0.873651    1.257405   -0.891340
      4          1           0       -0.873651    1.257405   -0.891340
      5          6           0        0.000000    0.000000    0.615544
      6          6           0       -0.000000   -1.257405   -0.273575
      7          1           0        0.873651    0.000000    1.233309
      8          1           0       -0.873651    0.000000    1.233309
      9          1           0        0.873651   -1.257405   -0.891340
     10          1           0       -0.873651   -1.257405   -0.891340
     11          1           0       -0.000000   -2.131056    0.344190
 ---------------------------------------------------------------------
 Rotational constants (GHZ):          28.9413801           8.7001315           7.6203163
 Standard basis: CC-pVDZ (5D, 7F)
 There are    32 symmetry adapted cartesian basis functions of A1  symmetry.
 There are    12 symmetry adapted cartesian basis functions of A2  symmetry.
 There are    17 symmetry adapted cartesian basis functions of B1  symmetry.
 There are    24 symmetry adapted cartesian basis functions of B2  symmetry.
 There are    30 symmetry adapted basis functions of A1  symmetry.
 There are    12 symmetry adapted basis functions of A2  symmetry.
 There are    17 symmetry adapted basis functions of B1  symmetry.
 There are    23 symmetry adapted basis functions of B2  symmetry.
    82 basis functions,   155 primitive gaussians,    85 cartesian basis functions
    13 alpha electrons       13 beta electrons
       nuclear repulsion energy        83.3207430581 Hartrees.
 NAtoms=   11 NActive=   11 NUniq=    5 SFac= 4.00D+00 NAtFMM=   60 NAOKFM=F Big=F
 Integral buffers will be    131072 words long.
 Raffenetti 1 integral format.
 Two-electron integral symmetry is turned on.
 One-electron integrals computed using PRISM.
 NBasis=    82 RedAO= T EigKep=  5.80D-03  NBF=    30    12    17    23
 NBsUse=    82 1.00D-06 EigRej= -1.00D+00 NBFU=    30    12    17    23
 ExpMin= 1.22D-01 ExpMax= 6.67D+03 ExpMxC= 2.28D+02 IAcc=3 IRadAn=         5 AccDes= 0.00D+00
 Harris functional with IExCor=  205 and IRadAn=       5 diagonalized for initial guess.
 HarFok:  IExCor=  205 AccDes= 0.00D+00 IRadAn=         5 IDoV= 1 UseB2=F ITyADJ=14
 ICtDFT=  3500011 ScaDFX=  1.000000  1.000000  1.000000  1.000000
 FoFCou: FMM=F IPFlag=           0 FMFlag=      100000 FMFlg1=           0
         NFxFlg=           0 DoJE=T BraDBF=F KetDBF=T FulRan=T
         wScrn=  0.000000 ICntrl=       500 IOpCl=  0 I1Cent=   200000004 NGrid=           0
         NMat0=    1 NMatS0=      1 NMatT0=    0 NMatD0=    1 NMtDS0=    0 NMtDT0=    0
 Petite list used in FoFCou.
 Initial guess orbital symmetries:
       Occupied  (B2) (A1) (A1) (A1) (B2) (A1) (B1) (A1) (B2) (A2)
                 (B2) (A1) (B1)
       Virtual   (A1) (B2) (B1) (A1) (A1) (B2) (A1) (B1) (A2) (B2)
                 (A1) (B1) (B2) (A2) (A1) (A1) (B2) (B1) (B2) (B2)
                 (B1) (A1) (B1) (A2) (A1) (A1) (B2) (A1) (A2) (A1)
                 (B2) (A2) (B1) (B2) (A1) (A1) (B1) (A2) (B2) (A1)
                 (B1) (A2) (B2) (A1) (B1) (B2) (A1) (B1) (A2) (B1)
                 (A1) (B2) (B2) (A1) (B2) (A2) (A1) (B1) (B2) (A2)
                 (A1) (B1) (A1) (B2) (B2) (A1) (A2) (A1) (B1)
 The electronic state of the initial guess is 1-A1.
 Keep R1 ints in memory in symmetry-blocked form, NReq=10903764.
 Requested convergence on RMS density matrix=1.00D-08 within 128 cycles.
 Requested convergence on MAX density matrix=1.00D-06.
 Requested convergence on             energy=1.00D-06.
 No special actions if energy rises.
 SCF Done:  E(RHF) =  -118.268003337     A.U. after   10 cycles
            NFock= 10  Conv=0.90D-08     -V/T= 1.9993

 **********************************************************************

            Population analysis using the SCF Density.

 **********************************************************************

 Orbital symmetries:
       Occupied  (A1) (B2) (A1) (A1) (B2) (A1) (B1) (A1) (B2) (A2)
                 (B1) (A1) (B2)
       Virtual   (A1) (B2) (A1) (B1) (A1) (B1) (B2) (A2) (A1) (B2)
                 (A1) (A2) (B1) (B2) (A1) (B2) (B1) (A1) (B2) (B2)
                 (B1) (A2) (B1) (A1) (A1) (A1) (B2) (A1) (A2) (A1)
                 (B2) (A2) (B1) (B2) (A1) (A1) (B1) (A2) (A1) (B2)
                 (B1) (A2) (B2) (B1) (B2) (A1) (B1) (A2) (A1) (B1)
                 (A1) (B2) (B2) (A1) (B2) (A2) (A1) (B1) (B2) (A2)
                 (A1) (B1) (A1) (B2) (B2) (A1) (A2) (A1) (B1)
 The electronic state is 1-A1.
 Alpha  occ. eigenvalues --  -11.21473 -11.20750 -11.20746  -1.05506  -0.92826
 Alpha  occ. eigenvalues --   -0.80556  -0.63232  -0.59867  -0.55141  -0.53722
 Alpha  occ. eigenvalues --   -0.47943  -0.47540  -0.46242
 Alpha virt. eigenvalues --    0.18521   0.23339   0.23739   0.23793   0.26929
 Alpha virt. eigenvalues --    0.28420   0.29822   0.31457   0.36647   0.41699
 Alpha virt. eigenvalues --    0.58060   0.60932   0.61457   0.62151   0.63173
 Alpha virt. eigenvalues --    0.80542   0.80629   0.84779   0.88058   0.89988
 Alpha virt. eigenvalues --    0.90395   0.91465   0.92075   0.92167   0.93542
 Alpha virt. eigenvalues --    0.97552   0.98196   1.12312   1.13422   1.20104
 Alpha virt. eigenvalues --    1.37763   1.47746   1.48194   1.53783   1.61957
 Alpha virt. eigenvalues --    1.69526   1.69920   1.70919   1.86040   1.86260
 Alpha virt. eigenvalues --    1.90404   1.92417   1.95212   1.96055   1.97914
 Alpha virt. eigenvalues --    1.98288   1.99719   1.99780   2.01957   2.06952
 Alpha virt. eigenvalues --    2.14416   2.16225   2.30037   2.32149   2.32747
 Alpha virt. eigenvalues --    2.37236   2.52377   2.56479   2.59559   2.65199
 Alpha virt. eigenvalues --    2.65893   2.81661   2.82800   2.84838   2.88788
 Alpha virt. eigenvalues --    2.93359   3.00739   3.01361   3.07994
          Condensed to atoms (all electrons):
               1          2          3          4          5          6
     1  C    4.498881   0.409351   0.411988   0.411988   0.424957  -0.064913
     2  H    0.409351   0.647257  -0.025038  -0.025038  -0.025195   0.006544
     3  H    0.411988  -0.025038   0.650237  -0.026664  -0.031536  -0.004714
     4  H    0.411988  -0.025038  -0.026664   0.650237  -0.031536  -0.004714
     5  C    0.424957  -0.025195  -0.031536  -0.031536   4.624716   0.424957
     6  C   -0.064913   0.006544  -0.004714  -0.004714   0.424957   4.498881
     7  H   -0.029122  -0.004538  -0.006583   0.007647   0.404959  -0.029122
     8  H   -0.029122  -0.004538   0.007647  -0.006583   0.404959  -0.029122
     9  H   -0.004714   0.000047   0.003772  -0.000813  -0.031536   0.411988
    10  H   -0.004714   0.000047  -0.000813   0.003772  -0.031536   0.411988
    11  H    0.006544  -0.000342   0.000047   0.000047  -0.025195   0.409351
               7          8          9         10         11
     1  C   -0.029122  -0.029122  -0.004714  -0.004714   0.006544
     2  H   -0.004538  -0.004538   0.000047   0.000047  -0.000342
     3  H   -0.006583   0.007647   0.003772  -0.000813   0.000047
     4  H    0.007647  -0.006583  -0.000813   0.003772   0.000047
     5  C    0.404959   0.404959  -0.031536  -0.031536  -0.025195
     6  C   -0.029122  -0.029122   0.411988   0.411988   0.409351
     7  H    0.672618  -0.032757  -0.006583   0.007647  -0.004538
     8  H   -0.032757   0.672618   0.007647  -0.006583  -0.004538
     9  H   -0.006583   0.007647   0.650237  -0.026664  -0.025038
    10  H    0.007647  -0.006583  -0.026664   0.650237  -0.025038
    11  H   -0.004538  -0.004538  -0.025038  -0.025038   0.647257
 Mulliken charges:
               1
     1  C   -0.031125
     2  H    0.021444
     3  H    0.021659
     4  H    0.021659
     5  C   -0.108015
     6  C   -0.031125
     7  H    0.020372
     8  H    0.020372
     9  H    0.021659
    10  H    0.021659
    11  H    0.021444
 Sum of Mulliken charges =  -0.00000
 Mulliken charges with hydrogens summed into heavy atoms:
               1
     1  C    0.033636
     5  C   -0.067272
     6  C    0.033636
 Electronic spatial extent (au):  <R**2>=            222.2696
 Charge=             -0.0000 electrons
 Dipole moment (field-independent basis, Debye):
    X=              0.0000    Y=             -0.0000    Z=              0.0760  Tot=              0.0760
 Quadrupole moment (field-independent basis, Debye-Ang):
   XX=            -21.1809   YY=            -22.5259   ZZ=            -21.8757
   XY=              0.0000   XZ=              0.0000   YZ=              0.0000
 Traceless Quadrupole moment (field-independent basis, Debye-Ang):
   XX=              0.6799   YY=             -0.6651   ZZ=             -0.0149
   XY=              0.0000   XZ=              0.0000   YZ=              0.0000
 Octapole moment (field-independent basis, Debye-Ang**2):
  XXX=              0.0000  YYY=              0.0000  ZZZ=              0.0658  XYY=              0.0000
  XXY=             -0.0000  XXZ=             -0.3703  XZZ=              0.0000  YZZ=             -0.0000
  YYZ=              1.7183  XYZ=             -0.0000
 Hexadecapole moment (field-independent basis, Debye-Ang**3):
 XXXX=            -41.6504 YYYY=           -197.2747 ZZZZ=            -70.9204 XXXY=             -0.0000
 XXXZ=             -0.0000 YYYX=             -0.0000 YYYZ=             -0.0000 ZZZX=              0.0000
 ZZZY=             -0.0000 XXYY=            -40.3225 XXZZ=            -16.8958 YYZZ=            -44.1010
 XXYZ=             -0.0000 YYXZ=             -0.0000 ZZXY=              0.0000
 N-N= 8.332074305807D+01 E-N=-4.412169969292D+02  KE= 1.183503758215D+02
 Symmetry A1   KE= 7.332287774491D+01
 Symmetry A2   KE= 1.998020033293D+00
 Symmetry B1   KE= 3.805951718202D+00
 Symmetry B2   KE= 3.922352632510D+01
 ******************************Gaussian NBO Version 3.1******************************
             N A T U R A L   A T O M I C   O R B I T A L   A N D
          N A T U R A L   B O N D   O R B I T A L   A N A L Y S I S
 ******************************Gaussian NBO Version 3.1******************************
       /RESON  / : Allow strongly delocalized NBO set

 Analyzing the SCF density

 Job title: Propane-HF-cc-pvdz                                              

 Storage needed:     20628 in NPA,     27277 in NBO (1342176565 available)
 GSVD:  LWork=        3370 too small for GESVD, short by        2987 words or        2987 for optimal perf.


 NATURAL POPULATIONS:  Natural atomic orbital occupancies 
                                                          
   NAO  Atom  No  lang   Type(AO)    Occupancy      Energy
 ----------------------------------------------------------
     1    C    1  S      Cor( 1S)     1.99950     -11.07117
     2    C    1  S      Val( 2S)     1.09302      -0.23914
     3    C    1  S      Ryd( 3S)     0.00057       1.41917
     4    C    1  px     Val( 2p)     1.19108      -0.02508
     5    C    1  px     Ryd( 3p)     0.00126       0.77456
     6    C    1  py     Val( 2p)     1.11542      -0.02347
     7    C    1  py     Ryd( 3p)     0.00273       0.77399
     8    C    1  pz     Val( 2p)     1.15157      -0.02272
     9    C    1  pz     Ryd( 3p)     0.00153       0.75504
    10    C    1  dxy    Ryd( 3d)     0.00013       1.95201
    11    C    1  dxz    Ryd( 3d)     0.00130       2.29146
    12    C    1  dyz    Ryd( 3d)     0.00147       2.18608
    13    C    1  dx2y2  Ryd( 3d)     0.00131       2.23566
    14    C    1  dz2    Ryd( 3d)     0.00011       1.93318
 
    15    H    2  S      Val( 1S)     0.80725       0.17641
    16    H    2  S      Ryd( 2S)     0.00139       0.48755
    17    H    2  px     Ryd( 2p)     0.00012       1.97673
    18    H    2  py     Ryd( 2p)     0.00092       2.35690
    19    H    2  pz     Ryd( 2p)     0.00049       2.12964
 
    20    H    3  S      Val( 1S)     0.81229       0.16845
    21    H    3  S      Ryd( 2S)     0.00188       0.49957
    22    H    3  px     Ryd( 2p)     0.00092       2.36240
    23    H    3  py     Ryd( 2p)     0.00008       1.95268
    24    H    3  pz     Ryd( 2p)     0.00053       2.15958
 
    25    H    4  S      Val( 1S)     0.81229       0.16845
    26    H    4  S      Ryd( 2S)     0.00188       0.49957
    27    H    4  px     Ryd( 2p)     0.00092       2.36240
    28    H    4  py     Ryd( 2p)     0.00008       1.95268
    29    H    4  pz     Ryd( 2p)     0.00053       2.15958
 
    30    C    5  S      Cor( 1S)     1.99944     -11.07798
    31    C    5  S      Val( 2S)     1.03627      -0.21677
    32    C    5  S      Ryd( 3S)     0.00050       1.51687
    33    C    5  px     Val( 2p)     1.18678      -0.01343
    34    C    5  px     Ryd( 3p)     0.00265       0.88027
    35    C    5  py     Val( 2p)     1.01820      -0.01448
    36    C    5  py     Ryd( 3p)     0.00113       0.72287
    37    C    5  pz     Val( 2p)     1.10701      -0.01654
    38    C    5  pz     Ryd( 3p)     0.00106       0.72874
    39    C    5  dxy    Ryd( 3d)     0.00030       1.94632
    40    C    5  dxz    Ryd( 3d)     0.00153       2.35660
    41    C    5  dyz    Ryd( 3d)     0.00194       2.11976
    42    C    5  dx2y2  Ryd( 3d)     0.00176       2.21963
    43    C    5  dz2    Ryd( 3d)     0.00027       1.93863
 
    44    C    6  S      Cor( 1S)     1.99950     -11.07117
    45    C    6  S      Val( 2S)     1.09302      -0.23914
    46    C    6  S      Ryd( 3S)     0.00057       1.41917
    47    C    6  px     Val( 2p)     1.19108      -0.02508
    48    C    6  px     Ryd( 3p)     0.00126       0.77456
    49    C    6  py     Val( 2p)     1.11542      -0.02347
    50    C    6  py     Ryd( 3p)     0.00273       0.77399
    51    C    6  pz     Val( 2p)     1.15157      -0.02272
    52    C    6  pz     Ryd( 3p)     0.00153       0.75504
    53    C    6  dxy    Ryd( 3d)     0.00013       1.95201
    54    C    6  dxz    Ryd( 3d)     0.00130       2.29146
    55    C    6  dyz    Ryd( 3d)     0.00147       2.18608
    56    C    6  dx2y2  Ryd( 3d)     0.00131       2.23566
    57    C    6  dz2    Ryd( 3d)     0.00011       1.93318
 
    58    H    7  S      Val( 1S)     0.81363       0.18023
    59    H    7  S      Ryd( 2S)     0.00282       0.49075
    60    H    7  px     Ryd( 2p)     0.00094       2.37852
    61    H    7  py     Ryd( 2p)     0.00007       1.94806
    62    H    7  pz     Ryd( 2p)     0.00054       2.17747
 
    63    H    8  S      Val( 1S)     0.81363       0.18023
    64    H    8  S      Ryd( 2S)     0.00282       0.49075
    65    H    8  px     Ryd( 2p)     0.00094       2.37852
    66    H    8  py     Ryd( 2p)     0.00007       1.94806
    67    H    8  pz     Ryd( 2p)     0.00054       2.17747
 
    68    H    9  S      Val( 1S)     0.81229       0.16845
    69    H    9  S      Ryd( 2S)     0.00188       0.49957
    70    H    9  px     Ryd( 2p)     0.00092       2.36240
    71    H    9  py     Ryd( 2p)     0.00008       1.95268
    72    H    9  pz     Ryd( 2p)     0.00053       2.15958
 
    73    H   10  S      Val( 1S)     0.81229       0.16845
    74    H   10  S      Ryd( 2S)     0.00188       0.49957
    75    H   10  px     Ryd( 2p)     0.00092       2.36240
    76    H   10  py     Ryd( 2p)     0.00008       1.95268
    77    H   10  pz     Ryd( 2p)     0.00053       2.15958
 
    78    H   11  S      Val( 1S)     0.80725       0.17641
    79    H   11  S      Ryd( 2S)     0.00139       0.48755
    80    H   11  px     Ryd( 2p)     0.00012       1.97673
    81    H   11  py     Ryd( 2p)     0.00092       2.35690
    82    H   11  pz     Ryd( 2p)     0.00049       2.12964


 Summary of Natural Population Analysis:                  
                                                          
                                       Natural Population 
                Natural  -----------------------------------------------
    Atom  No    Charge         Core      Valence    Rydberg      Total
 -----------------------------------------------------------------------
      C    1   -0.56100      1.99950     4.55109    0.01041     6.56100
      H    2    0.18983      0.00000     0.80725    0.00292     0.81017
      H    3    0.18430      0.00000     0.81229    0.00341     0.81570
      H    4    0.18430      0.00000     0.81229    0.00341     0.81570
      C    5   -0.35884      1.99944     4.34826    0.01114     6.35884
      C    6   -0.56100      1.99950     4.55109    0.01041     6.56100
      H    7    0.18200      0.00000     0.81363    0.00437     0.81800
      H    8    0.18200      0.00000     0.81363    0.00437     0.81800
      H    9    0.18430      0.00000     0.81229    0.00341     0.81570
      H   10    0.18430      0.00000     0.81229    0.00341     0.81570
      H   11    0.18983      0.00000     0.80725    0.00292     0.81017
 =======================================================================
   * Total *   -0.00000      5.99844    19.94139    0.06017    26.00000

                                 Natural Population      
 --------------------------------------------------------
   Core                       5.99844 ( 99.9740% of   6)
   Valence                   19.94139 ( 99.7069% of  20)
   Natural Minimal Basis     25.93983 ( 99.7686% of  26)
   Natural Rydberg Basis      0.06017 (  0.2314% of  26)
 --------------------------------------------------------

    Atom  No          Natural Electron Configuration
 ----------------------------------------------------------------------------
      C    1      [core]2S( 1.09)2p( 3.46)3p( 0.01)
      H    2            1S( 0.81)
      H    3            1S( 0.81)
      H    4            1S( 0.81)
      C    5      [core]2S( 1.04)2p( 3.31)3d( 0.01)
      C    6      [core]2S( 1.09)2p( 3.46)3p( 0.01)
      H    7            1S( 0.81)
      H    8            1S( 0.81)
      H    9            1S( 0.81)
      H   10            1S( 0.81)
      H   11            1S( 0.81)


 NATURAL BOND ORBITAL ANALYSIS:

                       Occupancies       Lewis Structure    Low   High
           Occ.    -------------------  -----------------   occ   occ
  Cycle   Thresh.   Lewis   Non-Lewis     CR  BD  3C  LP    (L)   (NL)   Dev
 =============================================================================
   1(1)    1.90    25.88912   0.11088      3  10   0   0     0      0    0.03
 -----------------------------------------------------------------------------

 Structure accepted: No low occupancy Lewis orbitals

 --------------------------------------------------------
   Core                      5.99844 ( 99.974% of   6)
   Valence Lewis            19.89068 ( 99.453% of  20)
  ==================       ============================
   Total Lewis              25.88912 ( 99.574% of  26)
  -----------------------------------------------------
   Valence non-Lewis         0.07625 (  0.293% of  26)
   Rydberg non-Lewis         0.03463 (  0.133% of  26)
  ==================       ============================
   Total non-Lewis           0.11088 (  0.426% of  26)
 --------------------------------------------------------


       (Occupancy)   Bond orbital/ Coefficients/ Hybrids
 ---------------------------------------------------------------------------------
     1. (1.99059) BD ( 1) C   1 - H   2  
                ( 59.52%)   0.7715* C   1 s( 23.88%)p 3.18( 76.05%)d 0.00(  0.07%)
                                            0.0001  0.4887  0.0012  0.0000 -0.0000
                                            0.7237  0.0027  0.4864 -0.0135 -0.0000
                                           -0.0000  0.0222 -0.0140  0.0001
                ( 40.48%)   0.6362* H   2 s( 99.84%)p 0.00(  0.16%)
                                            0.9992 -0.0006  0.0000 -0.0331 -0.0226
     2. (1.99108) BD ( 1) C   1 - H   3  
                ( 59.34%)   0.7703* C   1 s( 24.01%)p 3.16( 75.92%)d 0.00(  0.07%)
                                            0.0000  0.4900 -0.0028  0.7068 -0.0027
                                            0.0115  0.0173 -0.5091 -0.0048 -0.0006
                                           -0.0215  0.0014  0.0157 -0.0001
                ( 40.66%)   0.6377* H   3 s( 99.84%)p 0.00(  0.16%)
                                            0.9992 -0.0015 -0.0325 -0.0013  0.0235
     3. (1.99108) BD ( 1) C   1 - H   4  
                ( 59.34%)   0.7703* C   1 s( 24.01%)p 3.16( 75.92%)d 0.00(  0.07%)
                                           -0.0000 -0.4900  0.0028  0.7068 -0.0027
                                           -0.0115 -0.0173  0.5091  0.0048 -0.0006
                                           -0.0215 -0.0014 -0.0157  0.0001
                ( 40.66%)   0.6377* H   4 s( 99.84%)p 0.00(  0.16%)
                                           -0.9992  0.0015 -0.0325  0.0013 -0.0235
     4. (1.98955) BD ( 1) C   1 - C   5  
                ( 50.13%)   0.7080* C   1 s( 28.05%)p 2.56( 71.84%)d 0.00(  0.12%)
                                            0.0003  0.5296  0.0057  0.0000 -0.0000
                                           -0.6888  0.0086  0.4937  0.0102 -0.0000
                                           -0.0000 -0.0276 -0.0197 -0.0002
                ( 49.87%)   0.7062* C   5 s( 26.52%)p 2.77( 73.35%)d 0.00(  0.13%)
                                            0.0003  0.5150  0.0075 -0.0000  0.0000
                                            0.7064  0.0126 -0.4839  0.0138  0.0000
                                           -0.0000 -0.0292 -0.0203  0.0015
     5. (1.98955) BD ( 1) C   5 - C   6  
                ( 49.87%)   0.7062* C   5 s( 26.52%)p 2.77( 73.35%)d 0.00(  0.13%)
                                            0.0003  0.5150  0.0075 -0.0000  0.0000
                                           -0.7064 -0.0126 -0.4839  0.0138  0.0000
                                           -0.0000  0.0292 -0.0203  0.0015
                ( 50.13%)   0.7080* C   6 s( 28.05%)p 2.56( 71.84%)d 0.00(  0.12%)
                                            0.0003  0.5296  0.0057 -0.0000  0.0000
                                            0.6888 -0.0086  0.4937  0.0102 -0.0000
                                            0.0000  0.0276 -0.0197 -0.0002
     6. (1.98304) BD ( 1) C   5 - H   7  
                ( 59.29%)   0.7700* C   5 s( 23.46%)p 3.26( 76.46%)d 0.00(  0.08%)
                                           -0.0000  0.4843 -0.0065  0.7066 -0.0130
                                            0.0000  0.0000  0.5148  0.0091  0.0000
                                            0.0220 -0.0000  0.0169 -0.0006
                ( 40.71%)   0.6380* H   7 s( 99.83%)p 0.00(  0.17%)
                                            0.9992 -0.0033 -0.0327  0.0000 -0.0246
     7. (1.98304) BD ( 1) C   5 - H   8  
                ( 59.29%)   0.7700* C   5 s( 23.46%)p 3.26( 76.46%)d 0.00(  0.08%)
                                            0.0000 -0.4843  0.0065  0.7066 -0.0130
                                           -0.0000 -0.0000 -0.5148 -0.0091  0.0000
                                            0.0220  0.0000 -0.0169  0.0006
                ( 40.71%)   0.6380* H   8 s( 99.83%)p 0.00(  0.17%)
                                           -0.9992  0.0033 -0.0327  0.0000  0.0246
     8. (1.99108) BD ( 1) C   6 - H   9  
                ( 59.34%)   0.7703* C   6 s( 24.01%)p 3.16( 75.92%)d 0.00(  0.07%)
                                            0.0000  0.4900 -0.0028  0.7068 -0.0027
                                           -0.0115 -0.0173 -0.5091 -0.0048  0.0006
                                           -0.0215 -0.0014  0.0157 -0.0001
                ( 40.66%)   0.6377* H   9 s( 99.84%)p 0.00(  0.16%)
                                            0.9992 -0.0015 -0.0325  0.0013  0.0235
     9. (1.99108) BD ( 1) C   6 - H  10  
                ( 59.34%)   0.7703* C   6 s( 24.01%)p 3.16( 75.92%)d 0.00(  0.07%)
                                           -0.0000 -0.4900  0.0028  0.7068 -0.0027
                                            0.0115  0.0173  0.5091  0.0048  0.0006
                                           -0.0215  0.0014 -0.0157  0.0001
                ( 40.66%)   0.6377* H  10 s( 99.84%)p 0.00(  0.16%)
                                           -0.9992  0.0015 -0.0325 -0.0013 -0.0235
    10. (1.99059) BD ( 1) C   6 - H  11  
                ( 59.52%)   0.7715* C   6 s( 23.88%)p 3.18( 76.05%)d 0.00(  0.07%)
                                            0.0001  0.4887  0.0012 -0.0000  0.0000
                                           -0.7237 -0.0027  0.4864 -0.0135 -0.0000
                                            0.0000 -0.0222 -0.0140  0.0001
                ( 40.48%)   0.6362* H  11 s( 99.84%)p 0.00(  0.16%)
                                            0.9992 -0.0006  0.0000  0.0331 -0.0226
    11. (1.99950) CR ( 1) C   1           s(100.00%)p 0.00(  0.00%)
                                            1.0000 -0.0002 -0.0000  0.0000 -0.0000
                                            0.0002 -0.0000 -0.0002 -0.0000 -0.0000
                                           -0.0000  0.0000  0.0000  0.0000
    12. (1.99944) CR ( 1) C   5           s(100.00%)p 0.00(  0.00%)
                                            1.0000 -0.0003 -0.0000 -0.0000  0.0000
                                           -0.0000 -0.0000  0.0003 -0.0000  0.0000
                                           -0.0000  0.0000  0.0000 -0.0000
    13. (1.99950) CR ( 1) C   6           s(100.00%)p 0.00(  0.00%)
                                            1.0000 -0.0002 -0.0000  0.0000 -0.0000
                                           -0.0002  0.0000 -0.0002 -0.0000  0.0000
                                           -0.0000 -0.0000  0.0000  0.0000
    14. (0.00361) RY*( 1) C   1           s(  9.88%)p 8.42( 83.22%)d 0.70(  6.90%)
                                           -0.0000  0.0133  0.3140  0.0000 -0.0000
                                           -0.0150 -0.7345 -0.0138 -0.5407 -0.0000
                                           -0.0000  0.1383 -0.1682 -0.1469
    15. (0.00163) RY*( 2) C   1           s(  0.00%)p 1.00( 76.83%)d 0.30( 23.17%)
                                            0.0000  0.0000 -0.0000  0.0150  0.8764
                                            0.0000  0.0000 -0.0000 -0.0000 -0.2790
                                            0.3922  0.0000  0.0000 -0.0000
    16. (0.00029) RY*( 3) C   1           s( 50.57%)p 0.61( 30.98%)d 0.36( 18.45%)
                                            0.0000  0.0071  0.7111  0.0000 -0.0000
                                            0.0192 -0.2203 -0.0042  0.5107 -0.0000
                                           -0.0000 -0.2801  0.1794  0.2719
    17. (0.00010) RY*( 4) C   1           s( 18.49%)p 3.64( 67.29%)d 0.77( 14.22%)
    18. (0.00000) RY*( 5) C   1           s(  0.00%)p 1.00(  9.21%)d 9.85( 90.79%)
    19. (0.00001) RY*( 6) C   1           s(  0.00%)p 1.00( 14.05%)d 6.12( 85.95%)
    20. (0.00000) RY*( 7) C   1           s(  4.50%)p 1.17(  5.25%)d20.06( 90.25%)
    21. (0.00001) RY*( 8) C   1           s(  7.35%)p 1.15(  8.46%)d11.46( 84.19%)
    22. (0.00000) RY*( 9) C   1           s(  9.26%)p 0.54(  4.99%)d 9.26( 85.75%)
    23. (0.00140) RY*( 1) H   2           s( 99.37%)p 0.01(  0.63%)
                                            0.0033  0.9968  0.0000  0.0795  0.0045
    24. (0.00012) RY*( 2) H   2           s(  0.00%)p 1.00(100.00%)
                                            0.0000  0.0000  1.0000  0.0000  0.0000
    25. (0.00008) RY*( 3) H   2           s(  0.08%)p99.99( 99.92%)
    26. (0.00002) RY*( 4) H   2           s(  0.72%)p99.99( 99.28%)
    27. (0.00189) RY*( 1) H   3           s( 99.53%)p 0.00(  0.47%)
                                            0.0039  0.9976  0.0317  0.0151 -0.0592
    28. (0.00012) RY*( 2) H   3           s(  0.05%)p99.99( 99.95%)
                                            0.0007  0.0222  0.5555  0.3398  0.7586
    29. (0.00008) RY*( 3) H   3           s(  0.02%)p99.99( 99.98%)
    30. (0.00002) RY*( 4) H   3           s(  0.57%)p99.99( 99.43%)
    31. (0.00189) RY*( 1) H   4           s( 99.53%)p 0.00(  0.47%)
                                            0.0039  0.9976 -0.0317  0.0151 -0.0592
    32. (0.00012) RY*( 2) H   4           s(  0.05%)p99.99( 99.95%)
                                            0.0007  0.0222 -0.5555  0.3398  0.7586
    33. (0.00008) RY*( 3) H   4           s(  0.02%)p99.99( 99.98%)
    34. (0.00002) RY*( 4) H   4           s(  0.57%)p99.99( 99.43%)
    35. (0.00290) RY*( 1) C   5           s(  0.00%)p 1.00( 83.11%)d 0.20( 16.89%)
                                            0.0000 -0.0000  0.0000  0.0296  0.9111
                                           -0.0000 -0.0000 -0.0000 -0.0000  0.0000
                                           -0.4110  0.0000 -0.0000  0.0000
    36. (0.00123) RY*( 2) C   5           s( 16.16%)p 2.31( 37.32%)d 2.88( 46.52%)
                                            0.0000 -0.0165  0.4016 -0.0000  0.0000
                                           -0.0000 -0.0000  0.0262  0.6104  0.0000
                                           -0.0000  0.0000 -0.5137 -0.4487
    37. (0.00093) RY*( 3) C   5           s(  0.00%)p 1.00( 83.94%)d 0.19( 16.06%)
                                            0.0000  0.0000  0.0000 -0.0000  0.0000
                                            0.0003  0.9162 -0.0000  0.0000  0.0000
                                           -0.0000  0.4008 -0.0000  0.0000
    38. (0.00030) RY*( 4) C   5           s(  0.00%)p 0.00(  0.00%)d 1.00(100.00%)
                                            0.0000  0.0000  0.0000  0.0000  0.0000
                                            0.0000  0.0000  0.0000  0.0000  1.0000
                                            0.0000  0.0000  0.0000  0.0000
    39. (0.00015) RY*( 5) C   5           s( 61.33%)p 0.59( 36.11%)d 0.04(  2.56%)
                                            0.0000  0.0120  0.7830 -0.0000  0.0000
                                           -0.0000 -0.0000  0.0143 -0.6008  0.0000
                                           -0.0000  0.0000 -0.1499  0.0557
    40. (0.00011) RY*( 6) C   5           s(  0.00%)p 1.00( 16.24%)d 5.16( 83.76%)
                                            0.0000  0.0000  0.0000  0.0000 -0.0000
                                            0.0450 -0.4004 -0.0000  0.0000  0.0000
                                            0.0000  0.9152 -0.0000  0.0000
    41. (0.00005) RY*( 7) C   5           s( 20.63%)p 1.27( 26.30%)d 2.57( 53.07%)
    42. (0.00000) RY*( 8) C   5           s(  0.00%)p 1.00( 16.99%)d 4.89( 83.01%)
    43. (0.00000) RY*( 9) C   5           s(  1.92%)p 0.19(  0.37%)d50.92( 97.71%)
    44. (0.00361) RY*( 1) C   6           s(  9.88%)p 8.42( 83.22%)d 0.70(  6.90%)
                                           -0.0000  0.0133  0.3140 -0.0000  0.0000
                                            0.0150  0.7345 -0.0138 -0.5407 -0.0000
                                            0.0000 -0.1383 -0.1682 -0.1469
    45. (0.00163) RY*( 2) C   6           s(  0.00%)p 1.00( 76.83%)d 0.30( 23.17%)
                                           -0.0000 -0.0000  0.0000  0.0150  0.8764
                                            0.0000  0.0000  0.0000  0.0000  0.2790
                                            0.3922  0.0000 -0.0000  0.0000
    46. (0.00029) RY*( 3) C   6           s( 50.57%)p 0.61( 30.98%)d 0.36( 18.45%)
                                            0.0000  0.0071  0.7111 -0.0000  0.0000
                                           -0.0192  0.2203 -0.0042  0.5107 -0.0000
                                            0.0000  0.2801  0.1794  0.2719
    47. (0.00010) RY*( 4) C   6           s( 18.49%)p 3.64( 67.29%)d 0.77( 14.22%)
    48. (0.00000) RY*( 5) C   6           s(  0.00%)p 1.00(  9.21%)d 9.85( 90.79%)
    49. (0.00001) RY*( 6) C   6           s(  0.00%)p 1.00( 14.05%)d 6.12( 85.95%)
    50. (0.00000) RY*( 7) C   6           s(  4.50%)p 1.17(  5.25%)d20.06( 90.25%)
    51. (0.00001) RY*( 8) C   6           s(  7.35%)p 1.15(  8.46%)d11.46( 84.19%)
    52. (0.00000) RY*( 9) C   6           s(  9.26%)p 0.54(  4.99%)d 9.26( 85.75%)
    53. (0.00283) RY*( 1) H   7           s( 99.94%)p 0.00(  0.06%)
                                            0.0042  0.9997  0.0154  0.0000  0.0183
    54. (0.00010) RY*( 2) H   7           s(  0.00%)p 1.00(100.00%)
    55. (0.00007) RY*( 3) H   7           s(  0.00%)p 1.00(100.00%)
    56. (0.00002) RY*( 4) H   7           s(  0.22%)p99.99( 99.78%)
    57. (0.00283) RY*( 1) H   8           s( 99.94%)p 0.00(  0.06%)
                                            0.0042  0.9997 -0.0154  0.0000  0.0183
    58. (0.00010) RY*( 2) H   8           s(  0.00%)p 1.00(100.00%)
    59. (0.00007) RY*( 3) H   8           s(  0.00%)p 1.00(100.00%)
    60. (0.00002) RY*( 4) H   8           s(  0.22%)p99.99( 99.78%)
    61. (0.00189) RY*( 1) H   9           s( 99.53%)p 0.00(  0.47%)
                                            0.0039  0.9976  0.0317 -0.0151 -0.0592
    62. (0.00012) RY*( 2) H   9           s(  0.05%)p99.99( 99.95%)
                                            0.0007  0.0222  0.5555 -0.3398  0.7586
    63. (0.00008) RY*( 3) H   9           s(  0.02%)p99.99( 99.98%)
    64. (0.00002) RY*( 4) H   9           s(  0.57%)p99.99( 99.43%)
    65. (0.00189) RY*( 1) H  10           s( 99.53%)p 0.00(  0.47%)
                                            0.0039  0.9976 -0.0317 -0.0151 -0.0592
    66. (0.00012) RY*( 2) H  10           s(  0.05%)p99.99( 99.95%)
                                            0.0007  0.0222 -0.5555 -0.3398  0.7586
    67. (0.00008) RY*( 3) H  10           s(  0.02%)p99.99( 99.98%)
    68. (0.00002) RY*( 4) H  10           s(  0.57%)p99.99( 99.43%)
    69. (0.00140) RY*( 1) H  11           s( 99.37%)p 0.01(  0.63%)
                                            0.0033  0.9968  0.0000 -0.0795  0.0045
    70. (0.00012) RY*( 2) H  11           s(  0.00%)p 1.00(100.00%)
                                            0.0000  0.0000  1.0000  0.0000  0.0000
    71. (0.00008) RY*( 3) H  11           s(  0.08%)p99.99( 99.92%)
    72. (0.00002) RY*( 4) H  11           s(  0.72%)p99.99( 99.28%)
    73. (0.00471) BD*( 1) C   1 - H   2  
                ( 40.48%)   0.6362* C   1 s( 23.88%)p 3.18( 76.05%)d 0.00(  0.07%)
                                           -0.0001 -0.4887 -0.0012 -0.0000  0.0000
                                           -0.7237 -0.0027 -0.4864  0.0135  0.0000
                                            0.0000 -0.0222  0.0140 -0.0001
                ( 59.52%)  -0.7715* H   2 s( 99.84%)p 0.00(  0.16%)
                                           -0.9992  0.0006 -0.0000  0.0331  0.0226
    74. (0.00665) BD*( 1) C   1 - H   3  
                ( 40.66%)   0.6377* C   1 s( 24.01%)p 3.16( 75.92%)d 0.00(  0.07%)
                                           -0.0000 -0.4900  0.0028 -0.7068  0.0027
                                           -0.0115 -0.0173  0.5091  0.0048  0.0006
                                            0.0215 -0.0014 -0.0157  0.0001
                ( 59.34%)  -0.7703* H   3 s( 99.84%)p 0.00(  0.16%)
                                           -0.9992  0.0015  0.0325  0.0013 -0.0235
    75. (0.00665) BD*( 1) C   1 - H   4  
                ( 40.66%)   0.6377* C   1 s( 24.01%)p 3.16( 75.92%)d 0.00(  0.07%)
                                            0.0000  0.4900 -0.0028 -0.7068  0.0027
                                            0.0115  0.0173 -0.5091 -0.0048  0.0006
                                            0.0215  0.0014  0.0157 -0.0001
                ( 59.34%)  -0.7703* H   4 s( 99.84%)p 0.00(  0.16%)
                                            0.9992 -0.0015  0.0325 -0.0013  0.0235
    76. (0.00702) BD*( 1) C   1 - C   5  
                ( 49.87%)   0.7062* C   1 s( 28.05%)p 2.56( 71.84%)d 0.00(  0.12%)
                                           -0.0003 -0.5296 -0.0057 -0.0000  0.0000
                                            0.6888 -0.0086 -0.4937 -0.0102  0.0000
                                            0.0000  0.0276  0.0197  0.0002
                ( 50.13%)  -0.7080* C   5 s( 26.52%)p 2.77( 73.35%)d 0.00(  0.13%)
                                           -0.0003 -0.5150 -0.0075  0.0000 -0.0000
                                           -0.7064 -0.0126  0.4839 -0.0138 -0.0000
                                            0.0000  0.0292  0.0203 -0.0015
    77. (0.00702) BD*( 1) C   5 - C   6  
                ( 50.13%)   0.7080* C   5 s( 26.52%)p 2.77( 73.35%)d 0.00(  0.13%)
                                            0.0003  0.5150  0.0075 -0.0000  0.0000
                                           -0.7064 -0.0126 -0.4839  0.0138  0.0000
                                           -0.0000  0.0292 -0.0203  0.0015
                ( 49.87%)  -0.7062* C   6 s( 28.05%)p 2.56( 71.84%)d 0.00(  0.12%)
                                            0.0003  0.5296  0.0057 -0.0000  0.0000
                                            0.6888 -0.0086  0.4937  0.0102 -0.0000
                                            0.0000  0.0276 -0.0197 -0.0002
    78. (0.01308) BD*( 1) C   5 - H   7  
                ( 40.71%)   0.6380* C   5 s( 23.46%)p 3.26( 76.46%)d 0.00(  0.08%)
                                            0.0000 -0.4843  0.0065 -0.7066  0.0130
                                           -0.0000 -0.0000 -0.5148 -0.0091 -0.0000
                                           -0.0220  0.0000 -0.0169  0.0006
                ( 59.29%)  -0.7700* H   7 s( 99.83%)p 0.00(  0.17%)
                                           -0.9992  0.0033  0.0327 -0.0000  0.0246
    79. (0.01308) BD*( 1) C   5 - H   8  
                ( 40.71%)   0.6380* C   5 s( 23.46%)p 3.26( 76.46%)d 0.00(  0.08%)
                                           -0.0000  0.4843 -0.0065 -0.7066  0.0130
                                            0.0000  0.0000  0.5148  0.0091 -0.0000
                                           -0.0220 -0.0000  0.0169 -0.0006
                ( 59.29%)  -0.7700* H   8 s( 99.83%)p 0.00(  0.17%)
                                            0.9992 -0.0033  0.0327 -0.0000 -0.0246
    80. (0.00665) BD*( 1) C   6 - H   9  
                ( 40.66%)   0.6377* C   6 s( 24.01%)p 3.16( 75.92%)d 0.00(  0.07%)
                                           -0.0000 -0.4900  0.0028 -0.7068  0.0027
                                            0.0115  0.0173  0.5091  0.0048 -0.0006
                                            0.0215  0.0014 -0.0157  0.0001
                ( 59.34%)  -0.7703* H   9 s( 99.84%)p 0.00(  0.16%)
                                           -0.9992  0.0015  0.0325 -0.0013 -0.0235
    81. (0.00665) BD*( 1) C   6 - H  10  
                ( 40.66%)   0.6377* C   6 s( 24.01%)p 3.16( 75.92%)d 0.00(  0.07%)
                                            0.0000  0.4900 -0.0028 -0.7068  0.0027
                                           -0.0115 -0.0173 -0.5091 -0.0048 -0.0006
                                            0.0215 -0.0014  0.0157 -0.0001
                ( 59.34%)  -0.7703* H  10 s( 99.84%)p 0.00(  0.16%)
                                            0.9992 -0.0015  0.0325  0.0013  0.0235
    82. (0.00471) BD*( 1) C   6 - H  11  
                ( 40.48%)   0.6362* C   6 s( 23.88%)p 3.18( 76.05%)d 0.00(  0.07%)
                                           -0.0001 -0.4887 -0.0012  0.0000 -0.0000
                                            0.7237  0.0027 -0.4864  0.0135  0.0000
                                           -0.0000  0.0222  0.0140 -0.0001
                ( 59.52%)  -0.7715* H  11 s( 99.84%)p 0.00(  0.16%)
                                           -0.9992  0.0006 -0.0000 -0.0331  0.0226


 NHO Directionality and "Bond Bending" (deviations from line of nuclear centers)

         [Thresholds for printing:  angular deviation  >  1.0 degree]
                                    hybrid p-character > 25.0%
                                    orbital occupancy  >  0.10e

                                Line of Centers        Hybrid 1              Hybrid 2
                                ---------------  -------------------   ------------------
                NBO               Theta   Phi    Theta   Phi    Dev    Theta   Phi    Dev
 ========================================================================================
     1. BD (   1) C   1 - H   2    54.7   90.0    56.9   90.0   2.2      --     --    --
     2. BD (   1) C   1 - H   3   125.3    0.0   126.1    2.3   2.1      --     --    --
     3. BD (   1) C   1 - H   4   125.3  180.0   126.1  177.7   2.1      --     --    --
     4. BD (   1) C   1 - C   5    54.7  270.0    53.5  270.0   1.3    123.2   90.0   2.1
     5. BD (   1) C   5 - C   6   125.3  270.0   123.2  270.0   2.1     53.5   90.0   1.3
     6. BD (   1) C   5 - H   7    54.7    0.0    52.9    0.0   1.8      --     --    --
     7. BD (   1) C   5 - H   8    54.7  180.0    52.9  180.0   1.8      --     --    --
     8. BD (   1) C   6 - H   9   125.3    0.0   126.1  357.7   2.1      --     --    --
     9. BD (   1) C   6 - H  10   125.3  180.0   126.1  182.3   2.1      --     --    --
    10. BD (   1) C   6 - H  11    54.7  270.0    56.9  270.0   2.2      --     --    --


 Second Order Perturbation Theory Analysis of Fock Matrix in NBO Basis

     Threshold for printing:   0.50 kcal/mol
                                                                              E(2)  E(j)-E(i) F(i,j)
         Donor NBO (i)                     Acceptor NBO (j)                 kcal/mol   a.u.    a.u. 
 ===================================================================================================

 within unit  1
   1. BD (   1) C   1 - H   2        / 36. RY*(   2) C   5                    0.59    2.08    0.031
   1. BD (   1) C   1 - H   2        / 77. BD*(   1) C   5 - C   6            4.27    1.33    0.067
   2. BD (   1) C   1 - H   3        / 35. RY*(   1) C   5                    0.56    1.83    0.029
   2. BD (   1) C   1 - H   3        / 79. BD*(   1) C   5 - H   8            4.15    1.46    0.070
   3. BD (   1) C   1 - H   4        / 35. RY*(   1) C   5                    0.56    1.83    0.029
   3. BD (   1) C   1 - H   4        / 78. BD*(   1) C   5 - H   7            4.15    1.46    0.070
   4. BD (   1) C   1 - C   5        / 44. RY*(   1) C   6                    2.20    1.76    0.056
   4. BD (   1) C   1 - C   5        / 73. BD*(   1) C   1 - H   2            0.56    1.55    0.026
   4. BD (   1) C   1 - C   5        / 77. BD*(   1) C   5 - C   6            0.61    1.42    0.026
   4. BD (   1) C   1 - C   5        / 82. BD*(   1) C   6 - H  11            2.79    1.55    0.059
   5. BD (   1) C   5 - C   6        / 14. RY*(   1) C   1                    2.20    1.76    0.056
   5. BD (   1) C   5 - C   6        / 73. BD*(   1) C   1 - H   2            2.79    1.55    0.059
   5. BD (   1) C   5 - C   6        / 76. BD*(   1) C   1 - C   5            0.61    1.42    0.026
   5. BD (   1) C   5 - C   6        / 82. BD*(   1) C   6 - H  11            0.56    1.55    0.026
   6. BD (   1) C   5 - H   7        / 15. RY*(   2) C   1                    0.69    1.72    0.031
   6. BD (   1) C   5 - H   7        / 45. RY*(   2) C   6                    0.69    1.72    0.031
   6. BD (   1) C   5 - H   7        / 75. BD*(   1) C   1 - H   4            4.04    1.43    0.068
   6. BD (   1) C   5 - H   7        / 81. BD*(   1) C   6 - H  10            4.04    1.43    0.068
   7. BD (   1) C   5 - H   8        / 15. RY*(   2) C   1                    0.69    1.72    0.031
   7. BD (   1) C   5 - H   8        / 45. RY*(   2) C   6                    0.69    1.72    0.031
   7. BD (   1) C   5 - H   8        / 74. BD*(   1) C   1 - H   3            4.04    1.43    0.068
   7. BD (   1) C   5 - H   8        / 80. BD*(   1) C   6 - H   9            4.04    1.43    0.068
   8. BD (   1) C   6 - H   9        / 35. RY*(   1) C   5                    0.56    1.83    0.029
   8. BD (   1) C   6 - H   9        / 79. BD*(   1) C   5 - H   8            4.15    1.46    0.070
   9. BD (   1) C   6 - H  10        / 35. RY*(   1) C   5                    0.56    1.83    0.029
   9. BD (   1) C   6 - H  10        / 78. BD*(   1) C   5 - H   7            4.15    1.46    0.070
  10. BD (   1) C   6 - H  11        / 36. RY*(   2) C   5                    0.59    2.08    0.031
  10. BD (   1) C   6 - H  11        / 76. BD*(   1) C   1 - C   5            4.27    1.33    0.067
  11. CR (   1) C   1                / 37. RY*(   3) C   5                    0.59   12.00    0.075
  12. CR (   1) C   5                / 16. RY*(   3) C   1                    0.57   12.41    0.075
  12. CR (   1) C   5                / 46. RY*(   3) C   6                    0.57   12.41    0.075
  13. CR (   1) C   6                / 37. RY*(   3) C   5                    0.59   12.00    0.075


 Natural Bond Orbitals (Summary):

                                                            Principal Delocalizations
           NBO                        Occupancy    Energy   (geminal,vicinal,remote)
 ====================================================================================
 Molecular unit  1  (C3H8)
     1. BD (   1) C   1 - H   2          1.99059    -0.66643  77(v),36(v)
     2. BD (   1) C   1 - H   3          1.99108    -0.66867  79(v),35(v)
     3. BD (   1) C   1 - H   4          1.99108    -0.66867  78(v),35(v)
     4. BD (   1) C   1 - C   5          1.98955    -0.76398  82(v),44(v),77(g),73(g)
     5. BD (   1) C   5 - C   6          1.98955    -0.76398  73(v),14(v),76(g),82(g)
     6. BD (   1) C   5 - H   7          1.98304    -0.66116  75(v),81(v),15(v),45(v)
     7. BD (   1) C   5 - H   8          1.98304    -0.66116  74(v),80(v),15(v),45(v)
     8. BD (   1) C   6 - H   9          1.99108    -0.66867  79(v),35(v)
     9. BD (   1) C   6 - H  10          1.99108    -0.66867  78(v),35(v)
    10. BD (   1) C   6 - H  11          1.99059    -0.66643  76(v),36(v)
    11. CR (   1) C   1                  1.99950   -11.07075  37(v)
    12. CR (   1) C   5                  1.99944   -11.07756  16(v),46(v)
    13. CR (   1) C   6                  1.99950   -11.07075  37(v)
    14. RY*(   1) C   1                  0.00361     0.99972   
    15. RY*(   2) C   1                  0.00163     1.06109   
    16. RY*(   3) C   1                  0.00029     1.32781   
    17. RY*(   4) C   1                  0.00010     1.01812   
    18. RY*(   5) C   1                  0.00000     1.87356   
    19. RY*(   6) C   1                  0.00001     2.07522   
    20. RY*(   7) C   1                  0.00000     2.07942   
    21. RY*(   8) C   1                  0.00001     2.00482   
    22. RY*(   9) C   1                  0.00000     1.85633   
    23. RY*(   1) H   2                  0.00140     0.52579   
    24. RY*(   2) H   2                  0.00012     1.97673   
    25. RY*(   3) H   2                  0.00008     1.94617   
    26. RY*(   4) H   2                  0.00002     2.48732   
    27. RY*(   1) H   3                  0.00189     0.53084   
    28. RY*(   2) H   3                  0.00012     1.97510   
    29. RY*(   3) H   3                  0.00008     1.95436   
    30. RY*(   4) H   3                  0.00002     2.49901   
    31. RY*(   1) H   4                  0.00189     0.53084   
    32. RY*(   2) H   4                  0.00012     1.97510   
    33. RY*(   3) H   4                  0.00008     1.95436   
    34. RY*(   4) H   4                  0.00002     2.49901   
    35. RY*(   1) C   5                  0.00290     1.16053   
    36. RY*(   2) C   5                  0.00123     1.41394   
    37. RY*(   3) C   5                  0.00093     0.92924   
    38. RY*(   4) C   5                  0.00030     1.94632   
    39. RY*(   5) C   5                  0.00015     1.25349   
    40. RY*(   6) C   5                  0.00011     1.90169   
    41. RY*(   7) C   5                  0.00005     1.65569   
    42. RY*(   8) C   5                  0.00000     2.06774   
    43. RY*(   9) C   5                  0.00000     2.07357   
    44. RY*(   1) C   6                  0.00361     0.99972   
    45. RY*(   2) C   6                  0.00163     1.06109   
    46. RY*(   3) C   6                  0.00029     1.32781   
    47. RY*(   4) C   6                  0.00010     1.01812   
    48. RY*(   5) C   6                  0.00000     1.87356   
    49. RY*(   6) C   6                  0.00001     2.07522   
    50. RY*(   7) C   6                  0.00000     2.07942   
    51. RY*(   8) C   6                  0.00001     2.00482   
    52. RY*(   9) C   6                  0.00000     1.85633   
    53. RY*(   1) H   7                  0.00283     0.49941   
    54. RY*(   2) H   7                  0.00010     2.00303   
    55. RY*(   3) H   7                  0.00007     1.94806   
    56. RY*(   4) H   7                  0.00002     2.52798   
    57. RY*(   1) H   8                  0.00283     0.49941   
    58. RY*(   2) H   8                  0.00010     2.00303   
    59. RY*(   3) H   8                  0.00007     1.94806   
    60. RY*(   4) H   8                  0.00002     2.52798   
    61. RY*(   1) H   9                  0.00189     0.53084   
    62. RY*(   2) H   9                  0.00012     1.97510   
    63. RY*(   3) H   9                  0.00008     1.95436   
    64. RY*(   4) H   9                  0.00002     2.49901   
    65. RY*(   1) H  10                  0.00189     0.53084   
    66. RY*(   2) H  10                  0.00012     1.97510   
    67. RY*(   3) H  10                  0.00008     1.95436   
    68. RY*(   4) H  10                  0.00002     2.49901   
    69. RY*(   1) H  11                  0.00140     0.52579   
    70. RY*(   2) H  11                  0.00012     1.97673   
    71. RY*(   3) H  11                  0.00008     1.94617   
    72. RY*(   4) H  11                  0.00002     2.48732   
    73. BD*(   1) C   1 - H   2          0.00471     0.78251   
    74. BD*(   1) C   1 - H   3          0.00665     0.77336   
    75. BD*(   1) C   1 - H   4          0.00665     0.77336   
    76. BD*(   1) C   1 - C   5          0.00702     0.65914   
    77. BD*(   1) C   5 - C   6          0.00702     0.65914   
    78. BD*(   1) C   5 - H   7          0.01308     0.79221   
    79. BD*(   1) C   5 - H   8          0.01308     0.79221   
    80. BD*(   1) C   6 - H   9          0.00665     0.77336   
    81. BD*(   1) C   6 - H  10          0.00665     0.77336   
    82. BD*(   1) C   6 - H  11          0.00471     0.78251   
       -------------------------------
              Total Lewis   25.88912  ( 99.5735%)
        Valence non-Lewis    0.07625  (  0.2933%)
        Rydberg non-Lewis    0.03463  (  0.1332%)
       -------------------------------
            Total unit  1   26.00000  (100.0000%)
           Charge unit  1    0.00000
 Calling FoFJK, ICntrl=      2127 FMM=F ISym2X=1 I1Cent= 0 IOpClX= 0 NMat=1 NMatS=1 NMatT=0.
 ***** Axes restored to original set *****
 -------------------------------------------------------------------
 Center     Atomic                   Forces (Hartrees/Bohr)
 Number     Number              X              Y              Z
 -------------------------------------------------------------------
      1        6           0.007963018   -0.029611854    0.003582671
      2        1          -0.003195472    0.008262940    0.015289509
      3        1           0.009916208    0.012851582   -0.005488075
      4        1          -0.014415693    0.006132485   -0.006942170
      5        6          -0.005258682    0.025296385   -0.028894337
      6        6          -0.001701597   -0.000508112    0.030821315
      7        1           0.013212337   -0.005321801    0.010374102
      8        1          -0.009685268   -0.011644826    0.009005721
      9        1           0.011394932    0.008398596   -0.009655693
     10        1          -0.012936969    0.001679499   -0.011109789
     11        1           0.004707186   -0.015534893   -0.006983253
 -------------------------------------------------------------------
 Cartesian Forces:  Max     0.030821315 RMS     0.013290054

 GradGradGradGradGradGradGradGradGradGradGradGradGradGradGradGradGradGrad
 Berny optimization.
 FormGI is forming the generalized inverse of G from B-inverse, IUseBI=4.
 Internal  Forces:  Max     0.017218762 RMS     0.007642559
 Search for a local minimum.
 Step number   1 out of a maximum of   56
 All quantities printed in internal units (Hartrees-Bohrs-Radians)
 Mixed Optimization -- RFO/linear search
 Second derivative matrix not updated -- first step.
 ITU=  0
     Eigenvalues ---    0.00237   0.00237   0.03840   0.04896   0.05720
     Eigenvalues ---    0.05720   0.05720   0.05720   0.07655   0.11701
     Eigenvalues ---    0.16000   0.16000   0.16000   0.16000   0.16000
     Eigenvalues ---    0.16000   0.21948   0.28519   0.28519   0.37230
     Eigenvalues ---    0.37230   0.37230   0.37230   0.37230   0.37230
     Eigenvalues ---    0.37230   0.37230
 RFO step:  Lambda=-8.58351582D-03 EMin= 2.36824221D-03
 Linear search not attempted -- first point.
 Iteration  1 RMS(Cart)=  0.04090944 RMS(Int)=  0.00073720
 Iteration  2 RMS(Cart)=  0.00054451 RMS(Int)=  0.00023283
 Iteration  3 RMS(Cart)=  0.00000041 RMS(Int)=  0.00023283
 ClnCor:  largest displacement from symmetrization is 1.07D-08 for atom     4.
 Variable       Old X    -DE/DX   Delta X   Delta X   Delta X     New X
                                 (Linear)    (Quad)   (Total)
    R1        2.02201   0.01691   0.00000   0.04439   0.04439   2.06640
    R2        2.02201   0.01675   0.00000   0.04398   0.04398   2.06598
    R3        2.02201   0.01675   0.00000   0.04398   0.04398   2.06598
    R4        2.91018  -0.00161   0.00000  -0.00549  -0.00549   2.90469
    R5        2.91018  -0.00161   0.00000  -0.00549  -0.00549   2.90469
    R6        2.02201   0.01722   0.00000   0.04521   0.04521   2.06721
    R7        2.02201   0.01722   0.00000   0.04521   0.04521   2.06721
    R8        2.02201   0.01675   0.00000   0.04398   0.04398   2.06598
    R9        2.02201   0.01675   0.00000   0.04398   0.04398   2.06598
   R10        2.02201   0.01691   0.00000   0.04439   0.04439   2.06640
    A1        1.91063  -0.00444   0.00000  -0.02504  -0.02545   1.88519
    A2        1.91063  -0.00444   0.00000  -0.02504  -0.02545   1.88519
    A3        1.91063   0.00594   0.00000   0.03652   0.03610   1.94673
    A4        1.91063  -0.00362   0.00000  -0.02403  -0.02414   1.88649
    A5        1.91063   0.00328   0.00000   0.01880   0.01853   1.92916
    A6        1.91063   0.00328   0.00000   0.01880   0.01853   1.92916
    A7        1.91063   0.01056   0.00000   0.05821   0.05769   1.96832
    A8        1.91063  -0.00255   0.00000  -0.00460  -0.00504   1.90559
    A9        1.91063  -0.00255   0.00000  -0.00460  -0.00504   1.90559
   A10        1.91063  -0.00255   0.00000  -0.00460  -0.00504   1.90559
   A11        1.91063  -0.00255   0.00000  -0.00460  -0.00504   1.90559
   A12        1.91063  -0.00034   0.00000  -0.03979  -0.04000   1.87063
   A13        1.91063   0.00328   0.00000   0.01880   0.01853   1.92916
   A14        1.91063   0.00328   0.00000   0.01880   0.01853   1.92916
   A15        1.91063   0.00594   0.00000   0.03652   0.03610   1.94673
   A16        1.91063  -0.00362   0.00000  -0.02403  -0.02414   1.88649
   A17        1.91063  -0.00444   0.00000  -0.02504  -0.02545   1.88519
   A18        1.91063  -0.00444   0.00000  -0.02504  -0.02545   1.88519
    D1        3.14159   0.00000   0.00000   0.00000   0.00000   3.14159
    D2       -1.04720   0.00177   0.00000   0.02718   0.02722  -1.01998
    D3        1.04720  -0.00177   0.00000  -0.02718  -0.02722   1.01998
    D4       -1.04720   0.00021   0.00000   0.00320   0.00328  -1.04392
    D5        1.04720   0.00199   0.00000   0.03039   0.03050   1.07770
    D6        3.14159  -0.00156   0.00000  -0.02398  -0.02394   3.11765
    D7        1.04720  -0.00021   0.00000  -0.00320  -0.00328   1.04392
    D8       -3.14159   0.00156   0.00000   0.02398   0.02394  -3.11765
    D9       -1.04720  -0.00199   0.00000  -0.03039  -0.03050  -1.07770
   D10        1.04720  -0.00021   0.00000  -0.00320  -0.00328   1.04392
   D11       -1.04720   0.00021   0.00000   0.00320   0.00328  -1.04392
   D12        3.14159  -0.00000   0.00000  -0.00000  -0.00000   3.14159
   D13       -1.04720  -0.00199   0.00000  -0.03039  -0.03050  -1.07770
   D14        3.14159  -0.00156   0.00000  -0.02398  -0.02394   3.11765
   D15        1.04720  -0.00177   0.00000  -0.02718  -0.02722   1.01998
   D16       -3.14159   0.00156   0.00000   0.02398   0.02394  -3.11765
   D17        1.04720   0.00199   0.00000   0.03039   0.03050   1.07770
   D18       -1.04720   0.00177   0.00000   0.02718   0.02722  -1.01998
         Item               Value     Threshold  Converged?
 Maximum Force            0.017219     0.000450     NO 
 RMS     Force            0.007643     0.000300     NO 
 Maximum Displacement     0.096231     0.001800     NO 
 RMS     Displacement     0.040601     0.001200     NO 
 Predicted change in Energy=-4.458120D-03
 GradGradGradGradGradGradGradGradGradGradGradGradGradGradGradGradGradGrad

                          Input orientation:                          
 ---------------------------------------------------------------------
 Center     Atomic      Atomic             Coordinates (Angstroms)
 Number     Number       Type             X           Y           Z
 ---------------------------------------------------------------------
      1          6           0       -0.867749   -0.036206   -0.714802
      2          1           0       -0.994427    0.192766    0.346918
      3          1           0       -0.111180    0.641682   -1.118924
      4          1           0       -1.814439    0.171337   -1.220712
      5          6           0       -0.450687   -1.499811   -0.930619
      6          6           0       -0.264498   -1.852817   -2.414997
      7          1           0        0.484613   -1.689614   -0.395963
      8          1           0       -1.209803   -2.157516   -0.497223
      9          1           0        0.508263   -1.223692   -2.864756
     10          1           0       -1.194996   -1.694036   -2.966544
     11          1           0        0.031720   -2.897344   -2.545164
 ---------------------------------------------------------------------
                    Distance matrix (angstroms):
                    1          2          3          4          5
     1  C    0.000000
     2  H    1.093492   0.000000
     3  H    1.093271   1.769278   0.000000
     4  H    1.093271   1.769278   1.769937   0.000000
     5  C    1.537094   2.189194   2.176399   2.176399   0.000000
     6  C    2.560205   3.513600   2.815286   2.815286   1.537094
     7  H    2.159699   2.506549   2.512485   3.070667   1.093923
     8  H    2.159699   2.506549   3.070667   2.512485   1.093923
     9  H    2.815286   3.818283   2.628927   3.169217   2.176399
    10  H    2.815286   3.818283   3.169217   2.628927   2.176399
    11  H    3.513600   4.354985   3.818283   3.818283   2.189194
                    6          7          8          9         10
     6  C    0.000000
     7  H    2.159699   0.000000
     8  H    2.159699   1.760748   0.000000
     9  H    1.093271   2.512485   3.070667   0.000000
    10  H    1.093271   3.070667   2.512485   1.769937   0.000000
    11  H    1.093492   2.506549   2.506549   1.769278   1.769278
                   11
    11  H    0.000000
 Stoichiometry    C3H8
 Framework group  C2V[C2(C),SGV(C2H2),SGV'(H2),X(H4)]
 Deg. of freedom     9
 Full point group                 C2V     NOp   4
 Largest Abelian subgroup         C2V     NOp   4
 Largest concise Abelian subgroup C2V     NOp   4
                         Standard orientation:                         
 ---------------------------------------------------------------------
 Center     Atomic      Atomic             Coordinates (Angstroms)
 Number     Number       Type             X           Y           Z
 ---------------------------------------------------------------------
      1          6           0       -0.000000    1.280103   -0.261204
      2          1           0       -0.000000    2.177493    0.363630
      3          1           0        0.884968    1.314464   -0.902212
      4          1           0       -0.884968    1.314464   -0.902212
      5          6           0       -0.000000   -0.000000    0.589676
      6          6           0        0.000000   -1.280103   -0.261204
      7          1           0        0.880374   -0.000000    1.238990
      8          1           0       -0.880374    0.000000    1.238990
      9          1           0        0.884968   -1.314464   -0.902212
     10          1           0       -0.884968   -1.314464   -0.902212
     11          1           0        0.000000   -2.177493    0.363630
 ---------------------------------------------------------------------
 Rotational constants (GHZ):          29.4372278           8.3437407           7.3995095
 Standard basis: CC-pVDZ (5D, 7F)
 There are    32 symmetry adapted cartesian basis functions of A1  symmetry.
 There are    12 symmetry adapted cartesian basis functions of A2  symmetry.
 There are    17 symmetry adapted cartesian basis functions of B1  symmetry.
 There are    24 symmetry adapted cartesian basis functions of B2  symmetry.
 There are    30 symmetry adapted basis functions of A1  symmetry.
 There are    12 symmetry adapted basis functions of A2  symmetry.
 There are    17 symmetry adapted basis functions of B1  symmetry.
 There are    23 symmetry adapted basis functions of B2  symmetry.
    82 basis functions,   155 primitive gaussians,    85 cartesian basis functions
    13 alpha electrons       13 beta electrons
       nuclear repulsion energy        82.2760457780 Hartrees.
 NAtoms=   11 NActive=   11 NUniq=    5 SFac= 4.00D+00 NAtFMM=   60 NAOKFM=F Big=F
 Integral buffers will be    131072 words long.
 Raffenetti 1 integral format.
 Two-electron integral symmetry is turned on.
 One-electron integrals computed using PRISM.
 NBasis=    82 RedAO= T EigKep=  5.92D-03  NBF=    30    12    17    23
 NBsUse=    82 1.00D-06 EigRej= -1.00D+00 NBFU=    30    12    17    23
 Initial guess from the checkpoint file:  "Propane-HF-ccpvdz.chk"
 B after Tr=    -0.000000   -0.000000   -0.000000
         Rot=    1.000000    0.000000   -0.000000   -0.000000 Ang=   0.00 deg.
 Initial guess orbital symmetries:
       Occupied  (A1) (B2) (A1) (A1) (B2) (A1) (B1) (A1) (B2) (A2)
                 (B1) (A1) (B2)
       Virtual   (A1) (B2) (A1) (B1) (A1) (B1) (B2) (A2) (A1) (B2)
                 (A1) (A2) (B1) (B2) (A1) (B2) (B1) (A1) (B2) (B2)
                 (B1) (A2) (B1) (A1) (A1) (A1) (B2) (A1) (A2) (A1)
                 (B2) (A2) (B1) (B2) (A1) (A1) (B1) (A2) (A1) (B2)
                 (B1) (A2) (B2) (B1) (B2) (A1) (B1) (A2) (A1) (B1)
                 (A1) (B2) (B2) (A1) (B2) (A2) (A1) (B1) (B2) (A2)
                 (A1) (B1) (A1) (B2) (B2) (A1) (A2) (A1) (B1)
 ExpMin= 1.22D-01 ExpMax= 6.67D+03 ExpMxC= 2.28D+02 IAcc=3 IRadAn=         5 AccDes= 0.00D+00
 Harris functional with IExCor=  205 and IRadAn=       5 diagonalized for initial guess.
 HarFok:  IExCor=  205 AccDes= 0.00D+00 IRadAn=         5 IDoV= 1 UseB2=F ITyADJ=14
 ICtDFT=  3500011 ScaDFX=  1.000000  1.000000  1.000000  1.000000
 FoFCou: FMM=F IPFlag=           0 FMFlag=      100000 FMFlg1=           0
         NFxFlg=           0 DoJE=T BraDBF=F KetDBF=T FulRan=T
         wScrn=  0.000000 ICntrl=       500 IOpCl=  0 I1Cent=   200000004 NGrid=           0
         NMat0=    1 NMatS0=      1 NMatT0=    0 NMatD0=    1 NMtDS0=    0 NMtDT0=    0
 Petite list used in FoFCou.
 Keep R1 ints in memory in symmetry-blocked form, NReq=10903218.
 Requested convergence on RMS density matrix=1.00D-08 within 128 cycles.
 Requested convergence on MAX density matrix=1.00D-06.
 Requested convergence on             energy=1.00D-06.
 No special actions if energy rises.
 SCF Done:  E(RHF) =  -118.272327776     A.U. after    9 cycles
            NFock=  9  Conv=0.90D-08     -V/T= 2.0017
 Calling FoFJK, ICntrl=      2127 FMM=F ISym2X=1 I1Cent= 0 IOpClX= 0 NMat=1 NMatS=1 NMatT=0.
 ***** Axes restored to original set *****
 -------------------------------------------------------------------
 Center     Atomic                   Forces (Hartrees/Bohr)
 Number     Number              X              Y              Z
 -------------------------------------------------------------------
      1        6           0.001920483   -0.006650923   -0.001403494
      2        1           0.000177116   -0.000477252   -0.000758446
      3        1          -0.000554451    0.000948597    0.000109679
      4        1          -0.000024833    0.001094847    0.000141329
      5        6          -0.000913381    0.004393733   -0.005018661
      6        6          -0.000955926    0.002011013    0.006703347
      7        1          -0.000462309   -0.001001546    0.000906092
      8        1           0.000805914   -0.000651335    0.000981882
      9        1          -0.000141369   -0.000295345   -0.001054546
     10        1           0.000388248   -0.000149095   -0.001022895
     11        1          -0.000239492    0.000777307    0.000415715
 -------------------------------------------------------------------
 Cartesian Forces:  Max     0.006703347 RMS     0.002172370

 GradGradGradGradGradGradGradGradGradGradGradGradGradGradGradGradGradGrad
 Berny optimization.
 Using GEDIIS/GDIIS optimizer.
 FormGI is forming the generalized inverse of G from B-inverse, IUseBI=4.
 Internal  Forces:  Max     0.005521902 RMS     0.001314161
 Search for a local minimum.
 Step number   2 out of a maximum of   56
 All quantities printed in internal units (Hartrees-Bohrs-Radians)
 Mixed Optimization -- RFO/linear search
 Update second derivatives using D2CorX and points    1    2
 DE= -4.32D-03 DEPred=-4.46D-03 R= 9.70D-01
 TightC=F SS=  1.41D+00  RLast= 1.94D-01 DXNew= 5.0454D-01 5.8179D-01
 Trust test= 9.70D-01 RLast= 1.94D-01 DXMaxT set to 5.05D-01
 ITU=  1  0
 Use linear search instead of GDIIS.
     Eigenvalues ---    0.00237   0.00237   0.03442   0.04705   0.05405
     Eigenvalues ---    0.05405   0.05516   0.05532   0.08270   0.12171
     Eigenvalues ---    0.15180   0.16000   0.16000   0.16000   0.16000
     Eigenvalues ---    0.16360   0.22196   0.27347   0.28519   0.37094
     Eigenvalues ---    0.37230   0.37230   0.37230   0.37230   0.37230
     Eigenvalues ---    0.37230   0.40553
 RFO step:  Lambda=-3.64570356D-04 EMin= 2.36824221D-03
 Quartic linear search produced a step of  0.02996.
 Iteration  1 RMS(Cart)=  0.00745688 RMS(Int)=  0.00005464
 Iteration  2 RMS(Cart)=  0.00004822 RMS(Int)=  0.00002618
 Iteration  3 RMS(Cart)=  0.00000000 RMS(Int)=  0.00002618
 ClnCor:  largest displacement from symmetrization is 8.01D-10 for atom     4.
 Variable       Old X    -DE/DX   Delta X   Delta X   Delta X     New X
                                 (Linear)    (Quad)   (Total)
    R1        2.06640  -0.00086   0.00133  -0.00193  -0.00060   2.06580
    R2        2.06598   0.00016   0.00132   0.00089   0.00221   2.06819
    R3        2.06598   0.00016   0.00132   0.00089   0.00221   2.06819
    R4        2.90469  -0.00552  -0.00016  -0.01997  -0.02013   2.88455
    R5        2.90469  -0.00552  -0.00016  -0.01997  -0.02013   2.88455
    R6        2.06721   0.00022   0.00135   0.00106   0.00241   2.06963
    R7        2.06721   0.00022   0.00135   0.00106   0.00241   2.06963
    R8        2.06598   0.00016   0.00132   0.00089   0.00221   2.06819
    R9        2.06598   0.00016   0.00132   0.00089   0.00221   2.06819
   R10        2.06640  -0.00086   0.00133  -0.00193  -0.00060   2.06580
    A1        1.88519  -0.00034  -0.00076  -0.00347  -0.00423   1.88096
    A2        1.88519  -0.00034  -0.00076  -0.00347  -0.00423   1.88096
    A3        1.94673  -0.00101   0.00108  -0.00719  -0.00610   1.94063
    A4        1.88649  -0.00124  -0.00072  -0.00606  -0.00687   1.87962
    A5        1.92916   0.00141   0.00056   0.00981   0.01033   1.93949
    A6        1.92916   0.00141   0.00056   0.00981   0.01033   1.93949
    A7        1.96832  -0.00075   0.00173   0.00024   0.00193   1.97025
    A8        1.90559   0.00040  -0.00015   0.00352   0.00335   1.90894
    A9        1.90559   0.00040  -0.00015   0.00352   0.00335   1.90894
   A10        1.90559   0.00040  -0.00015   0.00352   0.00335   1.90894
   A11        1.90559   0.00040  -0.00015   0.00352   0.00335   1.90894
   A12        1.87063  -0.00087  -0.00120  -0.01520  -0.01640   1.85423
   A13        1.92916   0.00141   0.00056   0.00981   0.01033   1.93949
   A14        1.92916   0.00141   0.00056   0.00981   0.01033   1.93949
   A15        1.94673  -0.00101   0.00108  -0.00719  -0.00610   1.94063
   A16        1.88649  -0.00124  -0.00072  -0.00606  -0.00687   1.87962
   A17        1.88519  -0.00034  -0.00076  -0.00347  -0.00423   1.88096
   A18        1.88519  -0.00034  -0.00076  -0.00347  -0.00423   1.88096
    D1        3.14159   0.00000   0.00000  -0.00000   0.00000   3.14159
    D2       -1.01998   0.00030   0.00082   0.00713   0.00795  -1.01202
    D3        1.01998  -0.00030  -0.00082  -0.00713  -0.00795   1.01202
    D4       -1.04392  -0.00014   0.00010  -0.00254  -0.00246  -1.04638
    D5        1.07770   0.00016   0.00091   0.00460   0.00549   1.08319
    D6        3.11765  -0.00044  -0.00072  -0.00967  -0.01042   3.10724
    D7        1.04392   0.00014  -0.00010   0.00254   0.00246   1.04638
    D8       -3.11765   0.00044   0.00072   0.00967   0.01042  -3.10724
    D9       -1.07770  -0.00016  -0.00091  -0.00460  -0.00549  -1.08319
   D10        1.04392   0.00014  -0.00010   0.00254   0.00246   1.04638
   D11       -1.04392  -0.00014   0.00010  -0.00254  -0.00246  -1.04638
   D12        3.14159  -0.00000   0.00000  -0.00000   0.00000   3.14159
   D13       -1.07770  -0.00016  -0.00091  -0.00460  -0.00549  -1.08319
   D14        3.11765  -0.00044  -0.00072  -0.00967  -0.01042   3.10724
   D15        1.01998  -0.00030  -0.00082  -0.00713  -0.00795   1.01202
   D16       -3.11765   0.00044   0.00072   0.00967   0.01042  -3.10724
   D17        1.07770   0.00016   0.00091   0.00460   0.00549   1.08319
   D18       -1.01998   0.00030   0.00082   0.00713   0.00795  -1.01202
         Item               Value     Threshold  Converged?
 Maximum Force            0.005522     0.000450     NO 
 RMS     Force            0.001314     0.000300     NO 
 Maximum Displacement     0.025319     0.001800     NO 
 RMS     Displacement     0.007454     0.001200     NO 
 Predicted change in Energy=-1.845616D-04
 GradGradGradGradGradGradGradGradGradGradGradGradGradGradGradGradGradGrad

                          Input orientation:                          
 ---------------------------------------------------------------------
 Center     Atomic      Atomic             Coordinates (Angstroms)
 Number     Number       Type             X           Y           Z
 ---------------------------------------------------------------------
      1          6           0       -0.865787   -0.042227   -0.719804
      2          1           0       -0.990525    0.179401    0.343378
      3          1           0       -0.113619    0.645636   -1.118407
      4          1           0       -1.814441    0.175965   -1.220050
      5          6           0       -0.451590   -1.495464   -0.935584
      6          6           0       -0.266333   -1.847406   -2.409299
      7          1           0        0.480621   -1.691616   -0.395240
      8          1           0       -1.205458   -2.157216   -0.496002
      9          1           0        0.507579   -1.225022   -2.869185
     10          1           0       -1.193243   -1.694693   -2.970828
     11          1           0        0.029612   -2.892610   -2.531765
 ---------------------------------------------------------------------
                    Distance matrix (angstroms):
                    1          2          3          4          5
     1  C    0.000000
     2  H    1.093176   0.000000
     3  H    1.094439   1.767245   0.000000
     4  H    1.094439   1.767245   1.767404   0.000000
     5  C    1.526440   2.175171   2.175307   2.175307   0.000000
     6  C    2.544093   3.494228   2.811580   2.811580   1.526440
     7  H    2.153751   2.492095   2.517705   3.071723   1.095201
     8  H    2.153751   2.492095   3.071723   2.517705   1.095201
     9  H    2.811580   3.812779   2.636375   3.173987   2.175307
    10  H    2.811580   3.812779   3.173987   2.636375   2.175307
    11  H    3.494228   4.329479   3.812779   3.812779   2.175171
                    6          7          8          9         10
     6  C    0.000000
     7  H    2.153751   0.000000
     8  H    2.153751   1.752085   0.000000
     9  H    1.094439   2.517705   3.071723   0.000000
    10  H    1.094439   3.071723   2.517705   1.767404   0.000000
    11  H    1.093176   2.492095   2.492095   1.767245   1.767245
                   11
    11  H    0.000000
 Stoichiometry    C3H8
 Framework group  C2V[C2(C),SGV(C2H2),SGV'(H2),X(H4)]
 Deg. of freedom     9
 Full point group                 C2V     NOp   4
 Largest Abelian subgroup         C2V     NOp   4
 Largest concise Abelian subgroup C2V     NOp   4
                         Standard orientation:                         
 ---------------------------------------------------------------------
 Center     Atomic      Atomic             Coordinates (Angstroms)
 Number     Number       Type             X           Y           Z
 ---------------------------------------------------------------------
      1          6           0       -0.000000    1.272046   -0.259635
      2          1           0       -0.000000    2.164739    0.371343
      3          1           0        0.883702    1.318188   -0.903638
      4          1           0       -0.883702    1.318188   -0.903638
      5          6           0       -0.000000   -0.000000    0.584117
      6          6           0       -0.000000   -1.272046   -0.259635
      7          1           0        0.876042   -0.000000    1.241394
      8          1           0       -0.876042    0.000000    1.241394
      9          1           0        0.883702   -1.318188   -0.903638
     10          1           0       -0.883702   -1.318188   -0.903638
     11          1           0       -0.000000   -2.164739    0.371343
 ---------------------------------------------------------------------
 Rotational constants (GHZ):          29.5892167           8.4258038           7.4683305
 Standard basis: CC-pVDZ (5D, 7F)
 There are    32 symmetry adapted cartesian basis functions of A1  symmetry.
 There are    12 symmetry adapted cartesian basis functions of A2  symmetry.
 There are    17 symmetry adapted cartesian basis functions of B1  symmetry.
 There are    24 symmetry adapted cartesian basis functions of B2  symmetry.
 There are    30 symmetry adapted basis functions of A1  symmetry.
 There are    12 symmetry adapted basis functions of A2  symmetry.
 There are    17 symmetry adapted basis functions of B1  symmetry.
 There are    23 symmetry adapted basis functions of B2  symmetry.
    82 basis functions,   155 primitive gaussians,    85 cartesian basis functions
    13 alpha electrons       13 beta electrons
       nuclear repulsion energy        82.5390343835 Hartrees.
 NAtoms=   11 NActive=   11 NUniq=    5 SFac= 4.00D+00 NAtFMM=   60 NAOKFM=F Big=F
 Integral buffers will be    131072 words long.
 Raffenetti 1 integral format.
 Two-electron integral symmetry is turned on.
 One-electron integrals computed using PRISM.
 NBasis=    82 RedAO= T EigKep=  5.75D-03  NBF=    30    12    17    23
 NBsUse=    82 1.00D-06 EigRej= -1.00D+00 NBFU=    30    12    17    23
 Initial guess from the checkpoint file:  "Propane-HF-ccpvdz.chk"
 B after Tr=     0.000000    0.000000   -0.000000
         Rot=    1.000000    0.000000   -0.000000    0.000000 Ang=   0.00 deg.
 Initial guess orbital symmetries:
       Occupied  (A1) (B2) (A1) (A1) (B2) (A1) (B1) (A1) (B2) (A2)
                 (B2) (A1) (B1)
       Virtual   (A1) (B2) (A1) (B1) (A1) (B1) (B2) (A2) (A1) (B2)
                 (A1) (B1) (A2) (B2) (A1) (B2) (B1) (A1) (B2) (B2)
                 (B1) (A2) (B1) (A1) (A1) (A1) (B2) (A2) (A1) (A1)
                 (B2) (A2) (B1) (B2) (A1) (A1) (B1) (A2) (A1) (B2)
                 (B1) (A2) (B2) (B1) (A1) (B2) (A2) (B1) (A1) (B1)
                 (B2) (A1) (B2) (A2) (A1) (B2) (A1) (B1) (B2) (A1)
                 (A2) (A1) (B1) (B2) (B2) (A1) (A1) (A2) (B1)
 ExpMin= 1.22D-01 ExpMax= 6.67D+03 ExpMxC= 2.28D+02 IAcc=3 IRadAn=         5 AccDes= 0.00D+00
 Harris functional with IExCor=  205 and IRadAn=       5 diagonalized for initial guess.
 HarFok:  IExCor=  205 AccDes= 0.00D+00 IRadAn=         5 IDoV= 1 UseB2=F ITyADJ=14
 ICtDFT=  3500011 ScaDFX=  1.000000  1.000000  1.000000  1.000000
 FoFCou: FMM=F IPFlag=           0 FMFlag=      100000 FMFlg1=           0
         NFxFlg=           0 DoJE=T BraDBF=F KetDBF=T FulRan=T
         wScrn=  0.000000 ICntrl=       500 IOpCl=  0 I1Cent=   200000004 NGrid=           0
         NMat0=    1 NMatS0=      1 NMatT0=    0 NMatD0=    1 NMtDS0=    0 NMtDT0=    0
 Petite list used in FoFCou.
 Keep R1 ints in memory in symmetry-blocked form, NReq=10903296.
 Requested convergence on RMS density matrix=1.00D-08 within 128 cycles.
 Requested convergence on MAX density matrix=1.00D-06.
 Requested convergence on             energy=1.00D-06.
 No special actions if energy rises.
 SCF Done:  E(RHF) =  -118.272509601     A.U. after    8 cycles
            NFock=  8  Conv=0.36D-08     -V/T= 2.0015
 Calling FoFJK, ICntrl=      2127 FMM=F ISym2X=1 I1Cent= 0 IOpClX= 0 NMat=1 NMatS=1 NMatT=0.
 ***** Axes restored to original set *****
 -------------------------------------------------------------------
 Center     Atomic                   Forces (Hartrees/Bohr)
 Number     Number              X              Y              Z
 -------------------------------------------------------------------
      1        6          -0.000066182    0.000081822    0.000729358
      2        1          -0.000042386    0.000242410   -0.000410874
      3        1          -0.000438242   -0.000256408    0.000162092
      4        1           0.000486649   -0.000001005    0.000217364
      5        6          -0.000090157    0.000433690   -0.000495375
      6        6           0.000196780   -0.000710055   -0.000011771
      7        1          -0.000358132   -0.000004883   -0.000121853
      8        1           0.000321167    0.000182701   -0.000081257
      9        1          -0.000424591   -0.000297517    0.000123617
     10        1           0.000500300   -0.000042114    0.000178889
     11        1          -0.000085206    0.000371357   -0.000290190
 -------------------------------------------------------------------
 Cartesian Forces:  Max     0.000729358 RMS     0.000321408

 GradGradGradGradGradGradGradGradGradGradGradGradGradGradGradGradGradGrad
 Berny optimization.
 Using GEDIIS/GDIIS optimizer.
 FormGI is forming the generalized inverse of G from B-inverse, IUseBI=4.
 Internal  Forces:  Max     0.000930509 RMS     0.000280161
 Search for a local minimum.
 Step number   3 out of a maximum of   56
 All quantities printed in internal units (Hartrees-Bohrs-Radians)
 Mixed Optimization -- En-DIIS/RFO-DIIS
 Update second derivatives using D2CorX and points    1    2    3
 DE= -1.82D-04 DEPred=-1.85D-04 R= 9.85D-01
 TightC=F SS=  1.41D+00  RLast= 5.16D-02 DXNew= 8.4853D-01 1.5470D-01
 Trust test= 9.85D-01 RLast= 5.16D-02 DXMaxT set to 5.05D-01
 ITU=  1  1  0
 Use linear search instead of GDIIS.
     Eigenvalues ---    0.00237   0.00237   0.03395   0.04347   0.05404
     Eigenvalues ---    0.05404   0.05415   0.05502   0.08325   0.12212
     Eigenvalues ---    0.14201   0.16000   0.16000   0.16000   0.16000
     Eigenvalues ---    0.16770   0.21885   0.28519   0.31127   0.37191
     Eigenvalues ---    0.37230   0.37230   0.37230   0.37230   0.37230
     Eigenvalues ---    0.37451   0.40401
 RFO step:  Lambda=-1.59953555D-05 EMin= 2.36824221D-03
 Quartic linear search produced a step of -0.02254.
 Iteration  1 RMS(Cart)=  0.00248297 RMS(Int)=  0.00000267
 Iteration  2 RMS(Cart)=  0.00000397 RMS(Int)=  0.00000129
 Iteration  3 RMS(Cart)=  0.00000000 RMS(Int)=  0.00000129
 ClnCor:  largest displacement from symmetrization is 1.44D-08 for atom    10.
 Variable       Old X    -DE/DX   Delta X   Delta X   Delta X     New X
                                 (Linear)    (Quad)   (Total)
    R1        2.06580  -0.00035   0.00001  -0.00096  -0.00095   2.06486
    R2        2.06819  -0.00052  -0.00005  -0.00124  -0.00129   2.06690
    R3        2.06819  -0.00052  -0.00005  -0.00124  -0.00129   2.06690
    R4        2.88455   0.00018   0.00045  -0.00070  -0.00025   2.88431
    R5        2.88455   0.00018   0.00045  -0.00070  -0.00025   2.88431
    R6        2.06963  -0.00036  -0.00005  -0.00081  -0.00087   2.06876
    R7        2.06963  -0.00036  -0.00005  -0.00081  -0.00087   2.06876
    R8        2.06819  -0.00052  -0.00005  -0.00124  -0.00129   2.06690
    R9        2.06819  -0.00052  -0.00005  -0.00124  -0.00129   2.06690
   R10        2.06580  -0.00035   0.00001  -0.00096  -0.00095   2.06486
    A1        1.88096  -0.00021   0.00010  -0.00107  -0.00098   1.87998
    A2        1.88096  -0.00021   0.00010  -0.00107  -0.00098   1.87998
    A3        1.94063   0.00047   0.00014   0.00292   0.00306   1.94369
    A4        1.87962  -0.00012   0.00015  -0.00209  -0.00193   1.87769
    A5        1.93949   0.00002  -0.00023   0.00053   0.00030   1.93979
    A6        1.93949   0.00002  -0.00023   0.00053   0.00030   1.93979
    A7        1.97025   0.00093  -0.00004   0.00495   0.00491   1.97516
    A8        1.90894  -0.00027  -0.00008  -0.00061  -0.00068   1.90825
    A9        1.90894  -0.00027  -0.00008  -0.00061  -0.00068   1.90825
   A10        1.90894  -0.00027  -0.00008  -0.00061  -0.00068   1.90825
   A11        1.90894  -0.00027  -0.00008  -0.00061  -0.00068   1.90825
   A12        1.85423   0.00009   0.00037  -0.00302  -0.00265   1.85158
   A13        1.93949   0.00002  -0.00023   0.00053   0.00030   1.93979
   A14        1.93949   0.00002  -0.00023   0.00053   0.00030   1.93979
   A15        1.94063   0.00047   0.00014   0.00292   0.00306   1.94369
   A16        1.87962  -0.00012   0.00015  -0.00209  -0.00193   1.87769
   A17        1.88096  -0.00021   0.00010  -0.00107  -0.00098   1.87998
   A18        1.88096  -0.00021   0.00010  -0.00107  -0.00098   1.87998
    D1        3.14159   0.00000   0.00000  -0.00000   0.00000   3.14159
    D2       -1.01202   0.00010  -0.00018   0.00215   0.00197  -1.01005
    D3        1.01202  -0.00010   0.00018  -0.00215  -0.00197   1.01005
    D4       -1.04638   0.00006   0.00006   0.00096   0.00102  -1.04536
    D5        1.08319   0.00016  -0.00012   0.00312   0.00299   1.08618
    D6        3.10724  -0.00004   0.00023  -0.00119  -0.00095   3.10629
    D7        1.04638  -0.00006  -0.00006  -0.00096  -0.00102   1.04536
    D8       -3.10724   0.00004  -0.00023   0.00119   0.00095  -3.10629
    D9       -1.08319  -0.00016   0.00012  -0.00312  -0.00299  -1.08618
   D10        1.04638  -0.00006  -0.00006  -0.00096  -0.00102   1.04536
   D11       -1.04638   0.00006   0.00006   0.00096   0.00102  -1.04536
   D12       -3.14159  -0.00000  -0.00000   0.00000  -0.00000   3.14159
   D13       -1.08319  -0.00016   0.00012  -0.00312  -0.00299  -1.08618
   D14        3.10724  -0.00004   0.00023  -0.00119  -0.00095   3.10629
   D15        1.01202  -0.00010   0.00018  -0.00215  -0.00197   1.01005
   D16       -3.10724   0.00004  -0.00023   0.00119   0.00095  -3.10629
   D17        1.08319   0.00016  -0.00012   0.00312   0.00299   1.08618
   D18       -1.01202   0.00010  -0.00018   0.00215   0.00197  -1.01005
         Item               Value     Threshold  Converged?
 Maximum Force            0.000931     0.000450     NO 
 RMS     Force            0.000280     0.000300     YES
 Maximum Displacement     0.005798     0.001800     NO 
 RMS     Displacement     0.002480     0.001200     NO 
 Predicted change in Energy=-8.083787D-06
 GradGradGradGradGradGradGradGradGradGradGradGradGradGradGradGradGradGrad

                          Input orientation:                          
 ---------------------------------------------------------------------
 Center     Atomic      Atomic             Coordinates (Angstroms)
 Number     Number       Type             X           Y           Z
 ---------------------------------------------------------------------
      1          6           0       -0.866114   -0.041484   -0.717765
      2          1           0       -0.990958    0.180666    0.344781
      3          1           0       -0.115441    0.647251   -1.115809
      4          1           0       -1.814002    0.178204   -1.217317
      5          6           0       -0.451889   -1.494025   -0.937227
      6          6           0       -0.265737   -1.849442   -2.409861
      7          1           0        0.479252   -1.691083   -0.396296
      8          1           0       -1.204447   -2.156025   -0.496916
      9          1           0        0.507313   -1.228091   -2.870971
     10          1           0       -1.191249   -1.697137   -2.972478
     11          1           0        0.030089   -2.894086   -2.532927
 ---------------------------------------------------------------------
                    Distance matrix (angstroms):
                    1          2          3          4          5
     1  C    0.000000
     2  H    1.092676   0.000000
     3  H    1.093758   1.765661   0.000000
     4  H    1.093758   1.765661   1.765055   0.000000
     5  C    1.526310   2.176863   2.174892   2.174892   0.000000
     6  C    2.548010   3.497904   2.816138   2.816138   1.526310
     7  H    2.152795   2.492821   2.517769   3.070394   1.094742
     8  H    2.152795   2.492821   3.070394   2.517769   1.094742
     9  H    2.816138   3.817129   2.642976   3.178166   2.174892
    10  H    2.816138   3.817129   3.178166   2.642976   2.174892
    11  H    3.497904   4.333341   3.817129   3.817129   2.176863
                    6          7          8          9         10
     6  C    0.000000
     7  H    2.152795   0.000000
     8  H    2.152795   1.749610   0.000000
     9  H    1.093758   2.517769   3.070394   0.000000
    10  H    1.093758   3.070394   2.517769   1.765055   0.000000
    11  H    1.092676   2.492821   2.492821   1.765661   1.765661
                   11
    11  H    0.000000
 Stoichiometry    C3H8
 Framework group  C2V[C2(C),SGV(C2H2),SGV'(H2),X(H4)]
 Deg. of freedom     9
 Full point group                 C2V     NOp   4
 Largest Abelian subgroup         C2V     NOp   4
 Largest concise Abelian subgroup C2V     NOp   4
                         Standard orientation:                         
 ---------------------------------------------------------------------
 Center     Atomic      Atomic             Coordinates (Angstroms)
 Number     Number       Type             X           Y           Z
 ---------------------------------------------------------------------
      1          6           0       -0.000000    1.274005   -0.258602
      2          1           0       -0.000000    2.166671    0.371548
      3          1           0        0.882527    1.321488   -0.902959
      4          1           0       -0.882527    1.321488   -0.902959
      5          6           0       -0.000000    0.000000    0.581955
      6          6           0       -0.000000   -1.274005   -0.258602
      7          1           0        0.874805    0.000000    1.240116
      8          1           0       -0.874805    0.000000    1.240116
      9          1           0        0.882527   -1.321488   -0.902959
     10          1           0       -0.882527   -1.321488   -0.902959
     11          1           0       -0.000000   -2.166671    0.371548
 ---------------------------------------------------------------------
 Rotational constants (GHZ):          29.7054939           8.4035389           7.4553831
 Standard basis: CC-pVDZ (5D, 7F)
 There are    32 symmetry adapted cartesian basis functions of A1  symmetry.
 There are    12 symmetry adapted cartesian basis functions of A2  symmetry.
 There are    17 symmetry adapted cartesian basis functions of B1  symmetry.
 There are    24 symmetry adapted cartesian basis functions of B2  symmetry.
 There are    30 symmetry adapted basis functions of A1  symmetry.
 There are    12 symmetry adapted basis functions of A2  symmetry.
 There are    17 symmetry adapted basis functions of B1  symmetry.
 There are    23 symmetry adapted basis functions of B2  symmetry.
    82 basis functions,   155 primitive gaussians,    85 cartesian basis functions
    13 alpha electrons       13 beta electrons
       nuclear repulsion energy        82.5343515842 Hartrees.
 NAtoms=   11 NActive=   11 NUniq=    5 SFac= 4.00D+00 NAtFMM=   60 NAOKFM=F Big=F
 Integral buffers will be    131072 words long.
 Raffenetti 1 integral format.
 Two-electron integral symmetry is turned on.
 One-electron integrals computed using PRISM.
 NBasis=    82 RedAO= T EigKep=  5.76D-03  NBF=    30    12    17    23
 NBsUse=    82 1.00D-06 EigRej= -1.00D+00 NBFU=    30    12    17    23
 Initial guess from the checkpoint file:  "Propane-HF-ccpvdz.chk"
 B after Tr=     0.000000   -0.000000    0.000000
         Rot=    1.000000   -0.000000    0.000000    0.000000 Ang=   0.00 deg.
 Initial guess orbital symmetries:
       Occupied  (A1) (B2) (A1) (A1) (B2) (A1) (B1) (A1) (B2) (A2)
                 (A1) (B2) (B1)
       Virtual   (A1) (B2) (A1) (B1) (A1) (B1) (B2) (A2) (A1) (B2)
                 (A1) (B1) (A2) (B2) (A1) (B2) (B1) (A1) (B2) (B2)
                 (B1) (A2) (B1) (A1) (A1) (A1) (B2) (A1) (A2) (A1)
                 (B2) (A2) (B1) (B2) (A1) (A1) (B1) (A2) (A1) (B2)
                 (B1) (A2) (B2) (B1) (A1) (A2) (B1) (B2) (A1) (B1)
                 (B2) (A1) (B2) (A2) (A1) (B2) (A1) (B1) (B2) (A1)
                 (A2) (A1) (B1) (B2) (B2) (A1) (A1) (A2) (B1)
 Keep R1 ints in memory in symmetry-blocked form, NReq=10903296.
 Requested convergence on RMS density matrix=1.00D-08 within 128 cycles.
 Requested convergence on MAX density matrix=1.00D-06.
 Requested convergence on             energy=1.00D-06.
 No special actions if energy rises.
 SCF Done:  E(RHF) =  -118.272516420     A.U. after    7 cycles
            NFock=  7  Conv=0.77D-08     -V/T= 2.0014
 Calling FoFJK, ICntrl=      2127 FMM=F ISym2X=1 I1Cent= 0 IOpClX= 0 NMat=1 NMatS=1 NMatT=0.
 ***** Axes restored to original set *****
 -------------------------------------------------------------------
 Center     Atomic                   Forces (Hartrees/Bohr)
 Number     Number              X              Y              Z
 -------------------------------------------------------------------
      1        6          -0.000027781    0.000118130   -0.000080990
      2        1           0.000028385   -0.000097513   -0.000024394
      3        1           0.000020324    0.000008582   -0.000010410
      4        1          -0.000020557   -0.000002707   -0.000012853
      5        6           0.000036870   -0.000177358    0.000202584
      6        6          -0.000010542    0.000066216   -0.000129576
      7        1           0.000042536    0.000027442   -0.000014229
      8        1          -0.000048708    0.000002246   -0.000019682
      9        1           0.000017680    0.000016547   -0.000002956
     10        1          -0.000023201    0.000005258   -0.000005399
     11        1          -0.000015007    0.000033158    0.000097903
 -------------------------------------------------------------------
 Cartesian Forces:  Max     0.000202584 RMS     0.000066551

 GradGradGradGradGradGradGradGradGradGradGradGradGradGradGradGradGradGrad
 Berny optimization.
 Using GEDIIS/GDIIS optimizer.
 FormGI is forming the generalized inverse of G from B-inverse, IUseBI=4.
 Internal  Forces:  Max     0.000135728 RMS     0.000043095
 Search for a local minimum.
 Step number   4 out of a maximum of   56
 All quantities printed in internal units (Hartrees-Bohrs-Radians)
 Mixed Optimization -- En-DIIS/RFO-DIIS
 Swapping is turned off.
 Update second derivatives using D2CorX and points    1    2    3    4
 DE= -6.82D-06 DEPred=-8.08D-06 R= 8.44D-01
 TightC=F SS=  1.41D+00  RLast= 1.15D-02 DXNew= 8.4853D-01 3.4535D-02
 Trust test= 8.44D-01 RLast= 1.15D-02 DXMaxT set to 5.05D-01
 ITU=  1  1  1  0
     Eigenvalues ---    0.00237   0.00237   0.03364   0.04543   0.05380
     Eigenvalues ---    0.05380   0.05413   0.05580   0.08377   0.12250
     Eigenvalues ---    0.14368   0.16000   0.16000   0.16000   0.16000
     Eigenvalues ---    0.17442   0.22709   0.28519   0.31498   0.37156
     Eigenvalues ---    0.37230   0.37230   0.37230   0.37230   0.37230
     Eigenvalues ---    0.37821   0.39338
 En-DIIS/RFO-DIIS/Sim-DIIS IScMMF=       -3 using points:     4    3
 RFO step:  Lambda=-4.85915762D-07.
 DidBck=F Rises=F RFO-DIIS coefs:    0.83006    0.16994
 Iteration  1 RMS(Cart)=  0.00030047 RMS(Int)=  0.00000017
 Iteration  2 RMS(Cart)=  0.00000013 RMS(Int)=  0.00000016
 ClnCor:  largest displacement from symmetrization is 1.34D-09 for atom    11.
 Variable       Old X    -DE/DX   Delta X   Delta X   Delta X     New X
                                 (Linear)    (Quad)   (Total)
    R1        2.06486  -0.00005   0.00016  -0.00026  -0.00010   2.06476
    R2        2.06690   0.00002   0.00022  -0.00018   0.00004   2.06694
    R3        2.06690   0.00002   0.00022  -0.00018   0.00004   2.06694
    R4        2.88431   0.00001   0.00004   0.00015   0.00019   2.88450
    R5        2.88431   0.00001   0.00004   0.00015   0.00019   2.88450
    R6        2.06876   0.00002   0.00015  -0.00011   0.00004   2.06880
    R7        2.06876   0.00002   0.00015  -0.00011   0.00004   2.06880
    R8        2.06690   0.00002   0.00022  -0.00018   0.00004   2.06694
    R9        2.06690   0.00002   0.00022  -0.00018   0.00004   2.06694
   R10        2.06486  -0.00005   0.00016  -0.00026  -0.00010   2.06476
    A1        1.87998   0.00005   0.00017   0.00006   0.00023   1.88021
    A2        1.87998   0.00005   0.00017   0.00006   0.00023   1.88021
    A3        1.94369  -0.00014  -0.00052  -0.00022  -0.00074   1.94295
    A4        1.87769   0.00000   0.00033  -0.00009   0.00023   1.87792
    A5        1.93979   0.00002  -0.00005   0.00010   0.00004   1.93983
    A6        1.93979   0.00002  -0.00005   0.00010   0.00004   1.93983
    A7        1.97516  -0.00013  -0.00083   0.00021  -0.00062   1.97454
    A8        1.90825   0.00003   0.00012  -0.00010   0.00002   1.90827
    A9        1.90825   0.00003   0.00012  -0.00010   0.00002   1.90827
   A10        1.90825   0.00003   0.00012  -0.00010   0.00002   1.90827
   A11        1.90825   0.00003   0.00012  -0.00010   0.00002   1.90827
   A12        1.85158   0.00001   0.00045   0.00018   0.00063   1.85221
   A13        1.93979   0.00002  -0.00005   0.00010   0.00004   1.93983
   A14        1.93979   0.00002  -0.00005   0.00010   0.00004   1.93983
   A15        1.94369  -0.00014  -0.00052  -0.00022  -0.00074   1.94295
   A16        1.87769   0.00000   0.00033  -0.00009   0.00023   1.87792
   A17        1.87998   0.00005   0.00017   0.00006   0.00023   1.88021
   A18        1.87998   0.00005   0.00017   0.00006   0.00023   1.88021
    D1        3.14159   0.00000   0.00000   0.00000   0.00000   3.14159
    D2       -1.01005  -0.00002  -0.00033  -0.00005  -0.00039  -1.01044
    D3        1.01005   0.00002   0.00033   0.00005   0.00039   1.01044
    D4       -1.04536  -0.00001  -0.00017  -0.00000  -0.00018  -1.04554
    D5        1.08618  -0.00003  -0.00051  -0.00006  -0.00056   1.08562
    D6        3.10629   0.00001   0.00016   0.00005   0.00021   3.10650
    D7        1.04536   0.00001   0.00017   0.00000   0.00018   1.04554
    D8       -3.10629  -0.00001  -0.00016  -0.00005  -0.00021  -3.10650
    D9       -1.08618   0.00003   0.00051   0.00006   0.00056  -1.08562
   D10        1.04536   0.00001   0.00017   0.00000   0.00018   1.04554
   D11       -1.04536  -0.00001  -0.00017  -0.00000  -0.00018  -1.04554
   D12        3.14159  -0.00000   0.00000  -0.00000   0.00000   3.14159
   D13       -1.08618   0.00003   0.00051   0.00006   0.00056  -1.08562
   D14        3.10629   0.00001   0.00016   0.00005   0.00021   3.10650
   D15        1.01005   0.00002   0.00033   0.00005   0.00039   1.01044
   D16       -3.10629  -0.00001  -0.00016  -0.00005  -0.00021  -3.10650
   D17        1.08618  -0.00003  -0.00051  -0.00006  -0.00056   1.08562
   D18       -1.01005  -0.00002  -0.00033  -0.00005  -0.00039  -1.01044
         Item               Value     Threshold  Converged?
 Maximum Force            0.000136     0.000450     YES
 RMS     Force            0.000043     0.000300     YES
 Maximum Displacement     0.000882     0.001800     YES
 RMS     Displacement     0.000301     0.001200     YES
 Predicted change in Energy=-2.429595D-07
 Optimization completed.
    -- Stationary point found.
                           ----------------------------
                           !   Optimized Parameters   !
                           ! (Angstroms and Degrees)  !
 --------------------------                            --------------------------
 ! Name  Definition              Value          Derivative Info.                !
 --------------------------------------------------------------------------------
 ! R1    R(1,2)                  1.0927         -DE/DX =    0.0                 !
 ! R2    R(1,3)                  1.0938         -DE/DX =    0.0                 !
 ! R3    R(1,4)                  1.0938         -DE/DX =    0.0                 !
 ! R4    R(1,5)                  1.5263         -DE/DX =    0.0                 !
 ! R5    R(5,6)                  1.5263         -DE/DX =    0.0                 !
 ! R6    R(5,7)                  1.0947         -DE/DX =    0.0                 !
 ! R7    R(5,8)                  1.0947         -DE/DX =    0.0                 !
 ! R8    R(6,9)                  1.0938         -DE/DX =    0.0                 !
 ! R9    R(6,10)                 1.0938         -DE/DX =    0.0                 !
 ! R10   R(6,11)                 1.0927         -DE/DX =    0.0                 !
 ! A1    A(2,1,3)              107.715          -DE/DX =    0.0001              !
 ! A2    A(2,1,4)              107.715          -DE/DX =    0.0001              !
 ! A3    A(2,1,5)              111.3652         -DE/DX =   -0.0001              !
 ! A4    A(3,1,4)              107.5837         -DE/DX =    0.0                 !
 ! A5    A(3,1,5)              111.1415         -DE/DX =    0.0                 !
 ! A6    A(4,1,5)              111.1415         -DE/DX =    0.0                 !
 ! A7    A(1,5,6)              113.1684         -DE/DX =   -0.0001              !
 ! A8    A(1,5,7)              109.3349         -DE/DX =    0.0                 !
 ! A9    A(1,5,8)              109.3349         -DE/DX =    0.0                 !
 ! A10   A(6,5,7)              109.3349         -DE/DX =    0.0                 !
 ! A11   A(6,5,8)              109.3349         -DE/DX =    0.0                 !
 ! A12   A(7,5,8)              106.0879         -DE/DX =    0.0                 !
 ! A13   A(5,6,9)              111.1415         -DE/DX =    0.0                 !
 ! A14   A(5,6,10)             111.1415         -DE/DX =    0.0                 !
 ! A15   A(5,6,11)             111.3652         -DE/DX =   -0.0001              !
 ! A16   A(9,6,10)             107.5837         -DE/DX =    0.0                 !
 ! A17   A(9,6,11)             107.715          -DE/DX =    0.0001              !
 ! A18   A(10,6,11)            107.715          -DE/DX =    0.0001              !
 ! D1    D(2,1,5,6)            180.0            -DE/DX =    0.0                 !
 ! D2    D(2,1,5,7)            -57.8718         -DE/DX =    0.0                 !
 ! D3    D(2,1,5,8)             57.8718         -DE/DX =    0.0                 !
 ! D4    D(3,1,5,6)            -59.8946         -DE/DX =    0.0                 !
 ! D5    D(3,1,5,7)             62.2336         -DE/DX =    0.0                 !
 ! D6    D(3,1,5,8)            177.9771         -DE/DX =    0.0                 !
 ! D7    D(4,1,5,6)             59.8946         -DE/DX =    0.0                 !
 ! D8    D(4,1,5,7)           -177.9771         -DE/DX =    0.0                 !
 ! D9    D(4,1,5,8)            -62.2336         -DE/DX =    0.0                 !
 ! D10   D(1,5,6,9)             59.8946         -DE/DX =    0.0                 !
 ! D11   D(1,5,6,10)           -59.8946         -DE/DX =    0.0                 !
 ! D12   D(1,5,6,11)           180.0            -DE/DX =    0.0                 !
 ! D13   D(7,5,6,9)            -62.2336         -DE/DX =    0.0                 !
 ! D14   D(7,5,6,10)           177.9771         -DE/DX =    0.0                 !
 ! D15   D(7,5,6,11)            57.8718         -DE/DX =    0.0                 !
 ! D16   D(8,5,6,9)           -177.9771         -DE/DX =    0.0                 !
 ! D17   D(8,5,6,10)            62.2336         -DE/DX =    0.0                 !
 ! D18   D(8,5,6,11)           -57.8718         -DE/DX =    0.0                 !
 --------------------------------------------------------------------------------
 GradGradGradGradGradGradGradGradGradGradGradGradGradGradGradGradGradGrad

                          Input orientation:                          
 ---------------------------------------------------------------------
 Center     Atomic      Atomic             Coordinates (Angstroms)
 Number     Number       Type             X           Y           Z
 ---------------------------------------------------------------------
      1          6           0       -0.866114   -0.041484   -0.717765
      2          1           0       -0.990958    0.180666    0.344781
      3          1           0       -0.115441    0.647251   -1.115809
      4          1           0       -1.814002    0.178204   -1.217317
      5          6           0       -0.451889   -1.494025   -0.937227
      6          6           0       -0.265737   -1.849442   -2.409861
      7          1           0        0.479252   -1.691083   -0.396296
      8          1           0       -1.204447   -2.156025   -0.496916
      9          1           0        0.507313   -1.228091   -2.870971
     10          1           0       -1.191249   -1.697137   -2.972478
     11          1           0        0.030089   -2.894086   -2.532927
 ---------------------------------------------------------------------
                    Distance matrix (angstroms):
                    1          2          3          4          5
     1  C    0.000000
     2  H    1.092676   0.000000
     3  H    1.093758   1.765661   0.000000
     4  H    1.093758   1.765661   1.765055   0.000000
     5  C    1.526310   2.176863   2.174892   2.174892   0.000000
     6  C    2.548010   3.497904   2.816138   2.816138   1.526310
     7  H    2.152795   2.492821   2.517769   3.070394   1.094742
     8  H    2.152795   2.492821   3.070394   2.517769   1.094742
     9  H    2.816138   3.817129   2.642976   3.178166   2.174892
    10  H    2.816138   3.817129   3.178166   2.642976   2.174892
    11  H    3.497904   4.333341   3.817129   3.817129   2.176863
                    6          7          8          9         10
     6  C    0.000000
     7  H    2.152795   0.000000
     8  H    2.152795   1.749610   0.000000
     9  H    1.093758   2.517769   3.070394   0.000000
    10  H    1.093758   3.070394   2.517769   1.765055   0.000000
    11  H    1.092676   2.492821   2.492821   1.765661   1.765661
                   11
    11  H    0.000000
 Stoichiometry    C3H8
 Framework group  C2V[C2(C),SGV(C2H2),SGV'(H2),X(H4)]
 Deg. of freedom     9
 Full point group                 C2V     NOp   4
 Largest Abelian subgroup         C2V     NOp   4
 Largest concise Abelian subgroup C2V     NOp   4
                         Standard orientation:                         
 ---------------------------------------------------------------------
 Center     Atomic      Atomic             Coordinates (Angstroms)
 Number     Number       Type             X           Y           Z
 ---------------------------------------------------------------------
      1          6           0       -0.000000    1.274005   -0.258602
      2          1           0       -0.000000    2.166671    0.371548
      3          1           0        0.882527    1.321488   -0.902959
      4          1           0       -0.882527    1.321488   -0.902959
      5          6           0        0.000000    0.000000    0.581955
      6          6           0        0.000000   -1.274005   -0.258602
      7          1           0        0.874805   -0.000000    1.240116
      8          1           0       -0.874805    0.000000    1.240116
      9          1           0        0.882527   -1.321488   -0.902959
     10          1           0       -0.882527   -1.321488   -0.902959
     11          1           0        0.000000   -2.166671    0.371548
 ---------------------------------------------------------------------
 Rotational constants (GHZ):          29.7054939           8.4035389           7.4553831

 **********************************************************************

            Population analysis using the SCF Density.

 **********************************************************************

 Orbital symmetries:
       Occupied  (A1) (B2) (A1) (A1) (B2) (A1) (B1) (A1) (B2) (A2)
                 (B2) (A1) (B1)
       Virtual   (A1) (B2) (A1) (B1) (A1) (B1) (B2) (A2) (A1) (B2)
                 (A1) (B1) (A2) (B2) (A1) (B2) (B1) (A1) (B2) (B2)
                 (B1) (A2) (B1) (A1) (A1) (A1) (B2) (A1) (A2) (A1)
                 (B2) (A2) (B1) (B2) (A1) (A1) (B1) (A2) (A1) (B2)
                 (B1) (A2) (B2) (B1) (A1) (A2) (B1) (B2) (A1) (B1)
                 (B2) (A1) (B2) (A2) (A1) (B2) (A1) (B1) (B2) (A1)
                 (A2) (A1) (B1) (B2) (B2) (A1) (A1) (A2) (B1)
 The electronic state is 1-A1.
 Alpha  occ. eigenvalues --  -11.22190 -11.21645 -11.21641  -1.05274  -0.92542
 Alpha  occ. eigenvalues --   -0.79909  -0.62198  -0.59557  -0.54899  -0.52937
 Alpha  occ. eigenvalues --   -0.47452  -0.47339  -0.46577
 Alpha virt. eigenvalues --    0.18281   0.22980   0.23379   0.23547   0.26600
 Alpha virt. eigenvalues --    0.28361   0.29233   0.30451   0.37102   0.42644
 Alpha virt. eigenvalues --    0.57307   0.60038   0.61515   0.61670   0.63723
 Alpha virt. eigenvalues --    0.80461   0.81309   0.85201   0.87808   0.89140
 Alpha virt. eigenvalues --    0.89534   0.89865   0.90269   0.91045   0.91616
 Alpha virt. eigenvalues --    0.95306   0.96813   1.12765   1.12828   1.19603
 Alpha virt. eigenvalues --    1.36705   1.46781   1.47187   1.51186   1.60987
 Alpha virt. eigenvalues --    1.67955   1.69479   1.69956   1.85499   1.87065
 Alpha virt. eigenvalues --    1.88896   1.91163   1.94042   1.94235   1.97246
 Alpha virt. eigenvalues --    1.97359   1.97784   1.97866   1.98738   2.03461
 Alpha virt. eigenvalues --    2.11880   2.13034   2.29840   2.32093   2.33097
 Alpha virt. eigenvalues --    2.33965   2.48422   2.51972   2.59159   2.59925
 Alpha virt. eigenvalues --    2.60495   2.75084   2.76862   2.77607   2.82541
 Alpha virt. eigenvalues --    2.90932   2.98172   2.99076   3.04344
          Condensed to atoms (all electrons):
               1          2          3          4          5          6
     1  C    4.529596   0.408734   0.408428   0.408428   0.422449  -0.063605
     2  H    0.408734   0.642021  -0.025786  -0.025786  -0.023639   0.005990
     3  H    0.408428  -0.025786   0.649742  -0.027919  -0.031248  -0.004220
     4  H    0.408428  -0.025786  -0.027919   0.649742  -0.031248  -0.004220
     5  C    0.422449  -0.023639  -0.031248  -0.031248   4.634458   0.422449
     6  C   -0.063605   0.005990  -0.004220  -0.004220   0.422449   4.529596
     7  H   -0.031100  -0.004900  -0.006517   0.007535   0.404134  -0.031100
     8  H   -0.031100  -0.004900   0.007535  -0.006517   0.404134  -0.031100
     9  H   -0.004220  -0.000028   0.003746  -0.000666  -0.031248   0.408428
    10  H   -0.004220  -0.000028  -0.000666   0.003746  -0.031248   0.408428
    11  H    0.005990  -0.000255  -0.000028  -0.000028  -0.023639   0.408734
               7          8          9         10         11
     1  C   -0.031100  -0.031100  -0.004220  -0.004220   0.005990
     2  H   -0.004900  -0.004900  -0.000028  -0.000028  -0.000255
     3  H   -0.006517   0.007535   0.003746  -0.000666  -0.000028
     4  H    0.007535  -0.006517  -0.000666   0.003746  -0.000028
     5  C    0.404134   0.404134  -0.031248  -0.031248  -0.023639
     6  C   -0.031100  -0.031100   0.408428   0.408428   0.408734
     7  H    0.675202  -0.033989  -0.006517   0.007535  -0.004900
     8  H   -0.033989   0.675202   0.007535  -0.006517  -0.004900
     9  H   -0.006517   0.007535   0.649742  -0.027919  -0.025786
    10  H    0.007535  -0.006517  -0.027919   0.649742  -0.025786
    11  H   -0.004900  -0.004900  -0.025786  -0.025786   0.642021
 Mulliken charges:
               1
     1  C   -0.049379
     2  H    0.028577
     3  H    0.026932
     4  H    0.026932
     5  C   -0.115355
     6  C   -0.049379
     7  H    0.024614
     8  H    0.024614
     9  H    0.026932
    10  H    0.026932
    11  H    0.028577
 Sum of Mulliken charges =   0.00000
 Mulliken charges with hydrogens summed into heavy atoms:
               1
     1  C    0.033063
     5  C   -0.066126
     6  C    0.033063
 Electronic spatial extent (au):  <R**2>=            227.3454
 Charge=              0.0000 electrons
 Dipole moment (field-independent basis, Debye):
    X=             -0.0000    Y=              0.0000    Z=              0.0679  Tot=              0.0679
 Quadrupole moment (field-independent basis, Debye-Ang):
   XX=            -21.5291   YY=            -22.3744   ZZ=            -21.9877
   XY=             -0.0000   XZ=              0.0000   YZ=             -0.0000
 Traceless Quadrupole moment (field-independent basis, Debye-Ang):
   XX=              0.4347   YY=             -0.4107   ZZ=             -0.0240
   XY=             -0.0000   XZ=              0.0000   YZ=             -0.0000
 Octapole moment (field-independent basis, Debye-Ang**2):
  XXX=             -0.0000  YYY=              0.0000  ZZZ=              0.1557  XYY=             -0.0000
  XXY=              0.0000  XXZ=             -0.4324  XZZ=             -0.0000  YZZ=              0.0000
  YYZ=              1.4586  XYZ=             -0.0000
 Hexadecapole moment (field-independent basis, Debye-Ang**3):
 XXXX=            -43.2101 YYYY=           -203.9954 ZZZZ=            -70.5170 XXXY=              0.0000
 XXXZ=              0.0000 YYYX=             -0.0000 YYYZ=             -0.0000 ZZZX=              0.0000
 ZZZY=             -0.0000 XXYY=            -41.9991 XXZZ=            -17.0249 YYZZ=            -45.2481
 XXYZ=             -0.0000 YYXZ=              0.0000 ZZXY=              0.0000
 N-N= 8.253435158422D+01 E-N=-4.394370816278D+02  KE= 1.181065373154D+02
 Symmetry A1   KE= 7.324764407212D+01
 Symmetry A2   KE= 1.954254872741D+00
 Symmetry B1   KE= 3.745632275654D+00
 Symmetry B2   KE= 3.915900609492D+01
 ******************************Gaussian NBO Version 3.1******************************
             N A T U R A L   A T O M I C   O R B I T A L   A N D
          N A T U R A L   B O N D   O R B I T A L   A N A L Y S I S
 ******************************Gaussian NBO Version 3.1******************************
       /RESON  / : Allow strongly delocalized NBO set

 Analyzing the SCF density

 Job title: Propane-HF-cc-pvdz                                              

 Storage needed:     20628 in NPA,     27277 in NBO (1342176565 available)
 GSVD:  LWork=        3370 too small for GESVD, short by        2987 words or        2987 for optimal perf.


 NATURAL POPULATIONS:  Natural atomic orbital occupancies 
                                                          
   NAO  Atom  No  lang   Type(AO)    Occupancy      Energy
 ----------------------------------------------------------
     1    C    1  S      Cor( 1S)     1.99948     -11.08369
     2    C    1  S      Val( 2S)     1.10030      -0.25710
     3    C    1  S      Ryd( 3S)     0.00063       1.41009
     4    C    1  px     Val( 2p)     1.19355      -0.03687
     5    C    1  px     Ryd( 3p)     0.00139       0.78098
     6    C    1  py     Val( 2p)     1.11526      -0.02934
     7    C    1  py     Ryd( 3p)     0.00263       0.75693
     8    C    1  pz     Val( 2p)     1.15822      -0.03200
     9    C    1  pz     Ryd( 3p)     0.00197       0.75987
    10    C    1  dxy    Ryd( 3d)     0.00014       1.93296
    11    C    1  dxz    Ryd( 3d)     0.00138       2.26739
    12    C    1  dyz    Ryd( 3d)     0.00145       2.17584
    13    C    1  dx2y2  Ryd( 3d)     0.00136       2.21372
    14    C    1  dz2    Ryd( 3d)     0.00010       1.91961
 
    15    H    2  S      Val( 1S)     0.79925       0.16427
    16    H    2  S      Ryd( 2S)     0.00131       0.49450
    17    H    2  px     Ryd( 2p)     0.00013       1.95604
    18    H    2  py     Ryd( 2p)     0.00095       2.32005
    19    H    2  pz     Ryd( 2p)     0.00047       2.10865
 
    20    H    3  S      Val( 1S)     0.80624       0.15668
    21    H    3  S      Ryd( 2S)     0.00188       0.50500
    22    H    3  px     Ryd( 2p)     0.00091       2.31439
    23    H    3  py     Ryd( 2p)     0.00008       1.93875
    24    H    3  pz     Ryd( 2p)     0.00057       2.13991
 
    25    H    4  S      Val( 1S)     0.80624       0.15668
    26    H    4  S      Ryd( 2S)     0.00188       0.50500
    27    H    4  px     Ryd( 2p)     0.00091       2.31439
    28    H    4  py     Ryd( 2p)     0.00008       1.93875
    29    H    4  pz     Ryd( 2p)     0.00057       2.13991
 
    30    C    5  S      Cor( 1S)     1.99939     -11.08488
    31    C    5  S      Val( 2S)     1.03602      -0.22862
    32    C    5  S      Ryd( 3S)     0.00087       1.51287
    33    C    5  px     Val( 2p)     1.18941      -0.02867
    34    C    5  px     Ryd( 3p)     0.00325       0.88202
    35    C    5  py     Val( 2p)     1.02583      -0.01895
    36    C    5  py     Ryd( 3p)     0.00152       0.72268
    37    C    5  pz     Val( 2p)     1.11770      -0.02559
    38    C    5  pz     Ryd( 3p)     0.00092       0.73698
    39    C    5  dxy    Ryd( 3d)     0.00030       1.94024
    40    C    5  dxz    Ryd( 3d)     0.00161       2.33576
    41    C    5  dyz    Ryd( 3d)     0.00188       2.12138
    42    C    5  dx2y2  Ryd( 3d)     0.00181       2.21273
    43    C    5  dz2    Ryd( 3d)     0.00024       1.93142
 
    44    C    6  S      Cor( 1S)     1.99948     -11.08369
    45    C    6  S      Val( 2S)     1.10030      -0.25710
    46    C    6  S      Ryd( 3S)     0.00063       1.41009
    47    C    6  px     Val( 2p)     1.19355      -0.03687
    48    C    6  px     Ryd( 3p)     0.00139       0.78098
    49    C    6  py     Val( 2p)     1.11526      -0.02934
    50    C    6  py     Ryd( 3p)     0.00263       0.75693
    51    C    6  pz     Val( 2p)     1.15822      -0.03200
    52    C    6  pz     Ryd( 3p)     0.00197       0.75987
    53    C    6  dxy    Ryd( 3d)     0.00014       1.93296
    54    C    6  dxz    Ryd( 3d)     0.00138       2.26739
    55    C    6  dyz    Ryd( 3d)     0.00145       2.17584
    56    C    6  dx2y2  Ryd( 3d)     0.00136       2.21372
    57    C    6  dz2    Ryd( 3d)     0.00010       1.91961
 
    58    H    7  S      Val( 1S)     0.80584       0.16655
    59    H    7  S      Ryd( 2S)     0.00287       0.50565
    60    H    7  px     Ryd( 2p)     0.00091       2.32399
    61    H    7  py     Ryd( 2p)     0.00006       1.94719
    62    H    7  pz     Ryd( 2p)     0.00061       2.16222
 
    63    H    8  S      Val( 1S)     0.80584       0.16655
    64    H    8  S      Ryd( 2S)     0.00287       0.50565
    65    H    8  px     Ryd( 2p)     0.00091       2.32399
    66    H    8  py     Ryd( 2p)     0.00006       1.94719
    67    H    8  pz     Ryd( 2p)     0.00061       2.16222
 
    68    H    9  S      Val( 1S)     0.80624       0.15668
    69    H    9  S      Ryd( 2S)     0.00188       0.50500
    70    H    9  px     Ryd( 2p)     0.00091       2.31439
    71    H    9  py     Ryd( 2p)     0.00008       1.93875
    72    H    9  pz     Ryd( 2p)     0.00057       2.13991
 
    73    H   10  S      Val( 1S)     0.80624       0.15668
    74    H   10  S      Ryd( 2S)     0.00188       0.50500
    75    H   10  px     Ryd( 2p)     0.00091       2.31439
    76    H   10  py     Ryd( 2p)     0.00008       1.93875
    77    H   10  pz     Ryd( 2p)     0.00057       2.13991
 
    78    H   11  S      Val( 1S)     0.79925       0.16427
    79    H   11  S      Ryd( 2S)     0.00131       0.49450
    80    H   11  px     Ryd( 2p)     0.00013       1.95604
    81    H   11  py     Ryd( 2p)     0.00095       2.32005
    82    H   11  pz     Ryd( 2p)     0.00047       2.10865


 Summary of Natural Population Analysis:                  
                                                          
                                       Natural Population 
                Natural  -----------------------------------------------
    Atom  No    Charge         Core      Valence    Rydberg      Total
 -----------------------------------------------------------------------
      C    1   -0.57786      1.99948     4.56733    0.01105     6.57786
      H    2    0.19788      0.00000     0.79925    0.00287     0.80212
      H    3    0.19032      0.00000     0.80624    0.00344     0.80968
      H    4    0.19032      0.00000     0.80624    0.00344     0.80968
      C    5   -0.38076      1.99939     4.36896    0.01241     6.38076
      C    6   -0.57786      1.99948     4.56733    0.01105     6.57786
      H    7    0.18971      0.00000     0.80584    0.00445     0.81029
      H    8    0.18971      0.00000     0.80584    0.00445     0.81029
      H    9    0.19032      0.00000     0.80624    0.00344     0.80968
      H   10    0.19032      0.00000     0.80624    0.00344     0.80968
      H   11    0.19788      0.00000     0.79925    0.00287     0.80212
 =======================================================================
   * Total *    0.00000      5.99835    19.93877    0.06288    26.00000

                                 Natural Population      
 --------------------------------------------------------
   Core                       5.99835 ( 99.9726% of   6)
   Valence                   19.93877 ( 99.6938% of  20)
   Natural Minimal Basis     25.93712 ( 99.7582% of  26)
   Natural Rydberg Basis      0.06288 (  0.2418% of  26)
 --------------------------------------------------------

    Atom  No          Natural Electron Configuration
 ----------------------------------------------------------------------------
      C    1      [core]2S( 1.10)2p( 3.47)3p( 0.01)
      H    2            1S( 0.80)
      H    3            1S( 0.81)
      H    4            1S( 0.81)
      C    5      [core]2S( 1.04)2p( 3.33)3p( 0.01)3d( 0.01)
      C    6      [core]2S( 1.10)2p( 3.47)3p( 0.01)
      H    7            1S( 0.81)
      H    8            1S( 0.81)
      H    9            1S( 0.81)
      H   10            1S( 0.81)
      H   11            1S( 0.80)


 NATURAL BOND ORBITAL ANALYSIS:

                       Occupancies       Lewis Structure    Low   High
           Occ.    -------------------  -----------------   occ   occ
  Cycle   Thresh.   Lewis   Non-Lewis     CR  BD  3C  LP    (L)   (NL)   Dev
 =============================================================================
   1(1)    1.90    25.88019   0.11981      3  10   0   0     0      0    0.03
 -----------------------------------------------------------------------------

 Structure accepted: No low occupancy Lewis orbitals

 --------------------------------------------------------
   Core                      5.99836 ( 99.973% of   6)
   Valence Lewis            19.88183 ( 99.409% of  20)
  ==================       ============================
   Total Lewis              25.88019 ( 99.539% of  26)
  -----------------------------------------------------
   Valence non-Lewis         0.08392 (  0.323% of  26)
   Rydberg non-Lewis         0.03589 (  0.138% of  26)
  ==================       ============================
   Total non-Lewis           0.11981 (  0.461% of  26)
 --------------------------------------------------------


       (Occupancy)   Bond orbital/ Coefficients/ Hybrids
 ---------------------------------------------------------------------------------
     1. (1.98990) BD ( 1) C   1 - H   2  
                ( 59.90%)   0.7740* C   1 s( 23.50%)p 3.25( 76.43%)d 0.00(  0.07%)
                                            0.0000  0.4848 -0.0011  0.0000 -0.0000
                                            0.7138  0.0026  0.5046 -0.0158  0.0000
                                           -0.0000  0.0226 -0.0141  0.0008
                ( 40.10%)   0.6332* H   2 s( 99.83%)p 0.00(  0.17%)
                                            0.9992 -0.0007  0.0000 -0.0339 -0.0226
     2. (1.99033) BD ( 1) C   1 - H   3  
                ( 59.65%)   0.7724* C   1 s( 23.29%)p 3.29( 76.64%)d 0.00(  0.07%)
                                            0.0000  0.4825 -0.0044  0.7067 -0.0055
                                            0.0365  0.0174 -0.5150 -0.0034  0.0006
                                           -0.0221  0.0003  0.0157  0.0003
                ( 40.35%)   0.6352* H   3 s( 99.83%)p 0.00(  0.17%)
                                            0.9992 -0.0019 -0.0324 -0.0031  0.0244
     3. (1.99033) BD ( 1) C   1 - H   4  
                ( 59.65%)   0.7724* C   1 s( 23.29%)p 3.29( 76.64%)d 0.00(  0.07%)
                                           -0.0000 -0.4825  0.0044  0.7067 -0.0055
                                           -0.0365 -0.0174  0.5150  0.0034  0.0006
                                           -0.0221 -0.0003 -0.0157 -0.0003
                ( 40.35%)   0.6352* H   4 s( 99.83%)p 0.00(  0.17%)
                                           -0.9992  0.0019 -0.0324  0.0031 -0.0244
     4. (1.99005) BD ( 1) C   1 - C   5  
                ( 49.95%)   0.7067* C   1 s( 29.91%)p 2.34( 69.97%)d 0.00(  0.12%)
                                            0.0003  0.5468  0.0115 -0.0000 -0.0000
                                           -0.6972  0.0008  0.4620  0.0141 -0.0000
                                           -0.0000 -0.0270 -0.0210 -0.0022
                ( 50.05%)   0.7075* C   5 s( 27.88%)p 2.58( 71.99%)d 0.00(  0.13%)
                                            0.0002  0.5279  0.0120  0.0000 -0.0000
                                            0.7063  0.0165 -0.4697  0.0098  0.0000
                                            0.0000 -0.0286 -0.0212  0.0006
     5. (1.99005) BD ( 1) C   5 - C   6  
                ( 50.05%)   0.7075* C   5 s( 27.88%)p 2.58( 71.99%)d 0.00(  0.13%)
                                            0.0002  0.5279  0.0120  0.0000 -0.0000
                                           -0.7063 -0.0165 -0.4697  0.0098  0.0000
                                            0.0000  0.0286 -0.0212  0.0006
                ( 49.95%)   0.7067* C   6 s( 29.91%)p 2.34( 69.97%)d 0.00(  0.12%)
                                            0.0003  0.5468  0.0115  0.0000  0.0000
                                            0.6972 -0.0008  0.4620  0.0141  0.0000
                                            0.0000  0.0270 -0.0210 -0.0022
     6. (1.98030) BD ( 1) C   5 - H   7  
                ( 59.68%)   0.7725* C   5 s( 22.13%)p 3.52( 77.79%)d 0.00(  0.08%)
                                           -0.0000  0.4703 -0.0110  0.7065 -0.0169
                                           -0.0000 -0.0000  0.5276  0.0057  0.0000
                                            0.0228 -0.0000  0.0167 -0.0001
                ( 40.32%)   0.6350* H   7 s( 99.83%)p 0.00(  0.17%)
                                            0.9991 -0.0037 -0.0322  0.0000 -0.0261
     7. (1.98030) BD ( 1) C   5 - H   8  
                ( 59.68%)   0.7725* C   5 s( 22.13%)p 3.52( 77.79%)d 0.00(  0.08%)
                                            0.0000 -0.4703  0.0110  0.7065 -0.0169
                                            0.0000  0.0000 -0.5276 -0.0057  0.0000
                                            0.0228  0.0000 -0.0167  0.0001
                ( 40.32%)   0.6350* H   8 s( 99.83%)p 0.00(  0.17%)
                                           -0.9991  0.0037 -0.0322  0.0000  0.0261
     8. (1.99033) BD ( 1) C   6 - H   9  
                ( 59.65%)   0.7724* C   6 s( 23.29%)p 3.29( 76.64%)d 0.00(  0.07%)
                                            0.0000  0.4825 -0.0044  0.7067 -0.0055
                                           -0.0365 -0.0174 -0.5150 -0.0034 -0.0006
                                           -0.0221 -0.0003  0.0157  0.0003
                ( 40.35%)   0.6352* H   9 s( 99.83%)p 0.00(  0.17%)
                                            0.9992 -0.0019 -0.0324  0.0031  0.0244
     9. (1.99033) BD ( 1) C   6 - H  10  
                ( 59.65%)   0.7724* C   6 s( 23.29%)p 3.29( 76.64%)d 0.00(  0.07%)
                                           -0.0000 -0.4825  0.0044  0.7067 -0.0055
                                            0.0365  0.0174  0.5150  0.0034 -0.0006
                                           -0.0221  0.0003 -0.0157 -0.0003
                ( 40.35%)   0.6352* H  10 s( 99.83%)p 0.00(  0.17%)
                                           -0.9992  0.0019 -0.0324 -0.0031 -0.0244
    10. (1.98990) BD ( 1) C   6 - H  11  
                ( 59.90%)   0.7740* C   6 s( 23.50%)p 3.25( 76.43%)d 0.00(  0.07%)
                                           -0.0000 -0.4848  0.0011  0.0000 -0.0000
                                            0.7138  0.0026 -0.5046  0.0158 -0.0000
                                           -0.0000  0.0226  0.0141 -0.0008
                ( 40.10%)   0.6332* H  11 s( 99.83%)p 0.00(  0.17%)
                                           -0.9992  0.0007  0.0000 -0.0339  0.0226
    11. (1.99948) CR ( 1) C   1           s(100.00%)p 0.00(  0.00%)
                                            1.0000 -0.0002 -0.0000  0.0000 -0.0000
                                            0.0002 -0.0000 -0.0001 -0.0000  0.0000
                                           -0.0000  0.0000  0.0000  0.0000
    12. (1.99939) CR ( 1) C   5           s(100.00%)p 0.00(  0.00%)
                                            1.0000 -0.0002 -0.0000 -0.0000  0.0000
                                            0.0000  0.0000  0.0003 -0.0000  0.0000
                                           -0.0000  0.0000  0.0000 -0.0000
    13. (1.99948) CR ( 1) C   6           s(100.00%)p 0.00(  0.00%)
                                            1.0000 -0.0002 -0.0000 -0.0000  0.0000
                                           -0.0002  0.0000 -0.0001 -0.0000  0.0000
                                            0.0000 -0.0000  0.0000  0.0000
    14. (0.00374) RY*( 1) C   1           s(  7.39%)p11.71( 86.56%)d 0.82(  6.06%)
                                           -0.0000  0.0107  0.2716  0.0000 -0.0000
                                           -0.0123 -0.7089 -0.0179 -0.6021 -0.0000
                                           -0.0000  0.1407 -0.1557 -0.1285
    15. (0.00177) RY*( 2) C   1           s(  0.00%)p 1.00( 76.56%)d 0.31( 23.44%)
                                           -0.0000  0.0000  0.0000  0.0194  0.8748
                                            0.0000  0.0000 -0.0000  0.0000 -0.2804
                                            0.3948 -0.0000  0.0000  0.0000
    16. (0.00030) RY*( 3) C   1           s( 50.02%)p 0.69( 34.46%)d 0.31( 15.51%)
                                            0.0000  0.0058  0.7072 -0.0000 -0.0000
                                            0.0253 -0.2938 -0.0067  0.5076 -0.0000
                                            0.0000 -0.2499  0.1775  0.2474
    17. (0.00013) RY*( 4) C   1           s( 20.42%)p 3.15( 64.42%)d 0.74( 15.16%)
                                           -0.0000 -0.0121  0.4517  0.0000 -0.0000
                                           -0.0081  0.5455  0.0144 -0.5885  0.0000
                                           -0.0000 -0.1078  0.2556  0.2731
    18. (0.00001) RY*( 5) C   1           s(  6.61%)p 0.92(  6.11%)d13.20( 87.28%)
    19. (0.00001) RY*( 6) C   1           s(  0.00%)p 1.00( 14.22%)d 6.03( 85.78%)
    20. (0.00000) RY*( 7) C   1           s(  7.75%)p 0.69(  5.34%)d11.21( 86.91%)
    21. (0.00000) RY*( 8) C   1           s(  0.00%)p 1.00(  9.32%)d 9.73( 90.68%)
    22. (0.00000) RY*( 9) C   1           s(  7.83%)p 0.43(  3.33%)d11.35( 88.85%)
    23. (0.00131) RY*( 1) H   2           s( 99.45%)p 0.01(  0.55%)
                                            0.0037  0.9973  0.0000  0.0611  0.0418
    24. (0.00013) RY*( 2) H   2           s(  0.00%)p 1.00(100.00%)
                                            0.0000  0.0000  1.0000  0.0000  0.0000
    25. (0.00007) RY*( 3) H   2           s(  0.01%)p99.99( 99.99%)
    26. (0.00002) RY*( 4) H   2           s(  0.70%)p99.99( 99.30%)
    27. (0.00189) RY*( 1) H   3           s( 99.64%)p 0.00(  0.36%)
                                            0.0042  0.9982  0.0383  0.0013 -0.0459
    28. (0.00013) RY*( 2) H   3           s(  0.02%)p99.99( 99.98%)
                                           -0.0004  0.0146  0.5368  0.3342  0.7746
    29. (0.00007) RY*( 3) H   3           s(  0.01%)p 1.00( 99.99%)
    30. (0.00002) RY*( 4) H   3           s(  0.50%)p99.99( 99.50%)
    31. (0.00189) RY*( 1) H   4           s( 99.64%)p 0.00(  0.36%)
                                            0.0042  0.9982 -0.0383  0.0013 -0.0459
    32. (0.00013) RY*( 2) H   4           s(  0.02%)p99.99( 99.98%)
                                           -0.0004  0.0146 -0.5368  0.3342  0.7746
    33. (0.00007) RY*( 3) H   4           s(  0.01%)p 1.00( 99.99%)
    34. (0.00002) RY*( 4) H   4           s(  0.50%)p99.99( 99.50%)
    35. (0.00329) RY*( 1) C   5           s(  0.00%)p 1.00( 84.90%)d 0.18( 15.10%)
                                           -0.0000  0.0000  0.0000  0.0346  0.9208
                                           -0.0000 -0.0000  0.0000 -0.0000  0.0000
                                           -0.3886  0.0000  0.0000  0.0000
    36. (0.00137) RY*( 2) C   5           s( 15.43%)p 2.89( 44.56%)d 2.59( 40.01%)
                                            0.0000 -0.0144  0.3925  0.0000  0.0000
                                           -0.0000  0.0000  0.0290  0.6669  0.0000
                                           -0.0000 -0.0000 -0.4809 -0.4109
    37. (0.00106) RY*( 3) C   5           s(  0.00%)p 1.00( 87.53%)d 0.14( 12.47%)
                                            0.0000  0.0000 -0.0000  0.0000  0.0000
                                           -0.0076  0.9356 -0.0000  0.0000  0.0000
                                           -0.0000  0.3531 -0.0000  0.0000
    38. (0.00030) RY*( 4) C   5           s(  0.00%)p 0.00(  0.00%)d 1.00(100.00%)
                                            0.0000  0.0000  0.0000  0.0000  0.0000
                                            0.0000  0.0000  0.0000  0.0000  1.0000
                                            0.0000  0.0000  0.0000  0.0000
    39. (0.00016) RY*( 5) C   5           s( 61.35%)p 0.57( 35.14%)d 0.06(  3.52%)
                                            0.0000  0.0062  0.7832 -0.0000  0.0000
                                           -0.0000  0.0000  0.0231 -0.5923  0.0000
                                           -0.0000  0.0000 -0.1874  0.0075
    40. (0.00014) RY*( 6) C   5           s(  0.00%)p 1.00( 12.63%)d 6.92( 87.37%)
                                           -0.0000 -0.0000  0.0000  0.0000 -0.0000
                                            0.0461 -0.3524  0.0000 -0.0000  0.0000
                                            0.0000  0.9347 -0.0000 -0.0000
    41. (0.00004) RY*( 7) C   5           s( 21.75%)p 0.92( 20.09%)d 2.67( 58.16%)
    42. (0.00000) RY*( 8) C   5           s(  0.00%)p 1.00( 15.20%)d 5.58( 84.80%)
    43. (0.00000) RY*( 9) C   5           s(  1.45%)p 0.26(  0.38%)d67.48( 98.16%)
    44. (0.00374) RY*( 1) C   6           s(  7.39%)p11.71( 86.56%)d 0.82(  6.06%)
                                           -0.0000  0.0107  0.2716  0.0000 -0.0000
                                            0.0123  0.7089 -0.0179 -0.6021  0.0000
                                           -0.0000 -0.1407 -0.1557 -0.1285
    45. (0.00177) RY*( 2) C   6           s(  0.00%)p 1.00( 76.56%)d 0.31( 23.44%)
                                           -0.0000 -0.0000 -0.0000  0.0194  0.8748
                                            0.0000 -0.0000  0.0000  0.0000  0.2804
                                            0.3948  0.0000  0.0000  0.0000
    46. (0.00030) RY*( 3) C   6           s( 50.02%)p 0.69( 34.46%)d 0.31( 15.51%)
                                            0.0000  0.0058  0.7072  0.0000 -0.0000
                                           -0.0253  0.2938 -0.0067  0.5076 -0.0000
                                           -0.0000  0.2499  0.1775  0.2474
    47. (0.00013) RY*( 4) C   6           s( 20.42%)p 3.15( 64.42%)d 0.74( 15.16%)
                                           -0.0000 -0.0121  0.4517 -0.0000 -0.0000
                                            0.0081 -0.5455  0.0144 -0.5885 -0.0000
                                            0.0000  0.1078  0.2556  0.2731
    48. (0.00001) RY*( 5) C   6           s(  6.61%)p 0.92(  6.11%)d13.20( 87.28%)
    49. (0.00001) RY*( 6) C   6           s(  0.00%)p 1.00( 14.22%)d 6.03( 85.78%)
    50. (0.00000) RY*( 7) C   6           s(  7.75%)p 0.69(  5.34%)d11.21( 86.91%)
    51. (0.00000) RY*( 8) C   6           s(  0.00%)p 1.00(  9.32%)d 9.73( 90.68%)
    52. (0.00000) RY*( 9) C   6           s(  7.83%)p 0.43(  3.33%)d11.35( 88.85%)
    53. (0.00288) RY*( 1) H   7           s( 99.94%)p 0.00(  0.06%)
                                            0.0047  0.9997  0.0211  0.0000  0.0119
    54. (0.00011) RY*( 2) H   7           s(  0.00%)p 1.00(100.00%)
                                           -0.0027  0.0056 -0.6791  0.0000  0.7340
    55. (0.00006) RY*( 3) H   7           s(  0.00%)p 1.00(100.00%)
    56. (0.00002) RY*( 4) H   7           s(  0.23%)p99.99( 99.77%)
    57. (0.00288) RY*( 1) H   8           s( 99.94%)p 0.00(  0.06%)
                                            0.0047  0.9997 -0.0211  0.0000  0.0119
    58. (0.00011) RY*( 2) H   8           s(  0.00%)p 1.00(100.00%)
                                           -0.0027  0.0056  0.6791  0.0000  0.7340
    59. (0.00006) RY*( 3) H   8           s(  0.00%)p 1.00(100.00%)
    60. (0.00002) RY*( 4) H   8           s(  0.23%)p99.99( 99.77%)
    61. (0.00189) RY*( 1) H   9           s( 99.64%)p 0.00(  0.36%)
                                            0.0042  0.9982  0.0383 -0.0013 -0.0459
    62. (0.00013) RY*( 2) H   9           s(  0.02%)p99.99( 99.98%)
                                           -0.0004  0.0146  0.5368 -0.3342  0.7746
    63. (0.00007) RY*( 3) H   9           s(  0.01%)p 1.00( 99.99%)
    64. (0.00002) RY*( 4) H   9           s(  0.50%)p99.99( 99.50%)
    65. (0.00189) RY*( 1) H  10           s( 99.64%)p 0.00(  0.36%)
                                            0.0042  0.9982 -0.0383 -0.0013 -0.0459
    66. (0.00013) RY*( 2) H  10           s(  0.02%)p99.99( 99.98%)
                                           -0.0004  0.0146 -0.5368 -0.3342  0.7746
    67. (0.00007) RY*( 3) H  10           s(  0.01%)p 1.00( 99.99%)
    68. (0.00002) RY*( 4) H  10           s(  0.50%)p99.99( 99.50%)
    69. (0.00131) RY*( 1) H  11           s( 99.45%)p 0.01(  0.55%)
                                            0.0037  0.9973  0.0000 -0.0611  0.0418
    70. (0.00013) RY*( 2) H  11           s(  0.00%)p 1.00(100.00%)
                                            0.0000  0.0000  1.0000  0.0000  0.0000
    71. (0.00007) RY*( 3) H  11           s(  0.01%)p99.99( 99.99%)
    72. (0.00002) RY*( 4) H  11           s(  0.70%)p99.99( 99.30%)
    73. (0.00453) BD*( 1) C   1 - H   2  
                ( 40.10%)   0.6332* C   1 s( 23.50%)p 3.25( 76.43%)d 0.00(  0.07%)
                                           -0.0000 -0.4848  0.0011 -0.0000  0.0000
                                           -0.7138 -0.0026 -0.5046  0.0158 -0.0000
                                            0.0000 -0.0226  0.0141 -0.0008
                ( 59.90%)  -0.7740* H   2 s( 99.83%)p 0.00(  0.17%)
                                           -0.9992  0.0007 -0.0000  0.0339  0.0226
    74. (0.00767) BD*( 1) C   1 - H   3  
                ( 40.35%)   0.6352* C   1 s( 23.29%)p 3.29( 76.64%)d 0.00(  0.07%)
                                           -0.0000 -0.4825  0.0044 -0.7067  0.0055
                                           -0.0365 -0.0174  0.5150  0.0034 -0.0006
                                            0.0221 -0.0003 -0.0157 -0.0003
                ( 59.65%)  -0.7724* H   3 s( 99.83%)p 0.00(  0.17%)
                                           -0.9992  0.0019  0.0324  0.0031 -0.0244
    75. (0.00767) BD*( 1) C   1 - H   4  
                ( 40.35%)   0.6352* C   1 s( 23.29%)p 3.29( 76.64%)d 0.00(  0.07%)
                                            0.0000  0.4825 -0.0044 -0.7067  0.0055
                                            0.0365  0.0174 -0.5150 -0.0034 -0.0006
                                            0.0221  0.0003  0.0157  0.0003
                ( 59.65%)  -0.7724* H   4 s( 99.83%)p 0.00(  0.17%)
                                            0.9992 -0.0019  0.0324 -0.0031  0.0244
    76. (0.00755) BD*( 1) C   1 - C   5  
                ( 50.05%)   0.7075* C   1 s( 29.91%)p 2.34( 69.97%)d 0.00(  0.12%)
                                            0.0003  0.5468  0.0115 -0.0000 -0.0000
                                           -0.6972  0.0008  0.4620  0.0141 -0.0000
                                           -0.0000 -0.0270 -0.0210 -0.0022
                ( 49.95%)  -0.7067* C   5 s( 27.88%)p 2.58( 71.99%)d 0.00(  0.13%)
                                            0.0002  0.5279  0.0120  0.0000 -0.0000
                                            0.7063  0.0165 -0.4697  0.0098  0.0000
                                            0.0000 -0.0286 -0.0212  0.0006
    77. (0.00755) BD*( 1) C   5 - C   6  
                ( 49.95%)   0.7067* C   5 s( 27.88%)p 2.58( 71.99%)d 0.00(  0.13%)
                                           -0.0002 -0.5279 -0.0120 -0.0000  0.0000
                                            0.7063  0.0165  0.4697 -0.0098 -0.0000
                                           -0.0000 -0.0286  0.0212 -0.0006
                ( 50.05%)  -0.7075* C   6 s( 29.91%)p 2.34( 69.97%)d 0.00(  0.12%)
                                           -0.0003 -0.5468 -0.0115 -0.0000 -0.0000
                                           -0.6972  0.0008 -0.4620 -0.0141 -0.0000
                                           -0.0000 -0.0270  0.0210  0.0022
    78. (0.01454) BD*( 1) C   5 - H   7  
                ( 40.32%)   0.6350* C   5 s( 22.13%)p 3.52( 77.79%)d 0.00(  0.08%)
                                            0.0000 -0.4703  0.0110 -0.7065  0.0169
                                            0.0000  0.0000 -0.5276 -0.0057 -0.0000
                                           -0.0228  0.0000 -0.0167  0.0001
                ( 59.68%)  -0.7725* H   7 s( 99.83%)p 0.00(  0.17%)
                                           -0.9991  0.0037  0.0322 -0.0000  0.0261
    79. (0.01454) BD*( 1) C   5 - H   8  
                ( 40.32%)   0.6350* C   5 s( 22.13%)p 3.52( 77.79%)d 0.00(  0.08%)
                                           -0.0000  0.4703 -0.0110 -0.7065  0.0169
                                           -0.0000 -0.0000  0.5276  0.0057 -0.0000
                                           -0.0228 -0.0000  0.0167 -0.0001
                ( 59.68%)  -0.7725* H   8 s( 99.83%)p 0.00(  0.17%)
                                            0.9991 -0.0037  0.0322 -0.0000 -0.0261
    80. (0.00767) BD*( 1) C   6 - H   9  
                ( 40.35%)   0.6352* C   6 s( 23.29%)p 3.29( 76.64%)d 0.00(  0.07%)
                                           -0.0000 -0.4825  0.0044 -0.7067  0.0055
                                            0.0365  0.0174  0.5150  0.0034  0.0006
                                            0.0221  0.0003 -0.0157 -0.0003
                ( 59.65%)  -0.7724* H   9 s( 99.83%)p 0.00(  0.17%)
                                           -0.9992  0.0019  0.0324 -0.0031 -0.0244
    81. (0.00767) BD*( 1) C   6 - H  10  
                ( 40.35%)   0.6352* C   6 s( 23.29%)p 3.29( 76.64%)d 0.00(  0.07%)
                                            0.0000  0.4825 -0.0044 -0.7067  0.0055
                                           -0.0365 -0.0174 -0.5150 -0.0034  0.0006
                                            0.0221 -0.0003  0.0157  0.0003
                ( 59.65%)  -0.7724* H  10 s( 99.83%)p 0.00(  0.17%)
                                            0.9992 -0.0019  0.0324  0.0031  0.0244
    82. (0.00453) BD*( 1) C   6 - H  11  
                ( 40.10%)   0.6332* C   6 s( 23.50%)p 3.25( 76.43%)d 0.00(  0.07%)
                                            0.0000  0.4848 -0.0011 -0.0000  0.0000
                                           -0.7138 -0.0026  0.5046 -0.0158  0.0000
                                            0.0000 -0.0226 -0.0141  0.0008
                ( 59.90%)  -0.7740* H  11 s( 99.83%)p 0.00(  0.17%)
                                            0.9992 -0.0007 -0.0000  0.0339 -0.0226


 NHO Directionality and "Bond Bending" (deviations from line of nuclear centers)

         [Thresholds for printing:  angular deviation  >  1.0 degree]
                                    hybrid p-character > 25.0%
                                    orbital occupancy  >  0.10e

                                Line of Centers        Hybrid 1              Hybrid 2
                                ---------------  -------------------   ------------------
                NBO               Theta   Phi    Theta   Phi    Dev    Theta   Phi    Dev
 ========================================================================================
     2. BD (   1) C   1 - H   3   126.1    3.1   126.4    4.4   1.1      --     --    --
     3. BD (   1) C   1 - H   4   126.1  176.9   126.4  175.6   1.1      --     --    --
     8. BD (   1) C   6 - H   9   126.1  356.9   126.4  355.6   1.1      --     --    --
     9. BD (   1) C   6 - H  10   126.1  183.1   126.4  184.4   1.1      --     --    --


 Second Order Perturbation Theory Analysis of Fock Matrix in NBO Basis

     Threshold for printing:   0.50 kcal/mol
                                                                              E(2)  E(j)-E(i) F(i,j)
         Donor NBO (i)                     Acceptor NBO (j)                 kcal/mol   a.u.    a.u. 
 ===================================================================================================

 within unit  1
   1. BD (   1) C   1 - H   2        / 36. RY*(   2) C   5                    0.65    2.02    0.032
   1. BD (   1) C   1 - H   2        / 77. BD*(   1) C   5 - C   6            4.84    1.33    0.072
   2. BD (   1) C   1 - H   3        / 35. RY*(   1) C   5                    0.66    1.79    0.031
   2. BD (   1) C   1 - H   3        / 79. BD*(   1) C   5 - H   8            4.46    1.40    0.071
   3. BD (   1) C   1 - H   4        / 35. RY*(   1) C   5                    0.66    1.79    0.031
   3. BD (   1) C   1 - H   4        / 78. BD*(   1) C   5 - H   7            4.46    1.40    0.071
   4. BD (   1) C   1 - C   5        / 44. RY*(   1) C   6                    2.22    1.75    0.056
   4. BD (   1) C   1 - C   5        / 77. BD*(   1) C   5 - C   6            0.80    1.46    0.030
   4. BD (   1) C   1 - C   5        / 82. BD*(   1) C   6 - H  11            2.65    1.53    0.057
   5. BD (   1) C   5 - C   6        / 14. RY*(   1) C   1                    2.22    1.75    0.056
   5. BD (   1) C   5 - C   6        / 73. BD*(   1) C   1 - H   2            2.65    1.53    0.057
   5. BD (   1) C   5 - C   6        / 76. BD*(   1) C   1 - C   5            0.80    1.46    0.030
   6. BD (   1) C   5 - H   7        / 15. RY*(   2) C   1                    0.74    1.73    0.032
   6. BD (   1) C   5 - H   7        / 45. RY*(   2) C   6                    0.74    1.73    0.032
   6. BD (   1) C   5 - H   7        / 75. BD*(   1) C   1 - H   4            4.76    1.38    0.073
   6. BD (   1) C   5 - H   7        / 81. BD*(   1) C   6 - H  10            4.76    1.38    0.073
   7. BD (   1) C   5 - H   8        / 15. RY*(   2) C   1                    0.74    1.73    0.032
   7. BD (   1) C   5 - H   8        / 45. RY*(   2) C   6                    0.74    1.73    0.032
   7. BD (   1) C   5 - H   8        / 74. BD*(   1) C   1 - H   3            4.76    1.38    0.073
   7. BD (   1) C   5 - H   8        / 80. BD*(   1) C   6 - H   9            4.76    1.38    0.073
   8. BD (   1) C   6 - H   9        / 35. RY*(   1) C   5                    0.66    1.79    0.031
   8. BD (   1) C   6 - H   9        / 79. BD*(   1) C   5 - H   8            4.46    1.40    0.071
   9. BD (   1) C   6 - H  10        / 35. RY*(   1) C   5                    0.66    1.79    0.031
   9. BD (   1) C   6 - H  10        / 78. BD*(   1) C   5 - H   7            4.46    1.40    0.071
  10. BD (   1) C   6 - H  11        / 36. RY*(   2) C   5                    0.65    2.02    0.032
  10. BD (   1) C   6 - H  11        / 76. BD*(   1) C   1 - C   5            4.84    1.33    0.072
  11. CR (   1) C   1                / 37. RY*(   3) C   5                    0.79   11.96    0.087
  11. CR (   1) C   1                / 39. RY*(   5) C   5                    0.55   12.31    0.073
  12. CR (   1) C   5                / 16. RY*(   3) C   1                    0.76   12.34    0.086
  12. CR (   1) C   5                / 46. RY*(   3) C   6                    0.76   12.34    0.086
  13. CR (   1) C   6                / 37. RY*(   3) C   5                    0.79   11.96    0.087
  13. CR (   1) C   6                / 39. RY*(   5) C   5                    0.55   12.31    0.073


 Natural Bond Orbitals (Summary):

                                                            Principal Delocalizations
           NBO                        Occupancy    Energy   (geminal,vicinal,remote)
 ====================================================================================
 Molecular unit  1  (C3H8)
     1. BD (   1) C   1 - H   2          1.98990    -0.65694  77(v),36(v)
     2. BD (   1) C   1 - H   3          1.99033    -0.65665  79(v),35(v)
     3. BD (   1) C   1 - H   4          1.99033    -0.65665  78(v),35(v)
     4. BD (   1) C   1 - C   5          1.99005    -0.78787  82(v),44(v),77(g)
     5. BD (   1) C   5 - C   6          1.99005    -0.78787  73(v),14(v),76(g)
     6. BD (   1) C   5 - H   7          1.98030    -0.64547  75(v),81(v),15(v),45(v)
     7. BD (   1) C   5 - H   8          1.98030    -0.64547  74(v),80(v),15(v),45(v)
     8. BD (   1) C   6 - H   9          1.99033    -0.65665  79(v),35(v)
     9. BD (   1) C   6 - H  10          1.99033    -0.65665  78(v),35(v)
    10. BD (   1) C   6 - H  11          1.98990    -0.65694  76(v),36(v)
    11. CR (   1) C   1                  1.99948   -11.08331  37(v),39(v)
    12. CR (   1) C   5                  1.99939   -11.08453  16(v),46(v)
    13. CR (   1) C   6                  1.99948   -11.08331  37(v),39(v)
    14. RY*(   1) C   1                  0.00374     0.96384   
    15. RY*(   2) C   1                  0.00177     1.08055   
    16. RY*(   3) C   1                  0.00030     1.26026   
    17. RY*(   4) C   1                  0.00013     1.05555   
    18. RY*(   5) C   1                  0.00001     2.01715   
    19. RY*(   6) C   1                  0.00001     2.03652   
    20. RY*(   7) C   1                  0.00000     2.05889   
    21. RY*(   8) C   1                  0.00000     1.85691   
    22. RY*(   9) C   1                  0.00000     1.86111   
    23. RY*(   1) H   2                  0.00131     0.53382   
    24. RY*(   2) H   2                  0.00013     1.95604   
    25. RY*(   3) H   2                  0.00007     1.92018   
    26. RY*(   4) H   2                  0.00002     2.45513   
    27. RY*(   1) H   3                  0.00189     0.53299   
    28. RY*(   2) H   3                  0.00013     1.95602   
    29. RY*(   3) H   3                  0.00007     1.93400   
    30. RY*(   4) H   3                  0.00002     2.46078   
    31. RY*(   1) H   4                  0.00189     0.53299   
    32. RY*(   2) H   4                  0.00013     1.95602   
    33. RY*(   3) H   4                  0.00007     1.93400   
    34. RY*(   4) H   4                  0.00002     2.46078   
    35. RY*(   1) C   5                  0.00329     1.13129   
    36. RY*(   2) C   5                  0.00137     1.36172   
    37. RY*(   3) C   5                  0.00106     0.88036   
    38. RY*(   4) C   5                  0.00030     1.94024   
    39. RY*(   5) C   5                  0.00016     1.23113   
    40. RY*(   6) C   5                  0.00014     1.95074   
    41. RY*(   7) C   5                  0.00004     1.78061   
    42. RY*(   8) C   5                  0.00000     2.07884   
    43. RY*(   9) C   5                  0.00000     2.01128   
    44. RY*(   1) C   6                  0.00374     0.96384   
    45. RY*(   2) C   6                  0.00177     1.08055   
    46. RY*(   3) C   6                  0.00030     1.26026   
    47. RY*(   4) C   6                  0.00013     1.05555   
    48. RY*(   5) C   6                  0.00001     2.01715   
    49. RY*(   6) C   6                  0.00001     2.03652   
    50. RY*(   7) C   6                  0.00000     2.05889   
    51. RY*(   8) C   6                  0.00000     1.85691   
    52. RY*(   9) C   6                  0.00000     1.86111   
    53. RY*(   1) H   7                  0.00288     0.51432   
    54. RY*(   2) H   7                  0.00011     1.97273   
    55. RY*(   3) H   7                  0.00006     1.94719   
    56. RY*(   4) H   7                  0.00002     2.48923   
    57. RY*(   1) H   8                  0.00288     0.51432   
    58. RY*(   2) H   8                  0.00011     1.97273   
    59. RY*(   3) H   8                  0.00006     1.94719   
    60. RY*(   4) H   8                  0.00002     2.48923   
    61. RY*(   1) H   9                  0.00189     0.53299   
    62. RY*(   2) H   9                  0.00013     1.95602   
    63. RY*(   3) H   9                  0.00007     1.93400   
    64. RY*(   4) H   9                  0.00002     2.46078   
    65. RY*(   1) H  10                  0.00189     0.53299   
    66. RY*(   2) H  10                  0.00013     1.95602   
    67. RY*(   3) H  10                  0.00007     1.93400   
    68. RY*(   4) H  10                  0.00002     2.46078   
    69. RY*(   1) H  11                  0.00131     0.53382   
    70. RY*(   2) H  11                  0.00013     1.95604   
    71. RY*(   3) H  11                  0.00007     1.92018   
    72. RY*(   4) H  11                  0.00002     2.45513   
    73. BD*(   1) C   1 - H   2          0.00453     0.74518   
    74. BD*(   1) C   1 - H   3          0.00767     0.73535   
    75. BD*(   1) C   1 - H   4          0.00767     0.73535   
    76. BD*(   1) C   1 - C   5          0.00755     0.67654   
    77. BD*(   1) C   5 - C   6          0.00755     0.67654   
    78. BD*(   1) C   5 - H   7          0.01454     0.74825   
    79. BD*(   1) C   5 - H   8          0.01454     0.74825   
    80. BD*(   1) C   6 - H   9          0.00767     0.73535   
    81. BD*(   1) C   6 - H  10          0.00767     0.73535   
    82. BD*(   1) C   6 - H  11          0.00453     0.74518   
       -------------------------------
              Total Lewis   25.88019  ( 99.5392%)
        Valence non-Lewis    0.08392  (  0.3228%)
        Rydberg non-Lewis    0.03589  (  0.1380%)
       -------------------------------
            Total unit  1   26.00000  (100.0000%)
           Charge unit  1    0.00000
 Unable to Open any file for archive entry.
 1\1\GINC-LOCALHOST\FOpt\RHF\CC-pVDZ\C3H8\USER\21-Mar-2026\0\\# opt fre
 q hf/cc-pvdz pop=nbo geom=connectivity\\Propane-HF-cc-pvdz\\0,1\C,-0.8
 661144489,-0.041483973,-0.7177646973\H,-0.9909584019,0.1806659795,0.34
 47811956\H,-0.1154408437,0.6472511357,-1.115809358\H,-1.8140021506,0.1
 782044095,-1.2173168796\C,-0.4518892553,-1.4940254016,-0.9372270978\C,
 -0.2657374154,-1.8494418762,-2.4098606164\H,0.4792515833,-1.6910825134
 ,-0.3962964527\H,-1.2044470218,-2.1560250005,-0.4969157661\H,0.5073126
 39,-1.2280905545,-2.8709708113\H,-1.1912486679,-1.6971372807,-2.972478
 3329\H,0.0300889317,-2.8940862071,-2.5329271947\\Version=ES64L-G16RevC
 .02\State=1-A1\HF=-118.2725164\RMSD=7.671e-09\RMSF=6.655e-05\Dipole=0.
 0036263,-0.0174439,0.019925\Quadrupole=0.281997,-0.1384994,-0.1434976,
 0.1352698,0.0638548,-0.1302458\PG=C02V [C2(C1),SGV(C2H2),SGV'(H2),X(H4
 )]\\@
 The archive entry for this job was punched.


 FLOATING POINT NUMBERS ARE LIKE SANDPILES:
 EVERY TIME THAT YOU MOVE ONE, YOU LOSE A LITTLE SAND 
 AND YOU PICK UP A LITTLE DIRT.
 Job cpu time:       0 days  0 hours  1 minutes  2.8 seconds.
 Elapsed time:       0 days  0 hours  0 minutes  4.4 seconds.
 File lengths (MBytes):  RWF=     10 Int=      0 D2E=      0 Chk=      2 Scr=      1
 Normal termination of Gaussian 16 at Sat Mar 21 10:17:37 2026.
 Link1:  Proceeding to internal job step number  2.
 ----------------------------------------------------------------
 #N Geom=AllCheck Guess=TCheck SCRF=Check GenChk RHF/CC-pVDZ Freq
 ----------------------------------------------------------------
 1/10=4,29=7,30=1,38=1,40=1/1,3;
 2/12=2,40=1/2;
 3/5=16,11=1,14=-4,25=1,30=1,70=2,71=2,116=1,140=1/1,2,3;
 4/5=101/1;
 5/5=2,38=6,98=1/2;
 8/6=4,10=90,11=11/1;
 10/13=10,15=4/2;
 11/6=3,8=1,9=11,15=111,16=1/1,2,10;
 10/6=1/2;
 6/7=2,8=2,9=2,10=2,28=1,40=1/1,7;
 7/8=1,10=1,25=1/1,2,3,16;
 1/10=4,30=1/3;
 99//99;
 Structure from the checkpoint file:  "Propane-HF-ccpvdz.chk"
 ------------------
 Propane-HF-cc-pvdz
 ------------------
 Charge =  0 Multiplicity = 1
 Redundant internal coordinates found in file.  (old form).
 C,0,-0.8661144489,-0.041483973,-0.7177646973
 H,0,-0.9909584019,0.1806659795,0.3447811956
 H,0,-0.1154408437,0.6472511357,-1.115809358
 H,0,-1.8140021506,0.1782044095,-1.2173168796
 C,0,-0.4518892553,-1.4940254016,-0.9372270978
 C,0,-0.2657374154,-1.8494418762,-2.4098606164
 H,0,0.4792515833,-1.6910825134,-0.3962964527
 H,0,-1.2044470218,-2.1560250005,-0.4969157661
 H,0,0.507312639,-1.2280905545,-2.8709708113
 H,0,-1.1912486679,-1.6971372807,-2.9724783329
 H,0,0.0300889317,-2.8940862071,-2.5329271947
 Recover connectivity data from disk.

 GradGradGradGradGradGradGradGradGradGradGradGradGradGradGradGradGradGrad
 Berny optimization.
 Initialization pass.
                           ----------------------------
                           !    Initial Parameters    !
                           ! (Angstroms and Degrees)  !
 --------------------------                            --------------------------
 ! Name  Definition              Value          Derivative Info.                !
 --------------------------------------------------------------------------------
 ! R1    R(1,2)                  1.0927         calculate D2E/DX2 analytically  !
 ! R2    R(1,3)                  1.0938         calculate D2E/DX2 analytically  !
 ! R3    R(1,4)                  1.0938         calculate D2E/DX2 analytically  !
 ! R4    R(1,5)                  1.5263         calculate D2E/DX2 analytically  !
 ! R5    R(5,6)                  1.5263         calculate D2E/DX2 analytically  !
 ! R6    R(5,7)                  1.0947         calculate D2E/DX2 analytically  !
 ! R7    R(5,8)                  1.0947         calculate D2E/DX2 analytically  !
 ! R8    R(6,9)                  1.0938         calculate D2E/DX2 analytically  !
 ! R9    R(6,10)                 1.0938         calculate D2E/DX2 analytically  !
 ! R10   R(6,11)                 1.0927         calculate D2E/DX2 analytically  !
 ! A1    A(2,1,3)              107.715          calculate D2E/DX2 analytically  !
 ! A2    A(2,1,4)              107.715          calculate D2E/DX2 analytically  !
 ! A3    A(2,1,5)              111.3652         calculate D2E/DX2 analytically  !
 ! A4    A(3,1,4)              107.5837         calculate D2E/DX2 analytically  !
 ! A5    A(3,1,5)              111.1415         calculate D2E/DX2 analytically  !
 ! A6    A(4,1,5)              111.1415         calculate D2E/DX2 analytically  !
 ! A7    A(1,5,6)              113.1684         calculate D2E/DX2 analytically  !
 ! A8    A(1,5,7)              109.3349         calculate D2E/DX2 analytically  !
 ! A9    A(1,5,8)              109.3349         calculate D2E/DX2 analytically  !
 ! A10   A(6,5,7)              109.3349         calculate D2E/DX2 analytically  !
 ! A11   A(6,5,8)              109.3349         calculate D2E/DX2 analytically  !
 ! A12   A(7,5,8)              106.0879         calculate D2E/DX2 analytically  !
 ! A13   A(5,6,9)              111.1415         calculate D2E/DX2 analytically  !
 ! A14   A(5,6,10)             111.1415         calculate D2E/DX2 analytically  !
 ! A15   A(5,6,11)             111.3652         calculate D2E/DX2 analytically  !
 ! A16   A(9,6,10)             107.5837         calculate D2E/DX2 analytically  !
 ! A17   A(9,6,11)             107.715          calculate D2E/DX2 analytically  !
 ! A18   A(10,6,11)            107.715          calculate D2E/DX2 analytically  !
 ! D1    D(2,1,5,6)           -180.0            calculate D2E/DX2 analytically  !
 ! D2    D(2,1,5,7)            -57.8718         calculate D2E/DX2 analytically  !
 ! D3    D(2,1,5,8)             57.8718         calculate D2E/DX2 analytically  !
 ! D4    D(3,1,5,6)            -59.8946         calculate D2E/DX2 analytically  !
 ! D5    D(3,1,5,7)             62.2336         calculate D2E/DX2 analytically  !
 ! D6    D(3,1,5,8)            177.9771         calculate D2E/DX2 analytically  !
 ! D7    D(4,1,5,6)             59.8946         calculate D2E/DX2 analytically  !
 ! D8    D(4,1,5,7)           -177.9771         calculate D2E/DX2 analytically  !
 ! D9    D(4,1,5,8)            -62.2336         calculate D2E/DX2 analytically  !
 ! D10   D(1,5,6,9)             59.8946         calculate D2E/DX2 analytically  !
 ! D11   D(1,5,6,10)           -59.8946         calculate D2E/DX2 analytically  !
 ! D12   D(1,5,6,11)           180.0            calculate D2E/DX2 analytically  !
 ! D13   D(7,5,6,9)            -62.2336         calculate D2E/DX2 analytically  !
 ! D14   D(7,5,6,10)           177.9771         calculate D2E/DX2 analytically  !
 ! D15   D(7,5,6,11)            57.8718         calculate D2E/DX2 analytically  !
 ! D16   D(8,5,6,9)           -177.9771         calculate D2E/DX2 analytically  !
 ! D17   D(8,5,6,10)            62.2336         calculate D2E/DX2 analytically  !
 ! D18   D(8,5,6,11)           -57.8718         calculate D2E/DX2 analytically  !
 --------------------------------------------------------------------------------
 Trust Radius=3.00D-01 FncErr=1.00D-07 GrdErr=1.00D-07 EigMax=2.50D+02 EigMin=1.00D-04
 Number of steps in this run=      2 maximum allowed number of steps=      2.
 GradGradGradGradGradGradGradGradGradGradGradGradGradGradGradGradGradGrad

                          Input orientation:                          
 ---------------------------------------------------------------------
 Center     Atomic      Atomic             Coordinates (Angstroms)
 Number     Number       Type             X           Y           Z
 ---------------------------------------------------------------------
      1          6           0       -0.866114   -0.041484   -0.717765
      2          1           0       -0.990958    0.180666    0.344781
      3          1           0       -0.115441    0.647251   -1.115809
      4          1           0       -1.814002    0.178204   -1.217317
      5          6           0       -0.451889   -1.494025   -0.937227
      6          6           0       -0.265737   -1.849442   -2.409861
      7          1           0        0.479252   -1.691083   -0.396296
      8          1           0       -1.204447   -2.156025   -0.496916
      9          1           0        0.507313   -1.228091   -2.870971
     10          1           0       -1.191249   -1.697137   -2.972478
     11          1           0        0.030089   -2.894086   -2.532927
 ---------------------------------------------------------------------
                    Distance matrix (angstroms):
                    1          2          3          4          5
     1  C    0.000000
     2  H    1.092676   0.000000
     3  H    1.093758   1.765661   0.000000
     4  H    1.093758   1.765661   1.765055   0.000000
     5  C    1.526310   2.176863   2.174892   2.174892   0.000000
     6  C    2.548010   3.497904   2.816138   2.816138   1.526310
     7  H    2.152795   2.492821   2.517769   3.070394   1.094742
     8  H    2.152795   2.492821   3.070394   2.517769   1.094742
     9  H    2.816138   3.817129   2.642976   3.178166   2.174892
    10  H    2.816138   3.817129   3.178166   2.642976   2.174892
    11  H    3.497904   4.333341   3.817129   3.817129   2.176863
                    6          7          8          9         10
     6  C    0.000000
     7  H    2.152795   0.000000
     8  H    2.152795   1.749610   0.000000
     9  H    1.093758   2.517769   3.070394   0.000000
    10  H    1.093758   3.070394   2.517769   1.765055   0.000000
    11  H    1.092676   2.492821   2.492821   1.765661   1.765661
                   11
    11  H    0.000000
 Stoichiometry    C3H8
 Framework group  C2V[C2(C),SGV(C2H2),SGV'(H2),X(H4)]
 Deg. of freedom     9
 Full point group                 C2V     NOp   4
 Largest Abelian subgroup         C2V     NOp   4
 Largest concise Abelian subgroup C2V     NOp   4
                         Standard orientation:                         
 ---------------------------------------------------------------------
 Center     Atomic      Atomic             Coordinates (Angstroms)
 Number     Number       Type             X           Y           Z
 ---------------------------------------------------------------------
      1          6           0        0.000000    1.274005   -0.258602
      2          1           0        0.000000    2.166671    0.371548
      3          1           0        0.882527    1.321488   -0.902959
      4          1           0       -0.882527    1.321488   -0.902959
      5          6           0        0.000000    0.000000    0.581955
      6          6           0       -0.000000   -1.274005   -0.258602
      7          1           0        0.874805    0.000000    1.240116
      8          1           0       -0.874805    0.000000    1.240116
      9          1           0        0.882527   -1.321488   -0.902959
     10          1           0       -0.882527   -1.321488   -0.902959
     11          1           0       -0.000000   -2.166671    0.371548
 ---------------------------------------------------------------------
 Rotational constants (GHZ):          29.7054939           8.4035389           7.4553831
 Standard basis: CC-pVDZ (5D, 7F)
 There are    32 symmetry adapted cartesian basis functions of A1  symmetry.
 There are    12 symmetry adapted cartesian basis functions of A2  symmetry.
 There are    17 symmetry adapted cartesian basis functions of B1  symmetry.
 There are    24 symmetry adapted cartesian basis functions of B2  symmetry.
 There are    30 symmetry adapted basis functions of A1  symmetry.
 There are    12 symmetry adapted basis functions of A2  symmetry.
 There are    17 symmetry adapted basis functions of B1  symmetry.
 There are    23 symmetry adapted basis functions of B2  symmetry.
    82 basis functions,   155 primitive gaussians,    85 cartesian basis functions
    13 alpha electrons       13 beta electrons
       nuclear repulsion energy        82.5343515842 Hartrees.
 NAtoms=   11 NActive=   11 NUniq=    5 SFac= 4.00D+00 NAtFMM=   60 NAOKFM=F Big=F
 Integral buffers will be    131072 words long.
 Raffenetti 1 integral format.
 Two-electron integral symmetry is turned on.
 One-electron integrals computed using PRISM.
 NBasis=    82 RedAO= T EigKep=  5.76D-03  NBF=    30    12    17    23
 NBsUse=    82 1.00D-06 EigRej= -1.00D+00 NBFU=    30    12    17    23
 Initial guess from the checkpoint file:  "Propane-HF-ccpvdz.chk"
 B after Tr=    -0.000000    0.000000   -0.000000
         Rot=    1.000000   -0.000000   -0.000000    0.000000 Ang=   0.00 deg.
 Initial guess orbital symmetries:
       Occupied  (A1) (B2) (A1) (A1) (B2) (A1) (B1) (A1) (B2) (A2)
                 (B2) (A1) (B1)
       Virtual   (A1) (B2) (A1) (B1) (A1) (B1) (B2) (A2) (A1) (B2)
                 (A1) (B1) (A2) (B2) (A1) (B2) (B1) (A1) (B2) (B2)
                 (B1) (A2) (B1) (A1) (A1) (A1) (B2) (A1) (A2) (A1)
                 (B2) (A2) (B1) (B2) (A1) (A1) (B1) (A2) (A1) (B2)
                 (B1) (A2) (B2) (B1) (A1) (A2) (B1) (B2) (A1) (B1)
                 (B2) (A1) (B2) (A2) (A1) (B2) (A1) (B1) (B2) (A1)
                 (A2) (A1) (B1) (B2) (B2) (A1) (A1) (A2) (B1)
 Keep R1 ints in memory in symmetry-blocked form, NReq=10903296.
 Requested convergence on RMS density matrix=1.00D-08 within 128 cycles.
 Requested convergence on MAX density matrix=1.00D-06.
 Requested convergence on             energy=1.00D-06.
 No special actions if energy rises.
 SCF Done:  E(RHF) =  -118.272516420     A.U. after    1 cycles
            NFock=  1  Conv=0.13D-08     -V/T= 2.0014
 Range of M.O.s used for correlation:     1    82
 NBasis=    82 NAE=    13 NBE=    13 NFC=     0 NFV=     0
 NROrb=     82 NOA=    13 NOB=    13 NVA=    69 NVB=    69
          Differentiating once with respect to electric field.
                with respect to dipole field.
          Electric field/nuclear overlap derivatives assumed to be zero.
 Keep R1 ints in memory in symmetry-blocked form, NReq=10901005.
          There are     3 degrees of freedom in the 1st order CPHF.  IDoFFX=0 NUNeed=     3.
      3 vectors produced by pass  0 Test12= 2.99D-14 3.33D-08 XBig12= 8.03D+00 1.25D+00.
 AX will form     3 AO Fock derivatives at one time.
      3 vectors produced by pass  1 Test12= 2.99D-14 3.33D-08 XBig12= 4.08D-01 2.06D-01.
      3 vectors produced by pass  2 Test12= 2.99D-14 3.33D-08 XBig12= 1.75D-02 5.04D-02.
      3 vectors produced by pass  3 Test12= 2.99D-14 3.33D-08 XBig12= 9.11D-04 1.03D-02.
      3 vectors produced by pass  4 Test12= 2.99D-14 3.33D-08 XBig12= 3.09D-05 1.94D-03.
      3 vectors produced by pass  5 Test12= 2.99D-14 3.33D-08 XBig12= 9.92D-07 2.96D-04.
      3 vectors produced by pass  6 Test12= 2.99D-14 3.33D-08 XBig12= 9.86D-08 9.29D-05.
      3 vectors produced by pass  7 Test12= 2.99D-14 3.33D-08 XBig12= 4.88D-09 2.27D-05.
      2 vectors produced by pass  8 Test12= 2.99D-14 3.33D-08 XBig12= 7.11D-11 2.91D-06.
      1 vectors produced by pass  9 Test12= 2.99D-14 3.33D-08 XBig12= 8.54D-13 2.43D-07.
 InvSVY:  IOpt=1 It=  1 EMax= 2.30D-16
 Solved reduced A of dimension    27 with     3 vectors.
 End of Minotr F.D. properties file   721 does not exist.
 End of Minotr F.D. properties file   722 does not exist.
 End of Minotr F.D. properties file   788 does not exist.
 Symmetrizing basis deriv contribution to polar:
 IMax=3 JMax=2 DiffMx= 0.00D+00
 G2DrvN: will do    12 centers at a time, making    1 passes.
 PxScal for G2LodP:  IOpCl= 0 ISclPx=1 IMOff=     1 NMtTot=     4 NTT=    3403 ScalPx= 1.96D+00
 Calling FoFCou, ICntrl=  3107 FMM=F I1Cent=   0 AccDes= 0.00D+00.
 End of G2Drv F.D. properties file   721 does not exist.
 End of G2Drv F.D. properties file   722 does not exist.
 End of G2Drv F.D. properties file   788 does not exist.
          IDoAtm=11111111111
          Differentiating once with respect to electric field.
                with respect to dipole field.
          Differentiating once with respect to nuclear coordinates.
 Keep R1 ints in memory in symmetry-blocked form, NReq=10901258.
          There are    18 degrees of freedom in the 1st order CPHF.  IDoFFX=4 NUNeed=    18.
 Will reuse    3 saved solutions.
     15 vectors produced by pass  0 Test12= 4.98D-15 5.56D-09 XBig12= 3.18D-02 5.94D-02.
 AX will form    15 AO Fock derivatives at one time.
     15 vectors produced by pass  1 Test12= 4.98D-15 5.56D-09 XBig12= 8.29D-04 6.82D-03.
     15 vectors produced by pass  2 Test12= 4.98D-15 5.56D-09 XBig12= 3.14D-05 1.38D-03.
     15 vectors produced by pass  3 Test12= 4.98D-15 5.56D-09 XBig12= 4.92D-07 1.39D-04.
     15 vectors produced by pass  4 Test12= 4.98D-15 5.56D-09 XBig12= 5.59D-09 1.54D-05.
     15 vectors produced by pass  5 Test12= 4.98D-15 5.56D-09 XBig12= 3.18D-11 1.04D-06.
     11 vectors produced by pass  6 Test12= 4.98D-15 5.56D-09 XBig12= 2.25D-13 8.19D-08.
      1 vectors produced by pass  7 Test12= 4.98D-15 5.56D-09 XBig12= 1.50D-15 6.84D-09.
 InvSVY:  IOpt=1 It=  1 EMax= 1.11D-15
 Solved reduced A of dimension   102 with    15 vectors.
 Isotropic polarizability for W=    0.000000       34.49 Bohr**3.
 End of Minotr F.D. properties file   721 does not exist.
 End of Minotr F.D. properties file   722 does not exist.
 End of Minotr F.D. properties file   788 does not exist.

 **********************************************************************

            Population analysis using the SCF Density.

 **********************************************************************

 Orbital symmetries:
       Occupied  (A1) (B2) (A1) (A1) (B2) (A1) (B1) (A1) (B2) (A2)
                 (B2) (A1) (B1)
       Virtual   (A1) (B2) (A1) (B1) (A1) (B1) (B2) (A2) (A1) (B2)
                 (A1) (B1) (A2) (B2) (A1) (B2) (B1) (A1) (B2) (B2)
                 (B1) (A2) (B1) (A1) (A1) (A1) (B2) (A1) (A2) (A1)
                 (B2) (A2) (B1) (B2) (A1) (A1) (B1) (A2) (A1) (B2)
                 (B1) (A2) (B2) (B1) (A1) (A2) (B1) (B2) (A1) (B1)
                 (B2) (A1) (B2) (A2) (A1) (B2) (A1) (B1) (B2) (A1)
                 (A2) (A1) (B1) (B2) (B2) (A1) (A1) (A2) (B1)
 The electronic state is 1-A1.
 Alpha  occ. eigenvalues --  -11.22190 -11.21645 -11.21641  -1.05274  -0.92542
 Alpha  occ. eigenvalues --   -0.79909  -0.62198  -0.59557  -0.54899  -0.52937
 Alpha  occ. eigenvalues --   -0.47452  -0.47339  -0.46577
 Alpha virt. eigenvalues --    0.18281   0.22980   0.23379   0.23547   0.26600
 Alpha virt. eigenvalues --    0.28361   0.29233   0.30451   0.37102   0.42644
 Alpha virt. eigenvalues --    0.57307   0.60038   0.61515   0.61670   0.63723
 Alpha virt. eigenvalues --    0.80461   0.81309   0.85201   0.87808   0.89140
 Alpha virt. eigenvalues --    0.89534   0.89865   0.90269   0.91045   0.91616
 Alpha virt. eigenvalues --    0.95306   0.96813   1.12765   1.12828   1.19603
 Alpha virt. eigenvalues --    1.36705   1.46781   1.47187   1.51186   1.60987
 Alpha virt. eigenvalues --    1.67955   1.69479   1.69956   1.85499   1.87065
 Alpha virt. eigenvalues --    1.88896   1.91163   1.94042   1.94235   1.97246
 Alpha virt. eigenvalues --    1.97359   1.97784   1.97866   1.98738   2.03461
 Alpha virt. eigenvalues --    2.11880   2.13034   2.29840   2.32093   2.33097
 Alpha virt. eigenvalues --    2.33965   2.48422   2.51972   2.59159   2.59925
 Alpha virt. eigenvalues --    2.60495   2.75084   2.76862   2.77607   2.82541
 Alpha virt. eigenvalues --    2.90932   2.98172   2.99076   3.04344
          Condensed to atoms (all electrons):
               1          2          3          4          5          6
     1  C    4.529596   0.408734   0.408428   0.408428   0.422449  -0.063605
     2  H    0.408734   0.642021  -0.025786  -0.025786  -0.023639   0.005990
     3  H    0.408428  -0.025786   0.649742  -0.027919  -0.031248  -0.004220
     4  H    0.408428  -0.025786  -0.027919   0.649742  -0.031248  -0.004220
     5  C    0.422449  -0.023639  -0.031248  -0.031248   4.634458   0.422449
     6  C   -0.063605   0.005990  -0.004220  -0.004220   0.422449   4.529596
     7  H   -0.031100  -0.004900  -0.006517   0.007535   0.404134  -0.031100
     8  H   -0.031100  -0.004900   0.007535  -0.006517   0.404134  -0.031100
     9  H   -0.004220  -0.000028   0.003746  -0.000666  -0.031248   0.408428
    10  H   -0.004220  -0.000028  -0.000666   0.003746  -0.031248   0.408428
    11  H    0.005990  -0.000255  -0.000028  -0.000028  -0.023639   0.408734
               7          8          9         10         11
     1  C   -0.031100  -0.031100  -0.004220  -0.004220   0.005990
     2  H   -0.004900  -0.004900  -0.000028  -0.000028  -0.000255
     3  H   -0.006517   0.007535   0.003746  -0.000666  -0.000028
     4  H    0.007535  -0.006517  -0.000666   0.003746  -0.000028
     5  C    0.404134   0.404134  -0.031248  -0.031248  -0.023639
     6  C   -0.031100  -0.031100   0.408428   0.408428   0.408734
     7  H    0.675202  -0.033989  -0.006517   0.007535  -0.004900
     8  H   -0.033989   0.675202   0.007535  -0.006517  -0.004900
     9  H   -0.006517   0.007535   0.649742  -0.027919  -0.025786
    10  H    0.007535  -0.006517  -0.027919   0.649742  -0.025786
    11  H   -0.004900  -0.004900  -0.025786  -0.025786   0.642021
 Mulliken charges:
               1
     1  C   -0.049379
     2  H    0.028577
     3  H    0.026932
     4  H    0.026932
     5  C   -0.115355
     6  C   -0.049379
     7  H    0.024615
     8  H    0.024615
     9  H    0.026932
    10  H    0.026932
    11  H    0.028577
 Sum of Mulliken charges =  -0.00000
 Mulliken charges with hydrogens summed into heavy atoms:
               1
     1  C    0.033063
     5  C   -0.066126
     6  C    0.033063
 APT charges:
               1
     1  C    0.116471
     2  H   -0.046179
     3  H   -0.043772
     4  H   -0.043772
     5  C    0.180522
     6  C    0.116471
     7  H   -0.073008
     8  H   -0.073008
     9  H   -0.043772
    10  H   -0.043772
    11  H   -0.046179
 Sum of APT charges =  -0.00000
 APT charges with hydrogens summed into heavy atoms:
               1
     1  C   -0.017253
     5  C    0.034506
     6  C   -0.017253
 Electronic spatial extent (au):  <R**2>=            227.3454
 Charge=              0.0000 electrons
 Dipole moment (field-independent basis, Debye):
    X=             -0.0000    Y=              0.0000    Z=              0.0679  Tot=              0.0679
 Quadrupole moment (field-independent basis, Debye-Ang):
   XX=            -21.5291   YY=            -22.3744   ZZ=            -21.9877
   XY=              0.0000   XZ=              0.0000   YZ=              0.0000
 Traceless Quadrupole moment (field-independent basis, Debye-Ang):
   XX=              0.4347   YY=             -0.4107   ZZ=             -0.0240
   XY=              0.0000   XZ=              0.0000   YZ=              0.0000
 Octapole moment (field-independent basis, Debye-Ang**2):
  XXX=              0.0000  YYY=             -0.0000  ZZZ=              0.1557  XYY=             -0.0000
  XXY=             -0.0000  XXZ=             -0.4324  XZZ=             -0.0000  YZZ=             -0.0000
  YYZ=              1.4586  XYZ=              0.0000
 Hexadecapole moment (field-independent basis, Debye-Ang**3):
 XXXX=            -43.2101 YYYY=           -203.9954 ZZZZ=            -70.5170 XXXY=             -0.0000
 XXXZ=             -0.0000 YYYX=             -0.0000 YYYZ=             -0.0000 ZZZX=              0.0000
 ZZZY=             -0.0000 XXYY=            -41.9991 XXZZ=            -17.0249 YYZZ=            -45.2481
 XXYZ=              0.0000 YYXZ=              0.0000 ZZXY=             -0.0000
 N-N= 8.253435158422D+01 E-N=-4.394370816149D+02  KE= 1.181065373151D+02
 Symmetry A1   KE= 7.324764409942D+01
 Symmetry A2   KE= 1.954254865181D+00
 Symmetry B1   KE= 3.745632261346D+00
 Symmetry B2   KE= 3.915900608913D+01
  Exact polarizability:      32.531       0.000      37.311       0.000       0.000      33.629
 Approx polarizability:      29.454      -0.000      29.191       0.000       0.000      29.365
 ******************************Gaussian NBO Version 3.1******************************
             N A T U R A L   A T O M I C   O R B I T A L   A N D
          N A T U R A L   B O N D   O R B I T A L   A N A L Y S I S
 ******************************Gaussian NBO Version 3.1******************************
       /RESON  / : Allow strongly delocalized NBO set

 Analyzing the SCF density

 Job title: Propane-HF-cc-pvdz                                              

 Storage needed:     20628 in NPA,     27277 in NBO (1342176565 available)
 GSVD:  LWork=        3370 too small for GESVD, short by        2987 words or        2987 for optimal perf.


 NATURAL POPULATIONS:  Natural atomic orbital occupancies 
                                                          
   NAO  Atom  No  lang   Type(AO)    Occupancy      Energy
 ----------------------------------------------------------
     1    C    1  S      Cor( 1S)     1.99948     -11.08369
     2    C    1  S      Val( 2S)     1.10030      -0.25710
     3    C    1  S      Ryd( 3S)     0.00063       1.41009
     4    C    1  px     Val( 2p)     1.19355      -0.03687
     5    C    1  px     Ryd( 3p)     0.00139       0.78098
     6    C    1  py     Val( 2p)     1.11526      -0.02934
     7    C    1  py     Ryd( 3p)     0.00263       0.75693
     8    C    1  pz     Val( 2p)     1.15822      -0.03200
     9    C    1  pz     Ryd( 3p)     0.00197       0.75987
    10    C    1  dxy    Ryd( 3d)     0.00014       1.93296
    11    C    1  dxz    Ryd( 3d)     0.00138       2.26739
    12    C    1  dyz    Ryd( 3d)     0.00145       2.17584
    13    C    1  dx2y2  Ryd( 3d)     0.00136       2.21372
    14    C    1  dz2    Ryd( 3d)     0.00010       1.91961
 
    15    H    2  S      Val( 1S)     0.79925       0.16427
    16    H    2  S      Ryd( 2S)     0.00131       0.49450
    17    H    2  px     Ryd( 2p)     0.00013       1.95604
    18    H    2  py     Ryd( 2p)     0.00095       2.32005
    19    H    2  pz     Ryd( 2p)     0.00047       2.10865
 
    20    H    3  S      Val( 1S)     0.80624       0.15668
    21    H    3  S      Ryd( 2S)     0.00188       0.50500
    22    H    3  px     Ryd( 2p)     0.00091       2.31439
    23    H    3  py     Ryd( 2p)     0.00008       1.93875
    24    H    3  pz     Ryd( 2p)     0.00057       2.13991
 
    25    H    4  S      Val( 1S)     0.80624       0.15668
    26    H    4  S      Ryd( 2S)     0.00188       0.50500
    27    H    4  px     Ryd( 2p)     0.00091       2.31439
    28    H    4  py     Ryd( 2p)     0.00008       1.93875
    29    H    4  pz     Ryd( 2p)     0.00057       2.13991
 
    30    C    5  S      Cor( 1S)     1.99939     -11.08488
    31    C    5  S      Val( 2S)     1.03602      -0.22862
    32    C    5  S      Ryd( 3S)     0.00087       1.51287
    33    C    5  px     Val( 2p)     1.18941      -0.02867
    34    C    5  px     Ryd( 3p)     0.00325       0.88202
    35    C    5  py     Val( 2p)     1.02583      -0.01895
    36    C    5  py     Ryd( 3p)     0.00152       0.72268
    37    C    5  pz     Val( 2p)     1.11770      -0.02559
    38    C    5  pz     Ryd( 3p)     0.00092       0.73698
    39    C    5  dxy    Ryd( 3d)     0.00030       1.94024
    40    C    5  dxz    Ryd( 3d)     0.00161       2.33576
    41    C    5  dyz    Ryd( 3d)     0.00188       2.12138
    42    C    5  dx2y2  Ryd( 3d)     0.00181       2.21273
    43    C    5  dz2    Ryd( 3d)     0.00024       1.93142
 
    44    C    6  S      Cor( 1S)     1.99948     -11.08369
    45    C    6  S      Val( 2S)     1.10030      -0.25710
    46    C    6  S      Ryd( 3S)     0.00063       1.41009
    47    C    6  px     Val( 2p)     1.19355      -0.03687
    48    C    6  px     Ryd( 3p)     0.00139       0.78098
    49    C    6  py     Val( 2p)     1.11526      -0.02934
    50    C    6  py     Ryd( 3p)     0.00263       0.75693
    51    C    6  pz     Val( 2p)     1.15822      -0.03200
    52    C    6  pz     Ryd( 3p)     0.00197       0.75987
    53    C    6  dxy    Ryd( 3d)     0.00014       1.93296
    54    C    6  dxz    Ryd( 3d)     0.00138       2.26739
    55    C    6  dyz    Ryd( 3d)     0.00145       2.17584
    56    C    6  dx2y2  Ryd( 3d)     0.00136       2.21372
    57    C    6  dz2    Ryd( 3d)     0.00010       1.91961
 
    58    H    7  S      Val( 1S)     0.80584       0.16655
    59    H    7  S      Ryd( 2S)     0.00287       0.50565
    60    H    7  px     Ryd( 2p)     0.00091       2.32399
    61    H    7  py     Ryd( 2p)     0.00006       1.94719
    62    H    7  pz     Ryd( 2p)     0.00061       2.16222
 
    63    H    8  S      Val( 1S)     0.80584       0.16655
    64    H    8  S      Ryd( 2S)     0.00287       0.50565
    65    H    8  px     Ryd( 2p)     0.00091       2.32399
    66    H    8  py     Ryd( 2p)     0.00006       1.94719
    67    H    8  pz     Ryd( 2p)     0.00061       2.16222
 
    68    H    9  S      Val( 1S)     0.80624       0.15668
    69    H    9  S      Ryd( 2S)     0.00188       0.50500
    70    H    9  px     Ryd( 2p)     0.00091       2.31439
    71    H    9  py     Ryd( 2p)     0.00008       1.93875
    72    H    9  pz     Ryd( 2p)     0.00057       2.13991
 
    73    H   10  S      Val( 1S)     0.80624       0.15668
    74    H   10  S      Ryd( 2S)     0.00188       0.50500
    75    H   10  px     Ryd( 2p)     0.00091       2.31439
    76    H   10  py     Ryd( 2p)     0.00008       1.93875
    77    H   10  pz     Ryd( 2p)     0.00057       2.13991
 
    78    H   11  S      Val( 1S)     0.79925       0.16427
    79    H   11  S      Ryd( 2S)     0.00131       0.49450
    80    H   11  px     Ryd( 2p)     0.00013       1.95604
    81    H   11  py     Ryd( 2p)     0.00095       2.32005
    82    H   11  pz     Ryd( 2p)     0.00047       2.10865


 Summary of Natural Population Analysis:                  
                                                          
                                       Natural Population 
                Natural  -----------------------------------------------
    Atom  No    Charge         Core      Valence    Rydberg      Total
 -----------------------------------------------------------------------
      C    1   -0.57786      1.99948     4.56733    0.01105     6.57786
      H    2    0.19788      0.00000     0.79925    0.00287     0.80212
      H    3    0.19032      0.00000     0.80624    0.00344     0.80968
      H    4    0.19032      0.00000     0.80624    0.00344     0.80968
      C    5   -0.38076      1.99939     4.36896    0.01241     6.38076
      C    6   -0.57786      1.99948     4.56733    0.01105     6.57786
      H    7    0.18971      0.00000     0.80584    0.00445     0.81029
      H    8    0.18971      0.00000     0.80584    0.00445     0.81029
      H    9    0.19032      0.00000     0.80624    0.00344     0.80968
      H   10    0.19032      0.00000     0.80624    0.00344     0.80968
      H   11    0.19788      0.00000     0.79925    0.00287     0.80212
 =======================================================================
   * Total *   -0.00000      5.99835    19.93877    0.06288    26.00000

                                 Natural Population      
 --------------------------------------------------------
   Core                       5.99835 ( 99.9726% of   6)
   Valence                   19.93877 ( 99.6938% of  20)
   Natural Minimal Basis     25.93712 ( 99.7582% of  26)
   Natural Rydberg Basis      0.06288 (  0.2418% of  26)
 --------------------------------------------------------

    Atom  No          Natural Electron Configuration
 ----------------------------------------------------------------------------
      C    1      [core]2S( 1.10)2p( 3.47)3p( 0.01)
      H    2            1S( 0.80)
      H    3            1S( 0.81)
      H    4            1S( 0.81)
      C    5      [core]2S( 1.04)2p( 3.33)3p( 0.01)3d( 0.01)
      C    6      [core]2S( 1.10)2p( 3.47)3p( 0.01)
      H    7            1S( 0.81)
      H    8            1S( 0.81)
      H    9            1S( 0.81)
      H   10            1S( 0.81)
      H   11            1S( 0.80)


 NATURAL BOND ORBITAL ANALYSIS:

                       Occupancies       Lewis Structure    Low   High
           Occ.    -------------------  -----------------   occ   occ
  Cycle   Thresh.   Lewis   Non-Lewis     CR  BD  3C  LP    (L)   (NL)   Dev
 =============================================================================
   1(1)    1.90    25.88019   0.11981      3  10   0   0     0      0    0.03
 -----------------------------------------------------------------------------

 Structure accepted: No low occupancy Lewis orbitals

 --------------------------------------------------------
   Core                      5.99836 ( 99.973% of   6)
   Valence Lewis            19.88183 ( 99.409% of  20)
  ==================       ============================
   Total Lewis              25.88019 ( 99.539% of  26)
  -----------------------------------------------------
   Valence non-Lewis         0.08392 (  0.323% of  26)
   Rydberg non-Lewis         0.03589 (  0.138% of  26)
  ==================       ============================
   Total non-Lewis           0.11981 (  0.461% of  26)
 --------------------------------------------------------


       (Occupancy)   Bond orbital/ Coefficients/ Hybrids
 ---------------------------------------------------------------------------------
     1. (1.98990) BD ( 1) C   1 - H   2  
                ( 59.90%)   0.7740* C   1 s( 23.50%)p 3.25( 76.43%)d 0.00(  0.07%)
                                            0.0000  0.4848 -0.0011 -0.0000  0.0000
                                            0.7138  0.0026  0.5046 -0.0158 -0.0000
                                            0.0000  0.0226 -0.0141  0.0008
                ( 40.10%)   0.6332* H   2 s( 99.83%)p 0.00(  0.17%)
                                            0.9992 -0.0007  0.0000 -0.0339 -0.0226
     2. (1.99033) BD ( 1) C   1 - H   3  
                ( 59.65%)   0.7724* C   1 s( 23.29%)p 3.29( 76.64%)d 0.00(  0.07%)
                                            0.0000  0.4825 -0.0044  0.7067 -0.0055
                                            0.0365  0.0174 -0.5150 -0.0034  0.0006
                                           -0.0221  0.0003  0.0157  0.0003
                ( 40.35%)   0.6352* H   3 s( 99.83%)p 0.00(  0.17%)
                                            0.9992 -0.0019 -0.0324 -0.0031  0.0244
     3. (1.99033) BD ( 1) C   1 - H   4  
                ( 59.65%)   0.7724* C   1 s( 23.29%)p 3.29( 76.64%)d 0.00(  0.07%)
                                           -0.0000 -0.4825  0.0044  0.7067 -0.0055
                                           -0.0365 -0.0174  0.5150  0.0034  0.0006
                                           -0.0221 -0.0003 -0.0157 -0.0003
                ( 40.35%)   0.6352* H   4 s( 99.83%)p 0.00(  0.17%)
                                           -0.9992  0.0019 -0.0324  0.0031 -0.0244
     4. (1.99005) BD ( 1) C   1 - C   5  
                ( 49.95%)   0.7067* C   1 s( 29.91%)p 2.34( 69.97%)d 0.00(  0.12%)
                                            0.0003  0.5468  0.0115  0.0000  0.0000
                                           -0.6972  0.0008  0.4620  0.0141 -0.0000
                                            0.0000 -0.0270 -0.0210 -0.0022
                ( 50.05%)   0.7075* C   5 s( 27.88%)p 2.58( 71.99%)d 0.00(  0.13%)
                                            0.0002  0.5279  0.0120 -0.0000  0.0000
                                            0.7063  0.0165 -0.4697  0.0098  0.0000
                                           -0.0000 -0.0286 -0.0212  0.0006
     5. (1.99005) BD ( 1) C   5 - C   6  
                ( 50.05%)   0.7075* C   5 s( 27.88%)p 2.58( 71.99%)d 0.00(  0.13%)
                                            0.0002  0.5279  0.0120 -0.0000  0.0000
                                           -0.7063 -0.0165 -0.4697  0.0098  0.0000
                                           -0.0000  0.0286 -0.0212  0.0006
                ( 49.95%)   0.7067* C   6 s( 29.91%)p 2.34( 69.97%)d 0.00(  0.12%)
                                            0.0003  0.5468  0.0115  0.0000  0.0000
                                            0.6972 -0.0008  0.4620  0.0141 -0.0000
                                           -0.0000  0.0270 -0.0210 -0.0022
     6. (1.98030) BD ( 1) C   5 - H   7  
                ( 59.68%)   0.7725* C   5 s( 22.13%)p 3.52( 77.79%)d 0.00(  0.08%)
                                           -0.0000  0.4703 -0.0110  0.7065 -0.0169
                                            0.0000  0.0000  0.5276  0.0057  0.0000
                                            0.0228 -0.0000  0.0167 -0.0001
                ( 40.32%)   0.6350* H   7 s( 99.83%)p 0.00(  0.17%)
                                            0.9991 -0.0037 -0.0322  0.0000 -0.0261
     7. (1.98030) BD ( 1) C   5 - H   8  
                ( 59.68%)   0.7725* C   5 s( 22.13%)p 3.52( 77.79%)d 0.00(  0.08%)
                                            0.0000 -0.4703  0.0110  0.7065 -0.0169
                                           -0.0000 -0.0000 -0.5276 -0.0057  0.0000
                                            0.0228  0.0000 -0.0167  0.0001
                ( 40.32%)   0.6350* H   8 s( 99.83%)p 0.00(  0.17%)
                                           -0.9991  0.0037 -0.0322  0.0000  0.0261
     8. (1.99033) BD ( 1) C   6 - H   9  
                ( 59.65%)   0.7724* C   6 s( 23.29%)p 3.29( 76.64%)d 0.00(  0.07%)
                                            0.0000  0.4825 -0.0044  0.7067 -0.0055
                                           -0.0365 -0.0174 -0.5150 -0.0034 -0.0006
                                           -0.0221 -0.0003  0.0157  0.0003
                ( 40.35%)   0.6352* H   9 s( 99.83%)p 0.00(  0.17%)
                                            0.9992 -0.0019 -0.0324  0.0031  0.0244
     9. (1.99033) BD ( 1) C   6 - H  10  
                ( 59.65%)   0.7724* C   6 s( 23.29%)p 3.29( 76.64%)d 0.00(  0.07%)
                                           -0.0000 -0.4825  0.0044  0.7067 -0.0055
                                            0.0365  0.0174  0.5150  0.0034 -0.0006
                                           -0.0221  0.0003 -0.0157 -0.0003
                ( 40.35%)   0.6352* H  10 s( 99.83%)p 0.00(  0.17%)
                                           -0.9992  0.0019 -0.0324 -0.0031 -0.0244
    10. (1.98990) BD ( 1) C   6 - H  11  
                ( 59.90%)   0.7740* C   6 s( 23.50%)p 3.25( 76.43%)d 0.00(  0.07%)
                                           -0.0000 -0.4848  0.0011  0.0000 -0.0000
                                            0.7138  0.0026 -0.5046  0.0158 -0.0000
                                           -0.0000  0.0226  0.0141 -0.0008
                ( 40.10%)   0.6332* H  11 s( 99.83%)p 0.00(  0.17%)
                                           -0.9992  0.0007  0.0000 -0.0339  0.0226
    11. (1.99948) CR ( 1) C   1           s(100.00%)p 0.00(  0.00%)
                                            1.0000 -0.0002 -0.0000 -0.0000 -0.0000
                                            0.0002 -0.0000 -0.0001 -0.0000  0.0000
                                            0.0000  0.0000  0.0000  0.0000
    12. (1.99939) CR ( 1) C   5           s(100.00%)p 0.00(  0.00%)
                                            1.0000 -0.0002 -0.0000 -0.0000  0.0000
                                           -0.0000 -0.0000  0.0003 -0.0000  0.0000
                                           -0.0000  0.0000  0.0000 -0.0000
    13. (1.99948) CR ( 1) C   6           s(100.00%)p 0.00(  0.00%)
                                            1.0000 -0.0002 -0.0000 -0.0000  0.0000
                                           -0.0002  0.0000 -0.0001 -0.0000  0.0000
                                            0.0000 -0.0000  0.0000  0.0000
    14. (0.00374) RY*( 1) C   1           s(  7.39%)p11.71( 86.56%)d 0.82(  6.06%)
                                           -0.0000  0.0107  0.2716 -0.0000 -0.0000
                                           -0.0123 -0.7089 -0.0179 -0.6021 -0.0000
                                            0.0000  0.1407 -0.1557 -0.1285
    15. (0.00177) RY*( 2) C   1           s(  0.00%)p 1.00( 76.56%)d 0.31( 23.44%)
                                           -0.0000 -0.0000  0.0000  0.0194  0.8748
                                           -0.0000 -0.0000  0.0000 -0.0000 -0.2804
                                            0.3948  0.0000 -0.0000 -0.0000
    16. (0.00030) RY*( 3) C   1           s( 50.02%)p 0.69( 34.46%)d 0.31( 15.51%)
                                            0.0000  0.0058  0.7072  0.0000 -0.0000
                                            0.0253 -0.2938 -0.0067  0.5076 -0.0000
                                           -0.0000 -0.2499  0.1775  0.2474
    17. (0.00013) RY*( 4) C   1           s( 20.42%)p 3.15( 64.42%)d 0.74( 15.16%)
                                           -0.0000 -0.0121  0.4517  0.0000 -0.0000
                                           -0.0081  0.5455  0.0144 -0.5885  0.0000
                                           -0.0000 -0.1078  0.2556  0.2731
    18. (0.00001) RY*( 5) C   1           s(  6.61%)p 0.92(  6.11%)d13.20( 87.28%)
    19. (0.00001) RY*( 6) C   1           s(  0.00%)p 1.00( 14.22%)d 6.03( 85.78%)
    20. (0.00000) RY*( 7) C   1           s(  7.75%)p 0.69(  5.34%)d11.21( 86.91%)
    21. (0.00000) RY*( 8) C   1           s(  0.00%)p 1.00(  9.32%)d 9.73( 90.68%)
    22. (0.00000) RY*( 9) C   1           s(  7.83%)p 0.43(  3.33%)d11.35( 88.85%)
    23. (0.00131) RY*( 1) H   2           s( 99.45%)p 0.01(  0.55%)
                                            0.0037  0.9973  0.0000  0.0611  0.0418
    24. (0.00013) RY*( 2) H   2           s(  0.00%)p 1.00(100.00%)
                                            0.0000  0.0000  1.0000  0.0000  0.0000
    25. (0.00007) RY*( 3) H   2           s(  0.01%)p99.99( 99.99%)
    26. (0.00002) RY*( 4) H   2           s(  0.70%)p99.99( 99.30%)
    27. (0.00189) RY*( 1) H   3           s( 99.64%)p 0.00(  0.36%)
                                            0.0042  0.9982  0.0383  0.0013 -0.0459
    28. (0.00013) RY*( 2) H   3           s(  0.02%)p99.99( 99.98%)
                                           -0.0004  0.0146  0.5368  0.3342  0.7746
    29. (0.00007) RY*( 3) H   3           s(  0.01%)p 1.00( 99.99%)
    30. (0.00002) RY*( 4) H   3           s(  0.50%)p99.99( 99.50%)
    31. (0.00189) RY*( 1) H   4           s( 99.64%)p 0.00(  0.36%)
                                            0.0042  0.9982 -0.0383  0.0013 -0.0459
    32. (0.00013) RY*( 2) H   4           s(  0.02%)p99.99( 99.98%)
                                           -0.0004  0.0146 -0.5368  0.3342  0.7746
    33. (0.00007) RY*( 3) H   4           s(  0.01%)p 1.00( 99.99%)
    34. (0.00002) RY*( 4) H   4           s(  0.50%)p99.99( 99.50%)
    35. (0.00329) RY*( 1) C   5           s(  0.00%)p 1.00( 84.90%)d 0.18( 15.10%)
                                            0.0000 -0.0000  0.0000  0.0346  0.9208
                                            0.0000  0.0000 -0.0000 -0.0000  0.0000
                                           -0.3886 -0.0000 -0.0000  0.0000
    36. (0.00137) RY*( 2) C   5           s( 15.43%)p 2.89( 44.56%)d 2.59( 40.01%)
                                            0.0000 -0.0144  0.3925 -0.0000  0.0000
                                           -0.0000 -0.0000  0.0290  0.6669  0.0000
                                           -0.0000  0.0000 -0.4809 -0.4109
    37. (0.00106) RY*( 3) C   5           s(  0.00%)p 1.00( 87.53%)d 0.14( 12.47%)
                                           -0.0000 -0.0000 -0.0000 -0.0000  0.0000
                                           -0.0076  0.9356  0.0000 -0.0000  0.0000
                                           -0.0000  0.3531  0.0000 -0.0000
    38. (0.00030) RY*( 4) C   5           s(  0.00%)p 0.00(  0.00%)d 1.00(100.00%)
                                            0.0000  0.0000  0.0000  0.0000  0.0000
                                            0.0000  0.0000  0.0000  0.0000  1.0000
                                            0.0000  0.0000  0.0000  0.0000
    39. (0.00016) RY*( 5) C   5           s( 61.35%)p 0.57( 35.14%)d 0.06(  3.52%)
                                            0.0000  0.0062  0.7832 -0.0000  0.0000
                                           -0.0000 -0.0000  0.0231 -0.5923  0.0000
                                           -0.0000  0.0000 -0.1874  0.0075
    40. (0.00014) RY*( 6) C   5           s(  0.00%)p 1.00( 12.63%)d 6.92( 87.37%)
                                            0.0000  0.0000  0.0000  0.0000 -0.0000
                                            0.0461 -0.3524 -0.0000  0.0000  0.0000
                                            0.0000  0.9347 -0.0000  0.0000
    41. (0.00004) RY*( 7) C   5           s( 21.75%)p 0.92( 20.09%)d 2.67( 58.16%)
    42. (0.00000) RY*( 8) C   5           s(  0.00%)p 1.00( 15.20%)d 5.58( 84.80%)
    43. (0.00000) RY*( 9) C   5           s(  1.45%)p 0.26(  0.38%)d67.48( 98.16%)
    44. (0.00374) RY*( 1) C   6           s(  7.39%)p11.71( 86.56%)d 0.82(  6.06%)
                                           -0.0000  0.0107  0.2716 -0.0000  0.0000
                                            0.0123  0.7089 -0.0179 -0.6021 -0.0000
                                            0.0000 -0.1407 -0.1557 -0.1285
    45. (0.00177) RY*( 2) C   6           s(  0.00%)p 1.00( 76.56%)d 0.31( 23.44%)
                                           -0.0000 -0.0000 -0.0000  0.0194  0.8748
                                            0.0000  0.0000 -0.0000  0.0000  0.2804
                                            0.3948 -0.0000  0.0000  0.0000
    46. (0.00030) RY*( 3) C   6           s( 50.02%)p 0.69( 34.46%)d 0.31( 15.51%)
                                            0.0000  0.0058  0.7072 -0.0000  0.0000
                                           -0.0253  0.2938 -0.0067  0.5076 -0.0000
                                            0.0000  0.2499  0.1775  0.2474
    47. (0.00013) RY*( 4) C   6           s( 20.42%)p 3.15( 64.42%)d 0.74( 15.16%)
                                           -0.0000 -0.0121  0.4517 -0.0000  0.0000
                                            0.0081 -0.5455  0.0144 -0.5885  0.0000
                                            0.0000  0.1078  0.2556  0.2731
    48. (0.00001) RY*( 5) C   6           s(  6.61%)p 0.92(  6.11%)d13.20( 87.28%)
    49. (0.00001) RY*( 6) C   6           s(  0.00%)p 1.00( 14.22%)d 6.03( 85.78%)
    50. (0.00000) RY*( 7) C   6           s(  7.75%)p 0.69(  5.34%)d11.21( 86.91%)
    51. (0.00000) RY*( 8) C   6           s(  0.00%)p 1.00(  9.32%)d 9.73( 90.68%)
    52. (0.00000) RY*( 9) C   6           s(  7.83%)p 0.43(  3.33%)d11.35( 88.85%)
    53. (0.00288) RY*( 1) H   7           s( 99.94%)p 0.00(  0.06%)
                                            0.0047  0.9997  0.0211  0.0000  0.0119
    54. (0.00011) RY*( 2) H   7           s(  0.00%)p 1.00(100.00%)
                                           -0.0027  0.0056 -0.6791  0.0000  0.7340
    55. (0.00006) RY*( 3) H   7           s(  0.00%)p 1.00(100.00%)
    56. (0.00002) RY*( 4) H   7           s(  0.23%)p99.99( 99.77%)
    57. (0.00288) RY*( 1) H   8           s( 99.94%)p 0.00(  0.06%)
                                            0.0047  0.9997 -0.0211  0.0000  0.0119
    58. (0.00011) RY*( 2) H   8           s(  0.00%)p 1.00(100.00%)
                                           -0.0027  0.0056  0.6791  0.0000  0.7340
    59. (0.00006) RY*( 3) H   8           s(  0.00%)p 1.00(100.00%)
    60. (0.00002) RY*( 4) H   8           s(  0.23%)p99.99( 99.77%)
    61. (0.00189) RY*( 1) H   9           s( 99.64%)p 0.00(  0.36%)
                                            0.0042  0.9982  0.0383 -0.0013 -0.0459
    62. (0.00013) RY*( 2) H   9           s(  0.02%)p99.99( 99.98%)
                                           -0.0004  0.0146  0.5368 -0.3342  0.7746
    63. (0.00007) RY*( 3) H   9           s(  0.01%)p 1.00( 99.99%)
    64. (0.00002) RY*( 4) H   9           s(  0.50%)p99.99( 99.50%)
    65. (0.00189) RY*( 1) H  10           s( 99.64%)p 0.00(  0.36%)
                                            0.0042  0.9982 -0.0383 -0.0013 -0.0459
    66. (0.00013) RY*( 2) H  10           s(  0.02%)p99.99( 99.98%)
                                           -0.0004  0.0146 -0.5368 -0.3342  0.7746
    67. (0.00007) RY*( 3) H  10           s(  0.01%)p 1.00( 99.99%)
    68. (0.00002) RY*( 4) H  10           s(  0.50%)p99.99( 99.50%)
    69. (0.00131) RY*( 1) H  11           s( 99.45%)p 0.01(  0.55%)
                                            0.0037  0.9973  0.0000 -0.0611  0.0418
    70. (0.00013) RY*( 2) H  11           s(  0.00%)p 1.00(100.00%)
                                            0.0000  0.0000  1.0000  0.0000  0.0000
    71. (0.00007) RY*( 3) H  11           s(  0.01%)p99.99( 99.99%)
    72. (0.00002) RY*( 4) H  11           s(  0.70%)p99.99( 99.30%)
    73. (0.00453) BD*( 1) C   1 - H   2  
                ( 40.10%)   0.6332* C   1 s( 23.50%)p 3.25( 76.43%)d 0.00(  0.07%)
                                           -0.0000 -0.4848  0.0011  0.0000 -0.0000
                                           -0.7138 -0.0026 -0.5046  0.0158  0.0000
                                           -0.0000 -0.0226  0.0141 -0.0008
                ( 59.90%)  -0.7740* H   2 s( 99.83%)p 0.00(  0.17%)
                                           -0.9992  0.0007 -0.0000  0.0339  0.0226
    74. (0.00767) BD*( 1) C   1 - H   3  
                ( 40.35%)   0.6352* C   1 s( 23.29%)p 3.29( 76.64%)d 0.00(  0.07%)
                                           -0.0000 -0.4825  0.0044 -0.7067  0.0055
                                           -0.0365 -0.0174  0.5150  0.0034 -0.0006
                                            0.0221 -0.0003 -0.0157 -0.0003
                ( 59.65%)  -0.7724* H   3 s( 99.83%)p 0.00(  0.17%)
                                           -0.9992  0.0019  0.0324  0.0031 -0.0244
    75. (0.00767) BD*( 1) C   1 - H   4  
                ( 40.35%)   0.6352* C   1 s( 23.29%)p 3.29( 76.64%)d 0.00(  0.07%)
                                            0.0000  0.4825 -0.0044 -0.7067  0.0055
                                            0.0365  0.0174 -0.5150 -0.0034 -0.0006
                                            0.0221  0.0003  0.0157  0.0003
                ( 59.65%)  -0.7724* H   4 s( 99.83%)p 0.00(  0.17%)
                                            0.9992 -0.0019  0.0324 -0.0031  0.0244
    76. (0.00755) BD*( 1) C   1 - C   5  
                ( 50.05%)   0.7075* C   1 s( 29.91%)p 2.34( 69.97%)d 0.00(  0.12%)
                                            0.0003  0.5468  0.0115  0.0000  0.0000
                                           -0.6972  0.0008  0.4620  0.0141 -0.0000
                                            0.0000 -0.0270 -0.0210 -0.0022
                ( 49.95%)  -0.7067* C   5 s( 27.88%)p 2.58( 71.99%)d 0.00(  0.13%)
                                            0.0002  0.5279  0.0120 -0.0000  0.0000
                                            0.7063  0.0165 -0.4697  0.0098  0.0000
                                           -0.0000 -0.0286 -0.0212  0.0006
    77. (0.00755) BD*( 1) C   5 - C   6  
                ( 49.95%)   0.7067* C   5 s( 27.88%)p 2.58( 71.99%)d 0.00(  0.13%)
                                           -0.0002 -0.5279 -0.0120  0.0000 -0.0000
                                            0.7063  0.0165  0.4697 -0.0098 -0.0000
                                            0.0000 -0.0286  0.0212 -0.0006
                ( 50.05%)  -0.7075* C   6 s( 29.91%)p 2.34( 69.97%)d 0.00(  0.12%)
                                           -0.0003 -0.5468 -0.0115 -0.0000 -0.0000
                                           -0.6972  0.0008 -0.4620 -0.0141  0.0000
                                            0.0000 -0.0270  0.0210  0.0022
    78. (0.01454) BD*( 1) C   5 - H   7  
                ( 40.32%)   0.6350* C   5 s( 22.13%)p 3.52( 77.79%)d 0.00(  0.08%)
                                            0.0000 -0.4703  0.0110 -0.7065  0.0169
                                           -0.0000 -0.0000 -0.5276 -0.0057 -0.0000
                                           -0.0228  0.0000 -0.0167  0.0001
                ( 59.68%)  -0.7725* H   7 s( 99.83%)p 0.00(  0.17%)
                                           -0.9991  0.0037  0.0322 -0.0000  0.0261
    79. (0.01454) BD*( 1) C   5 - H   8  
                ( 40.32%)   0.6350* C   5 s( 22.13%)p 3.52( 77.79%)d 0.00(  0.08%)
                                           -0.0000  0.4703 -0.0110 -0.7065  0.0169
                                            0.0000  0.0000  0.5276  0.0057 -0.0000
                                           -0.0228 -0.0000  0.0167 -0.0001
                ( 59.68%)  -0.7725* H   8 s( 99.83%)p 0.00(  0.17%)
                                            0.9991 -0.0037  0.0322 -0.0000 -0.0261
    80. (0.00767) BD*( 1) C   6 - H   9  
                ( 40.35%)   0.6352* C   6 s( 23.29%)p 3.29( 76.64%)d 0.00(  0.07%)
                                           -0.0000 -0.4825  0.0044 -0.7067  0.0055
                                            0.0365  0.0174  0.5150  0.0034  0.0006
                                            0.0221  0.0003 -0.0157 -0.0003
                ( 59.65%)  -0.7724* H   9 s( 99.83%)p 0.00(  0.17%)
                                           -0.9992  0.0019  0.0324 -0.0031 -0.0244
    81. (0.00767) BD*( 1) C   6 - H  10  
                ( 40.35%)   0.6352* C   6 s( 23.29%)p 3.29( 76.64%)d 0.00(  0.07%)
                                            0.0000  0.4825 -0.0044 -0.7067  0.0055
                                           -0.0365 -0.0174 -0.5150 -0.0034  0.0006
                                            0.0221 -0.0003  0.0157  0.0003
                ( 59.65%)  -0.7724* H  10 s( 99.83%)p 0.00(  0.17%)
                                            0.9992 -0.0019  0.0324  0.0031  0.0244
    82. (0.00453) BD*( 1) C   6 - H  11  
                ( 40.10%)   0.6332* C   6 s( 23.50%)p 3.25( 76.43%)d 0.00(  0.07%)
                                            0.0000  0.4848 -0.0011 -0.0000  0.0000
                                           -0.7138 -0.0026  0.5046 -0.0158  0.0000
                                            0.0000 -0.0226 -0.0141  0.0008
                ( 59.90%)  -0.7740* H  11 s( 99.83%)p 0.00(  0.17%)
                                            0.9992 -0.0007 -0.0000  0.0339 -0.0226


 NHO Directionality and "Bond Bending" (deviations from line of nuclear centers)

         [Thresholds for printing:  angular deviation  >  1.0 degree]
                                    hybrid p-character > 25.0%
                                    orbital occupancy  >  0.10e

                                Line of Centers        Hybrid 1              Hybrid 2
                                ---------------  -------------------   ------------------
                NBO               Theta   Phi    Theta   Phi    Dev    Theta   Phi    Dev
 ========================================================================================
     2. BD (   1) C   1 - H   3   126.1    3.1   126.4    4.4   1.1      --     --    --
     3. BD (   1) C   1 - H   4   126.1  176.9   126.4  175.6   1.1      --     --    --
     8. BD (   1) C   6 - H   9   126.1  356.9   126.4  355.6   1.1      --     --    --
     9. BD (   1) C   6 - H  10   126.1  183.1   126.4  184.4   1.1      --     --    --


 Second Order Perturbation Theory Analysis of Fock Matrix in NBO Basis

     Threshold for printing:   0.50 kcal/mol
                                                                              E(2)  E(j)-E(i) F(i,j)
         Donor NBO (i)                     Acceptor NBO (j)                 kcal/mol   a.u.    a.u. 
 ===================================================================================================

 within unit  1
   1. BD (   1) C   1 - H   2        / 36. RY*(   2) C   5                    0.65    2.02    0.032
   1. BD (   1) C   1 - H   2        / 77. BD*(   1) C   5 - C   6            4.84    1.33    0.072
   2. BD (   1) C   1 - H   3        / 35. RY*(   1) C   5                    0.66    1.79    0.031
   2. BD (   1) C   1 - H   3        / 79. BD*(   1) C   5 - H   8            4.46    1.40    0.071
   3. BD (   1) C   1 - H   4        / 35. RY*(   1) C   5                    0.66    1.79    0.031
   3. BD (   1) C   1 - H   4        / 78. BD*(   1) C   5 - H   7            4.46    1.40    0.071
   4. BD (   1) C   1 - C   5        / 44. RY*(   1) C   6                    2.22    1.75    0.056
   4. BD (   1) C   1 - C   5        / 77. BD*(   1) C   5 - C   6            0.80    1.46    0.030
   4. BD (   1) C   1 - C   5        / 82. BD*(   1) C   6 - H  11            2.65    1.53    0.057
   5. BD (   1) C   5 - C   6        / 14. RY*(   1) C   1                    2.22    1.75    0.056
   5. BD (   1) C   5 - C   6        / 73. BD*(   1) C   1 - H   2            2.65    1.53    0.057
   5. BD (   1) C   5 - C   6        / 76. BD*(   1) C   1 - C   5            0.80    1.46    0.030
   6. BD (   1) C   5 - H   7        / 15. RY*(   2) C   1                    0.74    1.73    0.032
   6. BD (   1) C   5 - H   7        / 45. RY*(   2) C   6                    0.74    1.73    0.032
   6. BD (   1) C   5 - H   7        / 75. BD*(   1) C   1 - H   4            4.76    1.38    0.073
   6. BD (   1) C   5 - H   7        / 81. BD*(   1) C   6 - H  10            4.76    1.38    0.073
   7. BD (   1) C   5 - H   8        / 15. RY*(   2) C   1                    0.74    1.73    0.032
   7. BD (   1) C   5 - H   8        / 45. RY*(   2) C   6                    0.74    1.73    0.032
   7. BD (   1) C   5 - H   8        / 74. BD*(   1) C   1 - H   3            4.76    1.38    0.073
   7. BD (   1) C   5 - H   8        / 80. BD*(   1) C   6 - H   9            4.76    1.38    0.073
   8. BD (   1) C   6 - H   9        / 35. RY*(   1) C   5                    0.66    1.79    0.031
   8. BD (   1) C   6 - H   9        / 79. BD*(   1) C   5 - H   8            4.46    1.40    0.071
   9. BD (   1) C   6 - H  10        / 35. RY*(   1) C   5                    0.66    1.79    0.031
   9. BD (   1) C   6 - H  10        / 78. BD*(   1) C   5 - H   7            4.46    1.40    0.071
  10. BD (   1) C   6 - H  11        / 36. RY*(   2) C   5                    0.65    2.02    0.032
  10. BD (   1) C   6 - H  11        / 76. BD*(   1) C   1 - C   5            4.84    1.33    0.072
  11. CR (   1) C   1                / 37. RY*(   3) C   5                    0.79   11.96    0.087
  11. CR (   1) C   1                / 39. RY*(   5) C   5                    0.55   12.31    0.073
  12. CR (   1) C   5                / 16. RY*(   3) C   1                    0.76   12.34    0.086
  12. CR (   1) C   5                / 46. RY*(   3) C   6                    0.76   12.34    0.086
  13. CR (   1) C   6                / 37. RY*(   3) C   5                    0.79   11.96    0.087
  13. CR (   1) C   6                / 39. RY*(   5) C   5                    0.55   12.31    0.073


 Natural Bond Orbitals (Summary):

                                                            Principal Delocalizations
           NBO                        Occupancy    Energy   (geminal,vicinal,remote)
 ====================================================================================
 Molecular unit  1  (C3H8)
     1. BD (   1) C   1 - H   2          1.98990    -0.65694  77(v),36(v)
     2. BD (   1) C   1 - H   3          1.99033    -0.65665  79(v),35(v)
     3. BD (   1) C   1 - H   4          1.99033    -0.65665  78(v),35(v)
     4. BD (   1) C   1 - C   5          1.99005    -0.78787  82(v),44(v),77(g)
     5. BD (   1) C   5 - C   6          1.99005    -0.78787  73(v),14(v),76(g)
     6. BD (   1) C   5 - H   7          1.98030    -0.64547  75(v),81(v),15(v),45(v)
     7. BD (   1) C   5 - H   8          1.98030    -0.64547  74(v),80(v),15(v),45(v)
     8. BD (   1) C   6 - H   9          1.99033    -0.65665  79(v),35(v)
     9. BD (   1) C   6 - H  10          1.99033    -0.65665  78(v),35(v)
    10. BD (   1) C   6 - H  11          1.98990    -0.65694  76(v),36(v)
    11. CR (   1) C   1                  1.99948   -11.08331  37(v),39(v)
    12. CR (   1) C   5                  1.99939   -11.08453  16(v),46(v)
    13. CR (   1) C   6                  1.99948   -11.08331  37(v),39(v)
    14. RY*(   1) C   1                  0.00374     0.96384   
    15. RY*(   2) C   1                  0.00177     1.08055   
    16. RY*(   3) C   1                  0.00030     1.26026   
    17. RY*(   4) C   1                  0.00013     1.05555   
    18. RY*(   5) C   1                  0.00001     2.01715   
    19. RY*(   6) C   1                  0.00001     2.03652   
    20. RY*(   7) C   1                  0.00000     2.05889   
    21. RY*(   8) C   1                  0.00000     1.85691   
    22. RY*(   9) C   1                  0.00000     1.86111   
    23. RY*(   1) H   2                  0.00131     0.53382   
    24. RY*(   2) H   2                  0.00013     1.95604   
    25. RY*(   3) H   2                  0.00007     1.92018   
    26. RY*(   4) H   2                  0.00002     2.45513   
    27. RY*(   1) H   3                  0.00189     0.53299   
    28. RY*(   2) H   3                  0.00013     1.95602   
    29. RY*(   3) H   3                  0.00007     1.93400   
    30. RY*(   4) H   3                  0.00002     2.46078   
    31. RY*(   1) H   4                  0.00189     0.53299   
    32. RY*(   2) H   4                  0.00013     1.95602   
    33. RY*(   3) H   4                  0.00007     1.93400   
    34. RY*(   4) H   4                  0.00002     2.46078   
    35. RY*(   1) C   5                  0.00329     1.13129   
    36. RY*(   2) C   5                  0.00137     1.36172   
    37. RY*(   3) C   5                  0.00106     0.88036   
    38. RY*(   4) C   5                  0.00030     1.94024   
    39. RY*(   5) C   5                  0.00016     1.23113   
    40. RY*(   6) C   5                  0.00014     1.95074   
    41. RY*(   7) C   5                  0.00004     1.78061   
    42. RY*(   8) C   5                  0.00000     2.07884   
    43. RY*(   9) C   5                  0.00000     2.01128   
    44. RY*(   1) C   6                  0.00374     0.96384   
    45. RY*(   2) C   6                  0.00177     1.08055   
    46. RY*(   3) C   6                  0.00030     1.26026   
    47. RY*(   4) C   6                  0.00013     1.05555   
    48. RY*(   5) C   6                  0.00001     2.01715   
    49. RY*(   6) C   6                  0.00001     2.03652   
    50. RY*(   7) C   6                  0.00000     2.05889   
    51. RY*(   8) C   6                  0.00000     1.85691   
    52. RY*(   9) C   6                  0.00000     1.86111   
    53. RY*(   1) H   7                  0.00288     0.51432   
    54. RY*(   2) H   7                  0.00011     1.97273   
    55. RY*(   3) H   7                  0.00006     1.94719   
    56. RY*(   4) H   7                  0.00002     2.48923   
    57. RY*(   1) H   8                  0.00288     0.51432   
    58. RY*(   2) H   8                  0.00011     1.97273   
    59. RY*(   3) H   8                  0.00006     1.94719   
    60. RY*(   4) H   8                  0.00002     2.48923   
    61. RY*(   1) H   9                  0.00189     0.53299   
    62. RY*(   2) H   9                  0.00013     1.95602   
    63. RY*(   3) H   9                  0.00007     1.93400   
    64. RY*(   4) H   9                  0.00002     2.46078   
    65. RY*(   1) H  10                  0.00189     0.53299   
    66. RY*(   2) H  10                  0.00013     1.95602   
    67. RY*(   3) H  10                  0.00007     1.93400   
    68. RY*(   4) H  10                  0.00002     2.46078   
    69. RY*(   1) H  11                  0.00131     0.53382   
    70. RY*(   2) H  11                  0.00013     1.95604   
    71. RY*(   3) H  11                  0.00007     1.92018   
    72. RY*(   4) H  11                  0.00002     2.45513   
    73. BD*(   1) C   1 - H   2          0.00453     0.74518   
    74. BD*(   1) C   1 - H   3          0.00767     0.73535   
    75. BD*(   1) C   1 - H   4          0.00767     0.73535   
    76. BD*(   1) C   1 - C   5          0.00755     0.67654   
    77. BD*(   1) C   5 - C   6          0.00755     0.67654   
    78. BD*(   1) C   5 - H   7          0.01454     0.74825   
    79. BD*(   1) C   5 - H   8          0.01454     0.74825   
    80. BD*(   1) C   6 - H   9          0.00767     0.73535   
    81. BD*(   1) C   6 - H  10          0.00767     0.73535   
    82. BD*(   1) C   6 - H  11          0.00453     0.74518   
       -------------------------------
              Total Lewis   25.88019  ( 99.5392%)
        Valence non-Lewis    0.08392  (  0.3228%)
        Rydberg non-Lewis    0.03589  (  0.1380%)
       -------------------------------
            Total unit  1   26.00000  (100.0000%)
           Charge unit  1    0.00000
 Calling FoFJK, ICntrl=    100127 FMM=F ISym2X=1 I1Cent= 0 IOpClX= 0 NMat=1 NMatS=1 NMatT=0.
 Full mass-weighted force constant matrix:
 Low frequencies ---  -18.3050   -0.0043   -0.0012    0.0041    4.2017    6.4126
 Low frequencies ---  237.0945  298.3145  391.2714
 Diagonal vibrational polarizability:
        0.5787778       0.3673127       0.4547061
 Diagonal vibrational hyperpolarizability:
       -0.0000005      -0.0000007      -1.6927566
 Harmonic frequencies (cm**-1), IR intensities (KM/Mole), Raman scattering
 activities (A**4/AMU), depolarization ratios for plane and unpolarized
 incident light, reduced masses (AMU), force constants (mDyne/A),
 and normal coordinates:
                      1                      2                      3
                     A2                     B1                     A1
 Frequencies --    237.0942               298.3144               391.2714
 Red. masses --      1.0273                 1.1397                 2.0583
 Frc consts  --      0.0340                 0.0598                 0.1857
 IR Inten    --      0.0000                 0.0064                 0.0476
 Raman Activ --      0.0172                 0.0006                 0.4301
 Depolar (P) --      0.7500                 0.7500                 0.1805
 Depolar (U) --      0.8571                 0.8571                 0.3058
  Atom  AN      X      Y      Z        X      Y      Z        X      Y      Z
     1   6    -0.03  -0.00   0.00     0.04   0.00   0.00    -0.00   0.17   0.06
     2   1     0.36  -0.00   0.00     0.46   0.00   0.00    -0.00  -0.03   0.34
     3   1    -0.24  -0.17  -0.31    -0.10  -0.26  -0.21     0.01   0.39   0.08
     4   1    -0.24   0.17   0.31    -0.10   0.26   0.21    -0.01   0.39   0.08
     5   6    -0.00   0.00   0.00    -0.09  -0.00  -0.00     0.00  -0.00  -0.17
     6   6     0.03  -0.00  -0.00     0.04  -0.00   0.00    -0.00  -0.17   0.06
     7   1    -0.00   0.00  -0.00    -0.16  -0.00   0.09    -0.01   0.00  -0.15
     8   1    -0.00  -0.00  -0.00    -0.16   0.00  -0.09     0.01  -0.00  -0.15
     9   1     0.24  -0.17   0.31    -0.10   0.26  -0.21     0.01  -0.39   0.08
    10   1     0.24   0.17  -0.31    -0.10  -0.26   0.21    -0.01  -0.39   0.08
    11   1    -0.36   0.00  -0.00     0.46   0.00   0.00    -0.00   0.03   0.34
                      4                      5                      6
                     B1                     A1                     A2
 Frequencies --    801.8464               928.2003               969.3206
 Red. masses --      1.0780                 2.5182                 1.0986
 Frc consts  --      0.4084                 1.2783                 0.6082
 IR Inten    --      2.1936                 0.5706                 0.0000
 Raman Activ --      0.1010                14.4208                 0.0166
 Depolar (P) --      0.7500                 0.1993                 0.7500
 Depolar (U) --      0.8571                 0.3324                 0.8571
  Atom  AN      X      Y      Z        X      Y      Z        X      Y      Z
     1   6     0.02   0.00   0.00     0.00   0.21  -0.06    -0.06   0.00  -0.00
     2   1    -0.11   0.00  -0.00    -0.00   0.45  -0.40     0.19   0.00  -0.00
     3   1    -0.13   0.21  -0.19    -0.02   0.01  -0.12     0.13  -0.31   0.23
     4   1    -0.13  -0.21   0.19     0.02   0.01  -0.12     0.13   0.31  -0.23
     5   6     0.08  -0.00   0.00    -0.00  -0.00   0.20    -0.00  -0.00   0.00
     6   6     0.02   0.00  -0.00    -0.00  -0.21  -0.06     0.06  -0.00   0.00
     7   1    -0.27   0.00   0.46     0.00  -0.00   0.20    -0.00   0.36   0.00
     8   1    -0.27  -0.00  -0.46    -0.00   0.00   0.20     0.00  -0.36   0.00
     9   1    -0.13  -0.21  -0.19    -0.02  -0.01  -0.12    -0.13  -0.31  -0.23
    10   1    -0.13   0.21   0.19     0.02  -0.01  -0.12    -0.13   0.31   0.23
    11   1    -0.11   0.00   0.00     0.00  -0.45  -0.40    -0.19  -0.00  -0.00
                      7                      8                      9
                     B2                     B2                     A1
 Frequencies --    997.8090              1129.4912              1265.9596
 Red. masses --      1.1897                 2.2568                 1.7519
 Frc consts  --      0.6979                 1.6963                 1.6543
 IR Inten    --      0.8624                 0.5203                 1.1001
 Raman Activ --      0.3707                 8.5179                 2.8514
 Depolar (P) --      0.7500                 0.7500                 0.2486
 Depolar (U) --      0.8571                 0.8571                 0.3981
  Atom  AN      X      Y      Z        X      Y      Z        X      Y      Z
     1   6     0.00  -0.02  -0.08     0.00  -0.13   0.10    -0.00  -0.04  -0.13
     2   1    -0.00  -0.33   0.35     0.00  -0.17   0.15     0.00  -0.31   0.27
     3   1     0.03   0.33  -0.01     0.02  -0.16   0.13     0.06   0.36  -0.01
     4   1    -0.03   0.33  -0.01    -0.02  -0.16   0.13    -0.06   0.36  -0.01
     5   6    -0.00  -0.04  -0.00    -0.00   0.25   0.00     0.00  -0.00   0.18
     6   6    -0.00  -0.02   0.08     0.00  -0.13  -0.10    -0.00   0.04  -0.13
     7   1    -0.00   0.21  -0.00    -0.00   0.55   0.00     0.01   0.00   0.17
     8   1    -0.00   0.21  -0.00    -0.00   0.55   0.00    -0.01  -0.00   0.17
     9   1    -0.03   0.33   0.01    -0.02  -0.16  -0.13     0.06  -0.36  -0.01
    10   1     0.03   0.33   0.01     0.02  -0.16  -0.13    -0.06  -0.36  -0.01
    11   1     0.00  -0.33  -0.35    -0.00  -0.17  -0.15    -0.00   0.31   0.27
                     10                     11                     12
                     B1                     A2                     B2
 Frequencies --   1306.7862              1412.5972              1469.8923
 Red. masses --      1.6615                 1.1260                 1.3207
 Frc consts  --      1.6717                 1.3238                 1.6812
 IR Inten    --      0.0922                 0.0000                 3.5154
 Raman Activ --      0.0802                 7.0825                 0.3333
 Depolar (P) --      0.7500                 0.7500                 0.7500
 Depolar (U) --      0.8571                 0.8571                 0.8571
  Atom  AN      X      Y      Z        X      Y      Z        X      Y      Z
     1   6    -0.12  -0.00   0.00     0.07  -0.00  -0.00     0.00  -0.01   0.06
     2   1     0.23   0.00  -0.00    -0.10  -0.00   0.00     0.00   0.22  -0.26
     3   1     0.09  -0.25   0.26    -0.04   0.13  -0.14    -0.14   0.13  -0.14
     4   1     0.09   0.25  -0.26    -0.04  -0.13   0.14     0.14   0.13  -0.14
     5   6     0.18   0.00  -0.00     0.00   0.00   0.00     0.00  -0.14   0.00
     6   6    -0.12  -0.00   0.00    -0.07   0.00   0.00    -0.00  -0.01  -0.06
     7   1    -0.10  -0.00   0.37     0.00   0.64  -0.00     0.00   0.51  -0.00
     8   1    -0.10  -0.00  -0.37    -0.00  -0.64  -0.00    -0.00   0.51  -0.00
     9   1     0.09   0.25   0.26     0.04   0.13   0.14     0.14   0.13   0.14
    10   1     0.09  -0.25  -0.26     0.04  -0.13  -0.14    -0.14   0.13   0.14
    11   1     0.23  -0.00  -0.00     0.10  -0.00  -0.00     0.00   0.22   0.26
                     13                     14                     15
                     B2                     A1                     A2
 Frequencies --   1525.5599              1527.0440              1584.7898
 Red. masses --      1.4125                 1.2435                 1.0386
 Frc consts  --      1.9369                 1.7084                 1.5368
 IR Inten    --      4.5991                 1.3688                 0.0000
 Raman Activ --      0.2553                 0.7495                27.1731
 Depolar (P) --      0.7500                 0.2851                 0.7500
 Depolar (U) --      0.8571                 0.4437                 0.8571
  Atom  AN      X      Y      Z        X      Y      Z        X      Y      Z
     1   6    -0.00  -0.10   0.03     0.00   0.08  -0.06    -0.04  -0.00  -0.00
     2   1     0.00   0.14  -0.30     0.00  -0.21   0.35     0.50   0.00  -0.00
     3   1    -0.05   0.37  -0.01     0.16  -0.34   0.14     0.04   0.33   0.11
     4   1     0.05   0.37  -0.01    -0.16  -0.34   0.14     0.04  -0.33  -0.11
     5   6    -0.00   0.12   0.00     0.00  -0.00   0.01     0.00  -0.00   0.00
     6   6     0.00  -0.10  -0.03    -0.00  -0.08  -0.06     0.04   0.00  -0.00
     7   1    -0.00  -0.31   0.00    -0.04   0.00   0.07     0.00   0.05  -0.00
     8   1     0.00  -0.31   0.00     0.04   0.00   0.07    -0.00  -0.05  -0.00
     9   1     0.05   0.37   0.01     0.16   0.34   0.14    -0.04   0.33  -0.11
    10   1    -0.05   0.37   0.01    -0.16   0.34   0.14    -0.04  -0.33   0.11
    11   1    -0.00   0.14   0.30     0.00   0.21   0.35    -0.50  -0.00  -0.00
                     16                     17                     18
                     A1                     B2                     B1
 Frequencies --   1588.3441              1593.7063              1602.3539
 Red. masses --      1.0403                 1.0640                 1.0408
 Frc consts  --      1.5464                 1.5922                 1.5745
 IR Inten    --      0.4276                 0.8768                10.9648
 Raman Activ --     32.6939                 0.2425                 0.0631
 Depolar (P) --      0.7473                 0.7500                 0.7500
 Depolar (U) --      0.8554                 0.8571                 0.8571
  Atom  AN      X      Y      Z        X      Y      Z        X      Y      Z
     1   6    -0.00   0.01   0.02    -0.00  -0.00  -0.04    -0.03  -0.00   0.00
     2   1     0.00  -0.10   0.15     0.00   0.13  -0.21     0.50  -0.00   0.00
     3   1    -0.20  -0.04  -0.26     0.28   0.05   0.36     0.03   0.34   0.10
     4   1     0.20  -0.04  -0.26    -0.28   0.05   0.36     0.03  -0.34  -0.10
     5   6     0.00  -0.00  -0.04    -0.00  -0.05   0.00    -0.03   0.00  -0.00
     6   6     0.00  -0.01   0.02     0.00  -0.00   0.04    -0.03  -0.00  -0.00
     7   1    -0.31   0.00   0.39     0.00   0.13  -0.00     0.00  -0.00  -0.04
     8   1     0.31  -0.00   0.39    -0.00   0.13  -0.00     0.00  -0.00   0.04
     9   1    -0.20   0.04  -0.26    -0.28   0.05  -0.36     0.03  -0.34   0.10
    10   1     0.20   0.04  -0.26     0.28   0.05  -0.36     0.03   0.34  -0.10
    11   1    -0.00   0.10   0.15    -0.00   0.13   0.21     0.50  -0.00  -0.00
                     19                     20                     21
                     A1                     A1                     B2
 Frequencies --   1609.9540              3163.5089              3164.2326
 Red. masses --      1.0944                 1.0479                 1.0369
 Frc consts  --      1.6713                 6.1790                 6.1165
 IR Inten    --      3.1636                61.9553                47.0641
 Raman Activ --      1.2425                32.7887                 2.8025
 Depolar (P) --      0.7168                 0.2847                 0.7500
 Depolar (U) --      0.8351                 0.4432                 0.8571
  Atom  AN      X      Y      Z        X      Y      Z        X      Y      Z
     1   6    -0.00  -0.02  -0.02     0.00   0.02  -0.01    -0.00  -0.03   0.02
     2   1     0.00   0.11  -0.20     0.00  -0.26  -0.19    -0.00   0.29   0.22
     3   1     0.18   0.08   0.25    -0.21  -0.00   0.15     0.35   0.01  -0.25
     4   1    -0.18   0.08   0.25     0.21  -0.00   0.15    -0.35   0.01  -0.25
     5   6     0.00  -0.00  -0.08     0.00  -0.00  -0.05     0.00   0.00  -0.00
     6   6     0.00   0.02  -0.02    -0.00  -0.02  -0.01    -0.00  -0.03  -0.02
     7   1    -0.32   0.00   0.37     0.42  -0.00   0.29     0.00  -0.00   0.00
     8   1     0.32  -0.00   0.37    -0.42   0.00   0.29    -0.00  -0.00   0.00
     9   1     0.18  -0.08   0.25    -0.21   0.00   0.15    -0.35   0.01   0.25
    10   1    -0.18  -0.08   0.25     0.21   0.00   0.15     0.35   0.01   0.25
    11   1    -0.00  -0.11  -0.20    -0.00   0.26  -0.19    -0.00   0.29  -0.22
                     22                     23                     24
                     A1                     B1                     A2
 Frequencies --   3174.3873              3193.5885              3230.3344
 Red. masses --      1.0514                 1.1026                 1.1034
 Frc consts  --      6.2423                 6.6258                 6.7836
 IR Inten    --      0.2498                 6.8153                 0.0000
 Raman Activ --    346.1846               184.5991                 8.8974
 Depolar (P) --      0.0373                 0.7500                 0.7500
 Depolar (U) --      0.0718                 0.8571                 0.8571
  Atom  AN      X      Y      Z        X      Y      Z        X      Y      Z
     1   6     0.00  -0.02   0.02     0.03   0.00   0.00    -0.07   0.00   0.00
     2   1     0.00   0.17   0.12     0.01  -0.00  -0.00    -0.01  -0.00  -0.00
     3   1     0.28   0.01  -0.20    -0.17  -0.01   0.12     0.40   0.02  -0.30
     4   1    -0.28   0.01  -0.20    -0.17   0.01  -0.12     0.40  -0.02   0.30
     5   6     0.00   0.00  -0.05    -0.08  -0.00  -0.00     0.00   0.00  -0.00
     6   6    -0.00   0.02   0.02     0.03   0.00  -0.00     0.07  -0.00   0.00
     7   1     0.38  -0.00   0.27     0.51   0.00   0.39     0.00  -0.00   0.00
     8   1    -0.38   0.00   0.27     0.51   0.00  -0.39    -0.00   0.00   0.00
     9   1     0.28  -0.01  -0.20    -0.17   0.01   0.12    -0.40   0.02   0.30
    10   1    -0.28  -0.01  -0.20    -0.17  -0.01  -0.12    -0.40  -0.02  -0.30
    11   1    -0.00  -0.17   0.12     0.01  -0.00   0.00     0.01   0.00  -0.00
                     25                     26                     27
                     B2                     A1                     B1
 Frequencies --   3239.3294              3243.0453              3244.0354
 Red. masses --      1.1031                 1.1017                 1.1039
 Frc consts  --      6.8196                 6.8268                 6.8445
 IR Inten    --     39.0979                74.0913               137.1344
 Raman Activ --     70.0361                98.4848                40.7535
 Depolar (P) --      0.7500                 0.5946                 0.7500
 Depolar (U) --      0.8571                 0.7458                 0.8571
  Atom  AN      X      Y      Z        X      Y      Z        X      Y      Z
     1   6     0.00  -0.04  -0.05    -0.00  -0.04  -0.05    -0.06  -0.00  -0.00
     2   1     0.00   0.49   0.35    -0.00   0.48   0.34    -0.01   0.00   0.00
     3   1    -0.21  -0.01   0.14    -0.21  -0.02   0.14     0.36   0.02  -0.27
     4   1     0.21  -0.01   0.14     0.21  -0.02   0.14     0.36  -0.02   0.27
     5   6     0.00  -0.00  -0.00    -0.00  -0.00  -0.01    -0.04  -0.00   0.00
     6   6     0.00  -0.04   0.05     0.00   0.04  -0.05    -0.06  -0.00   0.00
     7   1    -0.00  -0.00  -0.00     0.09   0.00   0.07     0.23   0.00   0.18
     8   1    -0.00  -0.00   0.00    -0.09  -0.00   0.07     0.23   0.00  -0.18
     9   1     0.21  -0.01  -0.14    -0.21   0.02   0.14     0.36  -0.02  -0.27
    10   1    -0.21  -0.01  -0.14     0.21   0.02   0.14     0.36   0.02   0.27
    11   1     0.00   0.49  -0.35     0.00  -0.48   0.34    -0.01   0.00  -0.00

 -------------------
 - Thermochemistry -
 -------------------
 Temperature   298.150 Kelvin.  Pressure   1.00000 Atm.
 Atom     1 has atomic number  6 and mass  12.00000
 Atom     2 has atomic number  1 and mass   1.00783
 Atom     3 has atomic number  1 and mass   1.00783
 Atom     4 has atomic number  1 and mass   1.00783
 Atom     5 has atomic number  6 and mass  12.00000
 Atom     6 has atomic number  6 and mass  12.00000
 Atom     7 has atomic number  1 and mass   1.00783
 Atom     8 has atomic number  1 and mass   1.00783
 Atom     9 has atomic number  1 and mass   1.00783
 Atom    10 has atomic number  1 and mass   1.00783
 Atom    11 has atomic number  1 and mass   1.00783
 Molecular mass:    44.06260 amu.
 Principal axes and moments of inertia in atomic units:
                           1         2         3
     Eigenvalues --    60.75446 214.75967 242.07223
           X            0.00000   0.00000   1.00000
           Y            1.00000   0.00000  -0.00000
           Z           -0.00000   1.00000  -0.00000
 This molecule is an asymmetric top.
 Rotational symmetry number  2.
 Rotational temperatures (Kelvin)      1.42564     0.40331     0.35780
 Rotational constants (GHZ):          29.70549     8.40354     7.45538
 Zero-point vibrational energy     286462.5 (Joules/Mol)
                                   68.46619 (Kcal/Mol)
 Warning -- explicit consideration of   3 degrees of freedom as
           vibrations may cause significant error
 Vibrational temperatures:    341.13   429.21   562.95  1153.68  1335.47
          (Kelvin)           1394.64  1435.62  1625.09  1821.43  1880.17
                             2032.41  2114.85  2194.94  2197.08  2280.16
                             2285.27  2292.99  2305.43  2316.36  4551.58
                             4552.62  4567.24  4594.86  4647.73  4660.67
                             4666.02  4667.44
 
 Zero-point correction=                           0.109108 (Hartree/Particle)
 Thermal correction to Energy=                    0.113474
 Thermal correction to Enthalpy=                  0.114418
 Thermal correction to Gibbs Free Energy=         0.084223
 Sum of electronic and zero-point Energies=           -118.163409
 Sum of electronic and thermal Energies=              -118.159042
 Sum of electronic and thermal Enthalpies=            -118.158098
 Sum of electronic and thermal Free Energies=         -118.188293
 
                     E (Thermal)             CV                S
                      KCal/Mol        Cal/Mol-Kelvin    Cal/Mol-Kelvin
 Total                   71.206             13.968             63.551
 Electronic               0.000              0.000              0.000
 Translational            0.889              2.981             37.275
 Rotational               0.889              2.981             21.295
 Vibrational             69.429              8.006              4.981
 Vibration     1          0.656              1.784              1.825
 Vibration     2          0.691              1.677              1.426
 Vibration     3          0.759              1.489              0.995
                       Q            Log10(Q)             Ln(Q)
 Total Bot       0.181990D-38        -38.739953        -89.202038
 Total V=0       0.279329D+12         11.446116         26.355655
 Vib (Bot)       0.157375D-49        -49.803065       -114.675796
 Vib (Bot)    1  0.828105D+00         -0.081915         -0.188615
 Vib (Bot)    2  0.638107D+00         -0.195106         -0.449249
 Vib (Bot)    3  0.458422D+00         -0.338735         -0.779966
 Vib (V=0)       0.241548D+01          0.383003          0.881897
 Vib (V=0)    1  0.146735D+01          0.166532          0.383455
 Vib (V=0)    2  0.131067D+01          0.117492          0.270536
 Vib (V=0)    3  0.117834D+01          0.071272          0.164110
 Electronic      0.100000D+01          0.000000          0.000000
 Translational   0.114963D+08          7.060559         16.257538
 Rotational      0.100590D+05          4.002554          9.216220
 ***** Axes restored to original set *****
 -------------------------------------------------------------------
 Center     Atomic                   Forces (Hartrees/Bohr)
 Number     Number              X              Y              Z
 -------------------------------------------------------------------
      1        6          -0.000027780    0.000118127   -0.000080981
      2        1           0.000028386   -0.000097514   -0.000024400
      3        1           0.000020327    0.000008587   -0.000010411
      4        1          -0.000020561   -0.000002704   -0.000012854
      5        6           0.000036872   -0.000177369    0.000202597
      6        6          -0.000010540    0.000066209   -0.000129572
      7        1           0.000042528    0.000027444   -0.000014234
      8        1          -0.000048701    0.000002252   -0.000019686
      9        1           0.000017683    0.000016549   -0.000002959
     10        1          -0.000023205    0.000005258   -0.000005402
     11        1          -0.000015009    0.000033163    0.000097903
 -------------------------------------------------------------------
 Cartesian Forces:  Max     0.000202597 RMS     0.000066552
 FormGI is forming the generalized inverse of G from B-inverse, IUseBI=4.

 GradGradGradGradGradGradGradGradGradGradGradGradGradGradGradGradGradGrad
 Berny optimization.
 Internal  Forces:  Max     0.000135728 RMS     0.000043096
 Search for a local minimum.
 Step number   1 out of a maximum of    2
 All quantities printed in internal units (Hartrees-Bohrs-Radians)
 Second derivative matrix not updated -- analytic derivatives used.
 ITU=  0
     Eigenvalues ---    0.00261   0.00322   0.03996   0.04463   0.05123
     Eigenvalues ---    0.05167   0.05249   0.05294   0.08250   0.11474
     Eigenvalues ---    0.13815   0.14207   0.14381   0.16117   0.16971
     Eigenvalues ---    0.18586   0.24432   0.32682   0.33693   0.35607
     Eigenvalues ---    0.36235   0.36355   0.36433   0.36624   0.36712
     Eigenvalues ---    0.37301   0.37493
 Angle between quadratic step and forces=  38.79 degrees.
 Linear search not attempted -- first point.
 Iteration  1 RMS(Cart)=  0.00030818 RMS(Int)=  0.00000008
 Iteration  2 RMS(Cart)=  0.00000013 RMS(Int)=  0.00000004
 ClnCor:  largest displacement from symmetrization is 1.23D-08 for atom    10.
 Variable       Old X    -DE/DX   Delta X   Delta X   Delta X     New X
                                 (Linear)    (Quad)   (Total)
    R1        2.06486  -0.00005   0.00000  -0.00011  -0.00011   2.06475
    R2        2.06690   0.00002   0.00000   0.00003   0.00003   2.06693
    R3        2.06690   0.00002   0.00000   0.00003   0.00003   2.06693
    R4        2.88431   0.00001   0.00000   0.00017   0.00017   2.88448
    R5        2.88431   0.00001   0.00000   0.00017   0.00017   2.88448
    R6        2.06876   0.00002   0.00000   0.00003   0.00003   2.06879
    R7        2.06876   0.00002   0.00000   0.00003   0.00003   2.06879
    R8        2.06690   0.00002   0.00000   0.00003   0.00003   2.06693
    R9        2.06690   0.00002   0.00000   0.00003   0.00003   2.06693
   R10        2.06486  -0.00005   0.00000  -0.00011  -0.00011   2.06475
    A1        1.87998   0.00005   0.00000   0.00026   0.00026   1.88024
    A2        1.87998   0.00005   0.00000   0.00026   0.00026   1.88024
    A3        1.94369  -0.00014   0.00000  -0.00080  -0.00080   1.94289
    A4        1.87769   0.00000   0.00000   0.00024   0.00024   1.87793
    A5        1.93979   0.00002   0.00000   0.00004   0.00004   1.93982
    A6        1.93979   0.00002   0.00000   0.00004   0.00004   1.93982
    A7        1.97516  -0.00013   0.00000  -0.00057  -0.00057   1.97459
    A8        1.90825   0.00003   0.00000  -0.00001  -0.00001   1.90825
    A9        1.90825   0.00003   0.00000  -0.00001  -0.00001   1.90825
   A10        1.90825   0.00003   0.00000  -0.00001  -0.00001   1.90825
   A11        1.90825   0.00003   0.00000  -0.00001  -0.00001   1.90825
   A12        1.85158   0.00001   0.00000   0.00067   0.00067   1.85226
   A13        1.93979   0.00002   0.00000   0.00004   0.00004   1.93982
   A14        1.93979   0.00002   0.00000   0.00004   0.00004   1.93982
   A15        1.94369  -0.00014   0.00000  -0.00080  -0.00080   1.94289
   A16        1.87769   0.00000   0.00000   0.00024   0.00024   1.87793
   A17        1.87998   0.00005   0.00000   0.00026   0.00026   1.88024
   A18        1.87998   0.00005   0.00000   0.00026   0.00026   1.88024
    D1        3.14159  -0.00000   0.00000   0.00000   0.00000   3.14159
    D2       -1.01005  -0.00002   0.00000  -0.00040  -0.00040  -1.01045
    D3        1.01005   0.00002   0.00000   0.00040   0.00040   1.01045
    D4       -1.04536  -0.00001   0.00000  -0.00018  -0.00018  -1.04554
    D5        1.08618  -0.00003   0.00000  -0.00058  -0.00058   1.08560
    D6        3.10629   0.00001   0.00000   0.00022   0.00022   3.10651
    D7        1.04536   0.00001   0.00000   0.00018   0.00018   1.04554
    D8       -3.10629  -0.00001   0.00000  -0.00022  -0.00022  -3.10651
    D9       -1.08618   0.00003   0.00000   0.00058   0.00058  -1.08560
   D10        1.04536   0.00001   0.00000   0.00018   0.00018   1.04554
   D11       -1.04536  -0.00001   0.00000  -0.00018  -0.00018  -1.04554
   D12        3.14159  -0.00000   0.00000   0.00000   0.00000  -3.14159
   D13       -1.08618   0.00003   0.00000   0.00058   0.00058  -1.08560
   D14        3.10629   0.00001   0.00000   0.00022   0.00022   3.10651
   D15        1.01005   0.00002   0.00000   0.00040   0.00040   1.01045
   D16       -3.10629  -0.00001   0.00000  -0.00022  -0.00022  -3.10651
   D17        1.08618  -0.00003   0.00000  -0.00058  -0.00058   1.08560
   D18       -1.01005  -0.00002   0.00000  -0.00040  -0.00040  -1.01045
         Item               Value     Threshold  Converged?
 Maximum Force            0.000136     0.000450     YES
 RMS     Force            0.000043     0.000300     YES
 Maximum Displacement     0.001025     0.001800     YES
 RMS     Displacement     0.000308     0.001200     YES
 Predicted change in Energy=-2.500927D-07
 Optimization completed.
    -- Stationary point found.
                           ----------------------------
                           !   Optimized Parameters   !
                           ! (Angstroms and Degrees)  !
 --------------------------                            --------------------------
 ! Name  Definition              Value          Derivative Info.                !
 --------------------------------------------------------------------------------
 ! R1    R(1,2)                  1.0927         -DE/DX =    0.0                 !
 ! R2    R(1,3)                  1.0938         -DE/DX =    0.0                 !
 ! R3    R(1,4)                  1.0938         -DE/DX =    0.0                 !
 ! R4    R(1,5)                  1.5263         -DE/DX =    0.0                 !
 ! R5    R(5,6)                  1.5263         -DE/DX =    0.0                 !
 ! R6    R(5,7)                  1.0947         -DE/DX =    0.0                 !
 ! R7    R(5,8)                  1.0947         -DE/DX =    0.0                 !
 ! R8    R(6,9)                  1.0938         -DE/DX =    0.0                 !
 ! R9    R(6,10)                 1.0938         -DE/DX =    0.0                 !
 ! R10   R(6,11)                 1.0927         -DE/DX =    0.0                 !
 ! A1    A(2,1,3)              107.715          -DE/DX =    0.0001              !
 ! A2    A(2,1,4)              107.715          -DE/DX =    0.0001              !
 ! A3    A(2,1,5)              111.3652         -DE/DX =   -0.0001              !
 ! A4    A(3,1,4)              107.5837         -DE/DX =    0.0                 !
 ! A5    A(3,1,5)              111.1415         -DE/DX =    0.0                 !
 ! A6    A(4,1,5)              111.1415         -DE/DX =    0.0                 !
 ! A7    A(1,5,6)              113.1684         -DE/DX =   -0.0001              !
 ! A8    A(1,5,7)              109.3349         -DE/DX =    0.0                 !
 ! A9    A(1,5,8)              109.3349         -DE/DX =    0.0                 !
 ! A10   A(6,5,7)              109.3349         -DE/DX =    0.0                 !
 ! A11   A(6,5,8)              109.3349         -DE/DX =    0.0                 !
 ! A12   A(7,5,8)              106.0879         -DE/DX =    0.0                 !
 ! A13   A(5,6,9)              111.1415         -DE/DX =    0.0                 !
 ! A14   A(5,6,10)             111.1415         -DE/DX =    0.0                 !
 ! A15   A(5,6,11)             111.3652         -DE/DX =   -0.0001              !
 ! A16   A(9,6,10)             107.5837         -DE/DX =    0.0                 !
 ! A17   A(9,6,11)             107.715          -DE/DX =    0.0001              !
 ! A18   A(10,6,11)            107.715          -DE/DX =    0.0001              !
 ! D1    D(2,1,5,6)            180.0            -DE/DX =    0.0                 !
 ! D2    D(2,1,5,7)            -57.8718         -DE/DX =    0.0                 !
 ! D3    D(2,1,5,8)             57.8718         -DE/DX =    0.0                 !
 ! D4    D(3,1,5,6)            -59.8946         -DE/DX =    0.0                 !
 ! D5    D(3,1,5,7)             62.2336         -DE/DX =    0.0                 !
 ! D6    D(3,1,5,8)            177.9771         -DE/DX =    0.0                 !
 ! D7    D(4,1,5,6)             59.8946         -DE/DX =    0.0                 !
 ! D8    D(4,1,5,7)           -177.9771         -DE/DX =    0.0                 !
 ! D9    D(4,1,5,8)            -62.2336         -DE/DX =    0.0                 !
 ! D10   D(1,5,6,9)             59.8946         -DE/DX =    0.0                 !
 ! D11   D(1,5,6,10)           -59.8946         -DE/DX =    0.0                 !
 ! D12   D(1,5,6,11)          -180.0            -DE/DX =    0.0                 !
 ! D13   D(7,5,6,9)            -62.2336         -DE/DX =    0.0                 !
 ! D14   D(7,5,6,10)           177.9771         -DE/DX =    0.0                 !
 ! D15   D(7,5,6,11)            57.8718         -DE/DX =    0.0                 !
 ! D16   D(8,5,6,9)           -177.9771         -DE/DX =    0.0                 !
 ! D17   D(8,5,6,10)            62.2336         -DE/DX =    0.0                 !
 ! D18   D(8,5,6,11)           -57.8718         -DE/DX =    0.0                 !
 --------------------------------------------------------------------------------
 GradGradGradGradGradGradGradGradGradGradGradGradGradGradGradGradGradGrad


 ----------------------------------------------------------------------

 Electric dipole moment (input orientation):
 (Debye = 10**-18 statcoulomb cm , SI units = C m)
                  (au)            (Debye)         (10**-30 SI)
   Tot        0.267293D-01      0.679392D-01      0.226621D+00
   x          0.362632D-02      0.921718D-02      0.307452D-01
   y         -0.174441D-01     -0.443384D-01     -0.147897D+00
   z          0.199252D-01      0.506447D-01      0.168932D+00

 Dipole polarizability, Alpha (input orientation).
 (esu units = cm**3 , SI units = C**2 m**2 J**-1)
 Alpha(0;0):
               (au)            (10**-24 esu)      (10**-40 SI)
   iso        0.344904D+02      0.511095D+01      0.568669D+01
   aniso      0.433672D+01      0.642636D+00      0.715029D+00
   xx         0.328165D+02      0.486290D+01      0.541070D+01
   yx        -0.896460D+00     -0.132842D+00     -0.147806D+00
   yy         0.354054D+02      0.524653D+01      0.583755D+01
   zx        -0.636923D+00     -0.943822D-01     -0.105014D+00
   zy         0.171818D+01      0.254608D+00      0.283290D+00
   zz         0.352493D+02      0.522341D+01      0.581183D+01

 First dipole hyperpolarizability, Beta (input orientation).
 ||, _|_  parallel and perpendicular components, (z) with respect to z axis,
 vector components x,y,z.  Values do not include the 1/n! factor of 1/2.
 (esu units = statvolt**-1 cm**4 , SI units = C**3 m**3 J**-2)
 Beta(0;0,0):
               (au)            (10**-30 esu)      (10**-50 SI)
   || (z)    -0.532957D+00     -0.460433D-02     -0.170885D-02
   _|_(z)    -0.177652D+00     -0.153478D-02     -0.569617D-03
   x         -0.484982D+00     -0.418987D-02     -0.155503D-02
   y          0.233296D+01      0.201550D-01      0.748032D-02
   z         -0.266478D+01     -0.230216D-01     -0.854426D-02
   ||         0.714954D+00      0.617665D-02      0.229240D-02
   xxx       -0.981440D+01     -0.847888D-01     -0.314685D-01
   xxy        0.126426D+02      0.109222D+00      0.405367D-01
   yxy        0.164011D+02      0.141693D+00      0.525879D-01
   yyy       -0.218679D+02     -0.188922D+00     -0.701165D-01
   xxz       -0.194858D+02     -0.168342D+00     -0.624784D-01
   yxz       -0.327976D+01     -0.283345D-01     -0.105161D-01
   yyz       -0.696131D+01     -0.601403D-01     -0.223205D-01
   zxz       -0.674837D+01     -0.583007D-01     -0.216377D-01
   zyz        0.100030D+02      0.864183D-01      0.320733D-01
   zzz        0.255588D+02      0.220808D+00      0.819508D-01

 ----------------------------------------------------------------------

 Dipole orientation:
     6         -1.43941898         -1.02748660         -1.18199085
     1         -1.92396794          0.58831742          0.00881904
     1          0.13225969         -0.46249234         -2.39965073
     1         -3.06264627         -1.42058398         -2.39965073
     6         -0.74787489         -3.33354820          0.40643004
     6         -0.05633079         -5.63960980         -1.18199085
     1          0.83560010         -2.85869411          1.65017499
     1         -2.33134988         -3.80840229          1.65017499
     1          1.56689649         -5.24651242         -2.39965073
     1         -1.62800946         -6.20460406         -2.39965073
     1          0.42821816         -7.25541382          0.00881904

 Electric dipole moment (dipole orientation):
 (Debye = 10**-18 statcoulomb cm , SI units = C m)
                  (au)            (Debye)         (10**-30 SI)
   Tot        0.267293D-01      0.679392D-01      0.226621D+00
   x          0.000000D+00      0.000000D+00      0.000000D+00
   y          0.000000D+00      0.000000D+00      0.000000D+00
   z          0.267293D-01      0.679392D-01      0.226621D+00

 Dipole polarizability, Alpha (dipole orientation).
 (esu units = cm**3 , SI units = C**2 m**2 J**-1)
 Alpha(0;0):
               (au)            (10**-24 esu)      (10**-40 SI)
   iso        0.344904D+02      0.511095D+01      0.568669D+01
   aniso      0.433672D+01      0.642636D+00      0.715029D+00
   xx         0.329253D+02      0.487902D+01      0.542864D+01
   yx        -0.131524D+01     -0.194898D+00     -0.216854D+00
   yy         0.369167D+02      0.547049D+01      0.608674D+01
   zx         0.000000D+00      0.000000D+00      0.000000D+00
   zy         0.000000D+00      0.000000D+00      0.000000D+00
   zz         0.336292D+02      0.498333D+01      0.554470D+01

 First dipole hyperpolarizability, Beta (dipole orientation).
 ||, _|_  parallel and perpendicular components, (z) with respect to z axis,
 vector components x,y,z.  Values do not include the 1/n! factor of 1/2.
 (esu units = statvolt**-1 cm**4 , SI units = C**3 m**3 J**-2)
 Beta(0;0,0):
               (au)            (10**-30 esu)      (10**-50 SI)
   || (z)    -0.714954D+00     -0.617665D-02     -0.229240D-02
   _|_(z)    -0.238318D+00     -0.205888D-02     -0.764134D-03
   x          0.000000D+00      0.000000D+00      0.000000D+00
   y          0.000000D+00      0.000000D+00      0.000000D+00
   z         -0.357477D+01     -0.308832D-01     -0.114620D-01
   ||         0.714954D+00      0.617665D-02      0.229240D-02
   xxx        0.000000D+00      0.000000D+00      0.000000D+00
   xxy        0.000000D+00      0.000000D+00      0.000000D+00
   yxy        0.000000D+00      0.000000D+00      0.000000D+00
   yyy        0.000000D+00      0.000000D+00      0.000000D+00
   xxz       -0.231804D+02     -0.200260D+00     -0.743246D-01
   yxz       -0.147238D+02     -0.127202D+00     -0.472097D-01
   yyz        0.215029D+02      0.185769D+00      0.689462D-01
   zxz        0.000000D+00      0.000000D+00      0.000000D+00
   zyz        0.000000D+00      0.000000D+00      0.000000D+00
   zzz        0.485827D+00      0.419717D-02      0.155774D-02

 ----------------------------------------------------------------------
 Unable to Open any file for archive entry.
 1\1\GINC-LOCALHOST\Freq\RHF\CC-pVDZ\C3H8\USER\21-Mar-2026\0\\#N Geom=A
 llCheck Guess=TCheck SCRF=Check GenChk RHF/CC-pVDZ Freq\\Propane-HF-cc
 -pvdz\\0,1\C,-0.8661144489,-0.041483973,-0.7177646973\H,-0.9909584019,
 0.1806659795,0.3447811956\H,-0.1154408437,0.6472511357,-1.115809358\H,
 -1.8140021506,0.1782044095,-1.2173168796\C,-0.4518892553,-1.4940254016
 ,-0.9372270978\C,-0.2657374154,-1.8494418762,-2.4098606164\H,0.4792515
 833,-1.6910825134,-0.3962964527\H,-1.2044470218,-2.1560250005,-0.49691
 57661\H,0.507312639,-1.2280905545,-2.8709708113\H,-1.1912486679,-1.697
 1372807,-2.9724783329\H,0.0300889317,-2.8940862071,-2.5329271947\\Vers
 ion=ES64L-G16RevC.02\State=1-A1\HF=-118.2725164\RMSD=1.345e-09\RMSF=6.
 655e-05\ZeroPoint=0.1091078\Thermal=0.1134743\ETot=-118.1590421\HTot=-
 118.1580979\GTot=-118.1882932\Dipole=0.0036263,-0.0174441,0.0199252\Di
 poleDeriv=0.1584003,0.0279923,0.0081087,0.0270139,0.0728736,-0.0188729
 ,0.0126298,-0.0352452,0.1181379,0.0550768,0.0240541,0.0306368,0.022206
 8,-0.0046825,-0.056305,0.0391725,-0.0872155,-0.188932,-0.0696531,-0.11
 24137,0.0642057,-0.0686254,-0.0830322,0.0346527,0.0676298,0.0698972,0.
 0213689,-0.1325881,0.069895,-0.0879224,0.0301929,-0.0006017,-0.0004124
 ,-0.1102274,0.0327166,0.0018734,0.1944139,0.0053715,-0.0004187,0.00537
 12,0.1749826,0.0066459,-0.0004187,0.0066454,0.1721694,0.1613512,0.0154
 731,0.0165784,0.0164515,0.1156205,-0.0396549,0.0120573,-0.0232826,0.07
 244,-0.1418027,0.0701966,-0.1161776,0.0515636,-0.0093854,0.0008031,-0.
 0962689,0.0074144,-0.0678361,-0.0727626,-0.1049594,0.095468,-0.0863265
 ,-0.1010957,0.049868,0.0755593,0.0432567,-0.045166,-0.068431,-0.091577
 4,0.0886819,-0.1110003,-0.0292536,0.0700025,0.0592242,0.0261129,-0.033
 6318,-0.1266557,0.0251642,-0.121706,0.0405011,0.0492599,0.0219199,-0.0
 733673,-0.002564,-0.0539206,0.0426508,0.0708038,0.0225452,0.072651,-0.
 1846854,-0.0686467,0.0140094,-0.0377362,0.003497\Polar=32.8164516,-0.8
 9646,35.4053565,-0.6369227,1.7181815,35.2493031\PolarDeriv=2.620571,-3
 .7587125,-3.5859419,3.6850213,0.3714246,1.2410829,-2.1662107,-3.158303
 6,2.7381215,0.3620244,2.1151453,-1.5016964,3.9200126,0.4923218,1.94831
 23,1.7383218,-3.2437095,-6.1855353,-0.885462,1.0477262,0.2543548,1.587
 4732,-0.3051592,-0.8130064,0.2693394,-0.0025721,1.0238672,-0.2748517,2
 .1985885,1.5520803,0.2259076,-0.4871628,1.4374856,-1.2493657,2.8249229
 ,9.3539478,3.3767393,2.8869315,2.9287419,-1.4610625,-0.4462042,0.60182
 18,1.4847066,2.7798825,4.5077735,-0.4564614,-1.2971726,0.5624027,-1.11
 98286,-0.5966089,-1.5403965,1.2479874,1.859404,-0.7328447,-6.7495848,2
 .3389224,-0.9847475,-2.181131,0.286662,-1.1287088,1.0949825,-1.5801933
 ,0.9191369,0.2646286,-1.1319964,0.185885,-2.026225,0.6368411,-1.051993
 4,-2.3267374,1.008587,-1.2573011,-2.5527279,3.7953609,3.6933547,-5.450
 2202,-0.7351691,-1.5768431,2.6287015,3.4215331,-3.0107419,-0.7608144,-
 2.6562167,2.4804191,-4.1492776,-0.6085542,-1.7717371,-1.7027609,3.2270
 495,3.5241801,1.5961418,-2.1052106,-3.3325316,5.1669637,0.7932617,1.57
 13122,-2.5185535,-3.5554612,5.5483504,0.7672768,2.4443203,-2.632207,3.
 5414259,0.8470675,0.6459683,1.4800976,-2.6489073,-3.2622929,6.2889727,
 -1.9412916,0.6718655,3.4294863,-0.3485396,2.3625747,-0.9320682,1.35345
 37,-0.5338788,-0.3282941,1.4472646,-0.638272,2.1681439,-0.5256683,0.72
 14674,2.8567525,-1.0984013,2.6667534,-3.5695748,-2.7806297,-2.5969005,
 2.537289,0.9742188,-1.3172539,-1.5463943,-2.7358408,-3.7277344,1.02074
 66,1.9877825,-1.4712737,1.3184954,0.8216748,1.3178107,-1.6486766,-2.16
 0959,1.9156492,4.2666599,1.9878503,1.4406266,-2.8272976,-0.7012153,1.5
 629912,1.6495308,2.3567157,2.0472467,-1.0778125,-1.5888927,1.7650539,-
 1.532593,-0.6966739,-0.4838814,1.9608828,1.6666512,-2.3995992,-5.53852
 84,0.5469446,-0.2667274,-3.3654059,-0.2395957,-2.6948107,0.6224265,-1.
 1272709,-0.2567852,0.0957271,-1.3084811,0.7413115,-1.9242922,-0.080706
 ,-0.2129799,-2.8110672,0.4241259,-3.2212513,1.1467933,-2.0178907,1.777
 9054,-1.1211168,0.350316,0.1908403,-0.5864607,2.2480573,-9.2553552,0.3
 878305,-2.2103418,-1.043702,-0.4217692,0.1974686,-1.0100547,0.4545661,
 -1.8587629,-0.4017089\HyperPolar=-9.8144022,12.642581,16.4011115,-21.8
 679469,-19.4857714,-3.2797559,-6.9613119,-6.74837,10.0030197,25.558822
 5\Quadrupole=0.2819969,-0.1384994,-0.1434975,0.1352697,0.0638549,-0.13
 0246\PG=C02V [C2(C1),SGV(C2H2),SGV'(H2),X(H4)]\NImag=0\\0.62208098,0.0
 2232618,0.54963182,0.00218130,-0.00972760,0.63682537,-0.05940167,0.006
 07773,0.03022128,0.05682981,0.00587341,-0.06616450,-0.05093149,-0.0081
 8548,0.06938846,0.03116541,-0.05435044,-0.32627611,-0.03418146,0.05905
 573,0.35161199,-0.19189455,-0.12206380,0.07141064,-0.00203559,-0.00089
 098,0.00082146,0.20355112,-0.11945328,-0.16286079,0.06261580,0.0060662
 6,0.00487041,-0.00198910,0.13217749,0.17771206,0.07147878,0.06424573,-
 0.09407017,0.02506933,0.02239916,-0.01116948,-0.07985321,-0.07006731,0
 .09478245,-0.26770448,0.04643511,-0.11141451,0.00551213,-0.00154488,0.
 00213063,-0.02049923,0.00502784,-0.01181829,0.28767873,0.04402018,-0.0
 6540786,0.02315019,-0.00649781,0.00064480,-0.00250297,-0.01905628,0.00
 468352,-0.01192658,-0.05220505,0.06946479,-0.11238645,0.02479324,-0.11
 571317,-0.03137881,0.00664774,-0.01449159,0.01260739,-0.00374230,0.007
 18666,0.12446196,-0.02605418,0.11890211,-0.10348793,0.03640186,0.00411
 848,-0.00194975,0.00287260,-0.00063341,0.00820566,-0.02738149,-0.00396
 377,-0.00801627,0.03318011,0.00521288,0.65070223,0.03621366,-0.2212388
 0,-0.01428555,0.00049317,-0.00353533,0.00256485,0.00820184,-0.02084106
 ,-0.00361101,-0.00020128,-0.00520083,-0.00131142,0.02593695,0.57214763
 ,0.00498812,-0.01743477,-0.09609495,0.01036148,-0.03725102,-0.00244697
 ,-0.00425659,0.01407518,0.00156361,-0.00466901,0.01784823,0.00214531,0
 .01448303,-0.03393145,0.57317122,-0.00070033,0.00301473,0.01157291,-0.
 00019042,0.00217766,0.00044699,0.00033377,-0.00095241,-0.00103233,0.00
 007790,-0.00014569,0.00096418,-0.09513047,0.00371680,0.01530163,0.6278
 7524,0.00515980,-0.00906783,-0.04063355,0.00236758,-0.00773897,-0.0018
 3499,-0.00028069,0.00168297,-0.00029892,-0.00065452,0.00182203,0.00023
 428,0.00352858,-0.10017342,-0.02677446,-0.00033450,0.63356690,0.001660
 95,-0.00473931,-0.00507009,-0.00043062,0.00134307,0.00143726,-0.000381
 97,0.00131223,0.00071334,-0.00043890,0.00134893,0.00083016,0.01617127,
 -0.02992366,-0.22551782,0.00993462,-0.01838619,0.54709604,-0.00794341,
 0.00032641,-0.00449307,-0.00004575,0.00018712,0.00074594,0.00115083,0.
 00048577,0.00001054,0.00117957,0.00243427,0.00082096,-0.25914985,0.040
 27631,-0.11489423,0.00533173,-0.00085167,0.00434966,0.27810457,0.03323
 967,-0.00611008,0.01817744,-0.00051979,0.00155287,-0.00045360,-0.00080
 173,0.00148561,0.00058707,0.00241968,-0.00769778,-0.00119110,0.0381705
 5,-0.06571902,0.02326530,-0.00803152,0.00133687,-0.00480185,-0.0463683
 6,0.07010132,0.00563294,-0.00178150,0.00287698,0.00031078,0.00060762,0
 .00066714,-0.00030342,0.00048800,-0.00017037,0.00048269,-0.00146969,0.
 00088794,-0.11264428,0.02401245,-0.12224439,-0.03327178,0.00602655,-0.
 01784510,0.12543027,-0.02273010,0.13301636,0.00833388,0.00834304,-0.00
 463994,0.00034457,-0.00100047,-0.00047306,0.00094163,0.00291950,0.0000
 0483,0.00111775,-0.00077083,-0.00019150,-0.19146790,-0.11527325,0.0753
 2057,-0.00252752,-0.00221969,0.00037950,-0.02172320,-0.01860536,0.0122
 9962,0.20258494,-0.02687117,-0.02173680,0.01427599,-0.00016747,0.00129
 245,-0.00077560,0.00291351,-0.00740928,-0.00138303,0.00050679,0.001502
 48,0.00061002,-0.11316746,-0.15562512,0.06563086,0.00726113,0.00578137
 ,-0.00485459,0.00406114,0.00423581,-0.00347023,0.12484447,0.17041873,-
 0.00413362,-0.00426801,0.00222642,-0.00062053,0.00027304,0.00053723,0.
 00043826,-0.00144903,0.00083736,0.00016814,0.00054366,-0.00015414,0.07
 307062,0.06488372,-0.10002021,0.02736861,0.02281994,-0.01443036,-0.011
 91891,-0.01151260,0.00771127,-0.08430125,-0.06916801,0.10821859,-0.000
 13216,-0.00042073,-0.00027690,0.00022112,0.00029699,-0.00017019,0.0001
 8472,0.00066006,0.00018041,-0.00006242,-0.00004945,0.00003472,-0.00258
 562,-0.00236209,-0.00004288,-0.19783118,-0.11373846,0.08223608,0.00099
 598,0.00054839,0.00038354,0.00155849,0.00045157,0.00088956,0.20949419,
 0.00077565,0.00112612,0.00007998,-0.00004205,0.00022077,0.00016226,-0.
 00018299,0.00023746,-0.00009448,0.00001891,-0.00003123,-0.00001346,0.0
 0709501,0.00500859,-0.00419414,-0.11462075,-0.14864850,0.06678193,0.00
 006960,0.00007750,0.00090660,0.00083867,0.00067692,-0.00217878,0.12687
 649,0.15574474,-0.00018712,0.00150497,0.00173613,-0.00048716,0.0000277
 7,0.00025540,-0.00025661,-0.00115447,0.00022750,-0.00000731,-0.0001868
 6,-0.00000383,0.02757945,0.02276197,-0.01349479,0.08032138,0.06453879,
 -0.10234582,-0.00079451,0.00052059,0.00139262,0.00090297,-0.00238425,-
 0.00786569,-0.09107096,-0.07178635,0.11080670,0.00042053,-0.00019516,0
 .00004376,0.00028132,-0.00026019,0.00005733,-0.00007561,0.00004567,-0.
 00002945,0.00032908,-0.00045548,-0.00010881,0.00497852,-0.00045688,0.0
 0424048,-0.26055674,0.03356886,-0.12152317,0.00168550,0.00051111,0.001
 43864,0.00107194,-0.00004865,-0.00083301,-0.02056213,0.00460121,-0.012
 49132,0.27951267,-0.00122864,0.00059279,0.00003963,0.00007142,0.000093
 66,0.00023088,-0.00004014,-0.00002026,-0.00003449,0.00027802,0.0000457
 0,-0.00014918,-0.00771204,0.00086904,-0.00402104,0.03425556,-0.0620761
 5,0.02044724,0.00010341,0.00048064,-0.00207319,0.00042026,0.00000367,0
 .00059037,-0.01813767,0.00377237,-0.01195500,-0.03821022,0.05923021,-0
 .00079874,0.00134044,0.00171677,0.00040869,0.00024086,0.00032232,0.000
 09324,-0.00015319,-0.00000161,0.00083439,-0.00092225,0.00027490,-0.033
 55657,0.00586868,-0.01691932,-0.11870466,0.01941739,-0.12619261,0.0015
 2039,-0.00221229,-0.00779644,0.00039072,0.00081095,0.00139047,0.013112
 09,-0.00352589,0.00816071,0.13270512,-0.02101324,0.13730275,0.00042914
 ,-0.00024537,0.00127602,0.00043423,0.00047422,0.00009037,0.00013723,0.
 00040457,-0.00004684,0.00038725,-0.00045398,-0.00003652,-0.00209861,0.
 00345477,-0.00083259,-0.07668196,0.07345470,0.00804257,0.00041402,-0.0
 0056262,0.00024101,-0.00023458,0.00021615,-0.00012788,0.00871903,-0.02
 542975,-0.00350880,-0.00708508,0.03020005,0.00399532,0.07557933,-0.000
 05544,0.00123590,-0.00276083,0.00033644,-0.00062462,-0.00010702,0.0000
 2376,0.00045936,0.00018386,-0.00008061,0.00017439,0.00017634,0.0010753
 4,-0.00569168,0.00278731,0.07365902,-0.31648530,-0.02852781,-0.0007240
 1,0.00025625,-0.00051651,0.00050363,0.00085978,-0.00053431,0.00587491,
 -0.01818474,-0.00188716,0.00089971,-0.00299166,0.00014854,-0.08151274,
 0.34099232,0.00039842,0.00041724,-0.00815717,0.00072701,-0.00241247,-0
 .00044722,-0.00031919,0.00006418,0.00010070,0.00027021,0.00017150,0.00
 013564,0.01016230,-0.03702858,-0.00014171,0.00709845,-0.02510886,-0.05
 867501,-0.00077703,0.00035116,0.00150397,0.00030753,0.00070789,0.00154
 906,-0.00527548,0.01386233,0.00113105,-0.00349958,0.01793803,0.0017420
 7,-0.00909265,0.03103757,0.06125861\\0.00002778,-0.00011813,0.00008098
 ,-0.00002839,0.00009751,0.00002440,-0.00002033,-0.00000859,0.00001041,
 0.00002056,0.00000270,0.00001285,-0.00003687,0.00017737,-0.00020260,0.
 00001054,-0.00006621,0.00012957,-0.00004253,-0.00002744,0.00001423,0.0
 0004870,-0.00000225,0.00001969,-0.00001768,-0.00001655,0.00000296,0.00
 002321,-0.00000526,0.00000540,0.00001501,-0.00003316,-0.00009790\\\@
 The archive entry for this job was punched.


 Mondays are the potholes in the road of life.
                                -- Tom Wilson
 Job cpu time:       0 days  0 hours  0 minutes 36.6 seconds.
 Elapsed time:       0 days  0 hours  0 minutes  2.3 seconds.
 File lengths (MBytes):  RWF=     10 Int=      0 D2E=      0 Chk=      2 Scr=      1
 Normal termination of Gaussian 16 at Sat Mar 21 10:17:40 2026.
