%mem=10GB
%CPU=0-23
%chk=Propane-HF-ccpvdz.chk
# opt freq hf/cc-pvdz pop=nbo geom=connectivity

Propane-HF-cc-pvdz

0 1
 C                 -0.86400989   -0.04457101   -0.73871645
 H                 -0.98605377    0.17216964    0.30197024
 H                 -0.10708199    0.59075832   -1.14898075
 H                 -1.78855976    0.12642911   -1.24946735
 C                 -0.44710761   -1.51702704   -0.91095390
 C                 -0.27145567   -1.82897152   -2.40876464
 H                  0.47744226   -1.68802716   -0.40020299
 H                 -1.20403551   -2.15235637   -0.50068959
 H                  0.48547223   -1.19364219   -2.81902895
 H                 -1.19600554   -1.65797140   -2.91951555
 H                  0.01821020   -2.85204162   -2.52843612

 1 2 1.0 3 1.0 4 1.0 5 1.0
 2
 3
 4
 5 7 1.0 8 1.0 6 1.0
 6 9 1.0 10 1.0 11 1.0
 7
 8
 9
 10
 11

