 Entering Gaussian System, Link 0=g16
 Input=Propane-HF-STO-3G.gjf
 Output=Propane-HF-STO-3G.log
 Initial command:
 /home/user/gaussian16_I/g16/l1.exe "/home/user/gaussian16_I/temp/Gau-3568622.inp" -scrdir="/home/user/gaussian16_I/temp/"
 Entering Link 1 = /home/user/gaussian16_I/g16/l1.exe PID=   3568623.
  
 Copyright (c) 1988-2021, Gaussian, Inc.  All Rights Reserved.
  
 This is part of the Gaussian(R) 16 program.  It is based on
 the Gaussian(R) 09 system (copyright 2009, Gaussian, Inc.),
 the Gaussian(R) 03 system (copyright 2003, Gaussian, Inc.),
 the Gaussian(R) 98 system (copyright 1998, Gaussian, Inc.),
 the Gaussian(R) 94 system (copyright 1995, Gaussian, Inc.),
 the Gaussian 92(TM) system (copyright 1992, Gaussian, Inc.),
 the Gaussian 90(TM) system (copyright 1990, Gaussian, Inc.),
 the Gaussian 88(TM) system (copyright 1988, Gaussian, Inc.),
 the Gaussian 86(TM) system (copyright 1986, Carnegie Mellon
 University), and the Gaussian 82(TM) system (copyright 1983,
 Carnegie Mellon University). Gaussian is a federally registered
 trademark of Gaussian, Inc.
  
 This software contains proprietary and confidential information,
 including trade secrets, belonging to Gaussian, Inc.
  
 This software is provided under written license and may be
 used, copied, transmitted, or stored only in accord with that
 written license.
  
 The following legend is applicable only to US Government
 contracts under FAR:
  
                    RESTRICTED RIGHTS LEGEND
  
 Use, reproduction and disclosure by the US Government is
 subject to restrictions as set forth in subparagraphs (a)
 and (c) of the Commercial Computer Software - Restricted
 Rights clause in FAR 52.227-19.
  
 Gaussian, Inc.
 340 Quinnipiac St., Bldg. 40, Wallingford CT 06492
  
  
 ---------------------------------------------------------------
 Warning -- This program may not be used in any manner that
 competes with the business of Gaussian, Inc. or will provide
 assistance to any competitor of Gaussian, Inc.  The licensee
 of this program is prohibited from giving any competitor of
 Gaussian, Inc. access to this program.  By using this program,
 the user acknowledges that Gaussian, Inc. is engaged in the
 business of creating and licensing software in the field of
 computational chemistry and represents and warrants to the
 licensee that it is not a competitor of Gaussian, Inc. and that
 it will not use this program in any manner prohibited above.
 ---------------------------------------------------------------
  

 Cite this work as:
 Gaussian 16, Revision C.02,
 M. J. Frisch, G. W. Trucks, H. B. Schlegel, G. E. Scuseria, 
 M. A. Robb, J. R. Cheeseman, G. Scalmani, V. Barone, 
 G. A. Petersson, H. Nakatsuji, X. Li, M. Caricato, A. V. Marenich, 
 J. Bloino, B. G. Janesko, R. Gomperts, B. Mennucci, H. P. Hratchian, 
 J. V. Ortiz, A. F. Izmaylov, J. L. Sonnenberg, D. Williams-Young, 
 F. Ding, F. Lipparini, F. Egidi, J. Goings, B. Peng, A. Petrone, 
 T. Henderson, D. Ranasinghe, V. G. Zakrzewski, J. Gao, N. Rega, 
 G. Zheng, W. Liang, M. Hada, M. Ehara, K. Toyota, R. Fukuda, 
 J. Hasegawa, M. Ishida, T. Nakajima, Y. Honda, O. Kitao, H. Nakai, 
 T. Vreven, K. Throssell, J. A. Montgomery, Jr., J. E. Peralta, 
 F. Ogliaro, M. J. Bearpark, J. J. Heyd, E. N. Brothers, K. N. Kudin, 
 V. N. Staroverov, T. A. Keith, R. Kobayashi, J. Normand, 
 K. Raghavachari, A. P. Rendell, J. C. Burant, S. S. Iyengar, 
 J. Tomasi, M. Cossi, J. M. Millam, M. Klene, C. Adamo, R. Cammi, 
 J. W. Ochterski, R. L. Martin, K. Morokuma, O. Farkas, 
 J. B. Foresman, and D. J. Fox, Gaussian, Inc., Wallingford CT, 2019.
 
 ******************************************
 Gaussian 16:  ES64L-G16RevC.02  7-Dec-2021
                21-Mar-2026 
 ******************************************
 %mem=10GB
 %CPU=0-23
 SetSPE:  set environment variable "OMP_PROC_BIND" = "true"
 SetSPE:  set environment variable "OMP_PLACES" = "{0},{1},{2},{3},{4},{5},{6},{7},{8},{9},{10},{11},{12},{13},{14},{15},{16},{17},{18},{19},{20},{21},{22},{23}"
 Will use up to   24 processors via shared memory.
 %chk=Propane-HF-STO-3G.chk
 ----------------------------------------------
 # opt freq hf/sto-3g pop=nbo geom=connectivity
 ----------------------------------------------
 1/18=20,19=15,38=1,57=2/1,3;
 2/9=110,12=2,17=6,18=5,40=1/2;
 3/6=3,11=9,25=1,30=1,71=1/1,2,3;
 4//1;
 5/5=2,38=5/2;
 6/7=2,8=2,9=2,10=2,28=1,40=1/1,7;
 7//1,2,3,16;
 1/18=20,19=15/3(2);
 2/9=110/2;
 99//99;
 2/9=110/2;
 3/6=3,11=9,25=1,30=1,71=1/1,2,3;
 4/5=5,16=3,69=1/1;
 5/5=2,38=5/2;
 7//1,2,3,16;
 1/18=20,19=15/3(-5);
 2/9=110/2;
 6/7=2,8=2,9=2,10=2,19=2,28=1,40=1/1,7;
 99/9=1/99;
 -----------------
 Propane-HF-STO-3G
 -----------------
 Symbolic Z-matrix:
 Charge =  0 Multiplicity = 1
 C                    -0.86401  -0.04457  -0.73872 
 H                    -0.98605   0.17217   0.30197 
 H                    -0.10708   0.59076  -1.14898 
 H                    -1.78856   0.12643  -1.24947 
 C                    -0.44711  -1.51703  -0.91095 
 C                    -0.27146  -1.82897  -2.40876 
 H                     0.47744  -1.68803  -0.4002 
 H                    -1.20404  -2.15236  -0.50069 
 H                     0.48547  -1.19364  -2.81903 
 H                    -1.19601  -1.65797  -2.91952 
 H                     0.01821  -2.85204  -2.52844 
 

 GradGradGradGradGradGradGradGradGradGradGradGradGradGradGradGradGradGrad
 Berny optimization.
 Initialization pass.
                           ----------------------------
                           !    Initial Parameters    !
                           ! (Angstroms and Degrees)  !
 --------------------------                            --------------------------
 ! Name  Definition              Value          Derivative Info.                !
 --------------------------------------------------------------------------------
 ! R1    R(1,2)                  1.07           estimate D2E/DX2                !
 ! R2    R(1,3)                  1.07           estimate D2E/DX2                !
 ! R3    R(1,4)                  1.07           estimate D2E/DX2                !
 ! R4    R(1,5)                  1.54           estimate D2E/DX2                !
 ! R5    R(5,6)                  1.54           estimate D2E/DX2                !
 ! R6    R(5,7)                  1.07           estimate D2E/DX2                !
 ! R7    R(5,8)                  1.07           estimate D2E/DX2                !
 ! R8    R(6,9)                  1.07           estimate D2E/DX2                !
 ! R9    R(6,10)                 1.07           estimate D2E/DX2                !
 ! R10   R(6,11)                 1.07           estimate D2E/DX2                !
 ! A1    A(2,1,3)              109.4712         estimate D2E/DX2                !
 ! A2    A(2,1,4)              109.4712         estimate D2E/DX2                !
 ! A3    A(2,1,5)              109.4712         estimate D2E/DX2                !
 ! A4    A(3,1,4)              109.4712         estimate D2E/DX2                !
 ! A5    A(3,1,5)              109.4712         estimate D2E/DX2                !
 ! A6    A(4,1,5)              109.4712         estimate D2E/DX2                !
 ! A7    A(1,5,6)              109.4712         estimate D2E/DX2                !
 ! A8    A(1,5,7)              109.4712         estimate D2E/DX2                !
 ! A9    A(1,5,8)              109.4712         estimate D2E/DX2                !
 ! A10   A(6,5,7)              109.4712         estimate D2E/DX2                !
 ! A11   A(6,5,8)              109.4712         estimate D2E/DX2                !
 ! A12   A(7,5,8)              109.4712         estimate D2E/DX2                !
 ! A13   A(5,6,9)              109.4712         estimate D2E/DX2                !
 ! A14   A(5,6,10)             109.4712         estimate D2E/DX2                !
 ! A15   A(5,6,11)             109.4712         estimate D2E/DX2                !
 ! A16   A(9,6,10)             109.4712         estimate D2E/DX2                !
 ! A17   A(9,6,11)             109.4712         estimate D2E/DX2                !
 ! A18   A(10,6,11)            109.4712         estimate D2E/DX2                !
 ! D1    D(2,1,5,6)            180.0            estimate D2E/DX2                !
 ! D2    D(2,1,5,7)            -60.0            estimate D2E/DX2                !
 ! D3    D(2,1,5,8)             60.0            estimate D2E/DX2                !
 ! D4    D(3,1,5,6)            -60.0            estimate D2E/DX2                !
 ! D5    D(3,1,5,7)             60.0            estimate D2E/DX2                !
 ! D6    D(3,1,5,8)            180.0            estimate D2E/DX2                !
 ! D7    D(4,1,5,6)             60.0            estimate D2E/DX2                !
 ! D8    D(4,1,5,7)           -180.0            estimate D2E/DX2                !
 ! D9    D(4,1,5,8)            -60.0            estimate D2E/DX2                !
 ! D10   D(1,5,6,9)             60.0            estimate D2E/DX2                !
 ! D11   D(1,5,6,10)           -60.0            estimate D2E/DX2                !
 ! D12   D(1,5,6,11)           180.0            estimate D2E/DX2                !
 ! D13   D(7,5,6,9)            -60.0            estimate D2E/DX2                !
 ! D14   D(7,5,6,10)           180.0            estimate D2E/DX2                !
 ! D15   D(7,5,6,11)            60.0            estimate D2E/DX2                !
 ! D16   D(8,5,6,9)            180.0            estimate D2E/DX2                !
 ! D17   D(8,5,6,10)            60.0            estimate D2E/DX2                !
 ! D18   D(8,5,6,11)           -60.0            estimate D2E/DX2                !
 --------------------------------------------------------------------------------
 Trust Radius=3.00D-01 FncErr=1.00D-07 GrdErr=1.00D-07 EigMax=2.50D+02 EigMin=1.00D-04
 Number of steps in this run=     56 maximum allowed number of steps=    100.
 GradGradGradGradGradGradGradGradGradGradGradGradGradGradGradGradGradGrad

                          Input orientation:                          
 ---------------------------------------------------------------------
 Center     Atomic      Atomic             Coordinates (Angstroms)
 Number     Number       Type             X           Y           Z
 ---------------------------------------------------------------------
      1          6           0       -0.864010   -0.044571   -0.738716
      2          1           0       -0.986054    0.172170    0.301970
      3          1           0       -0.107082    0.590758   -1.148981
      4          1           0       -1.788560    0.126429   -1.249467
      5          6           0       -0.447108   -1.517027   -0.910954
      6          6           0       -0.271456   -1.828972   -2.408765
      7          1           0        0.477442   -1.688027   -0.400203
      8          1           0       -1.204036   -2.152356   -0.500690
      9          1           0        0.485472   -1.193642   -2.819029
     10          1           0       -1.196006   -1.657971   -2.919516
     11          1           0        0.018210   -2.852042   -2.528436
 ---------------------------------------------------------------------
                    Distance matrix (angstroms):
                    1          2          3          4          5
     1  C    0.000000
     2  H    1.070000   0.000000
     3  H    1.070000   1.747303   0.000000
     4  H    1.070000   1.747303   1.747303   0.000000
     5  C    1.540000   2.148263   2.148263   2.148263   0.000000
     6  C    2.514809   3.444314   2.732978   2.732978   1.540000
     7  H    2.148263   2.468846   2.468846   3.024610   1.070000
     8  H    2.148263   2.468846   3.024610   2.468846   1.070000
     9  H    2.732978   3.710993   2.514809   3.062243   2.148263
    10  H    2.732978   3.710993   3.062243   2.514809   2.148263
    11  H    3.444314   4.262112   3.710993   3.710993   2.148263
                    6          7          8          9         10
     6  C    0.000000
     7  H    2.148263   0.000000
     8  H    2.148263   1.747303   0.000000
     9  H    1.070000   2.468846   3.024610   0.000000
    10  H    1.070000   3.024610   2.468846   1.747303   0.000000
    11  H    1.070000   2.468846   2.468846   1.747303   1.747303
                   11
    11  H    0.000000
 Stoichiometry    C3H8
 Framework group  C2V[C2(C),SGV(C2H2),SGV'(H2),X(H4)]
 Deg. of freedom     9
 Full point group                 C2V     NOp   4
 Largest Abelian subgroup         C2V     NOp   4
 Largest concise Abelian subgroup C2V     NOp   4
                         Standard orientation:                         
 ---------------------------------------------------------------------
 Center     Atomic      Atomic             Coordinates (Angstroms)
 Number     Number       Type             X           Y           Z
 ---------------------------------------------------------------------
      1          6           0       -0.000000    1.257405   -0.273575
      2          1           0       -0.000000    2.131056    0.344190
      3          1           0        0.873651    1.257405   -0.891340
      4          1           0       -0.873651    1.257405   -0.891340
      5          6           0        0.000000    0.000000    0.615544
      6          6           0       -0.000000   -1.257405   -0.273575
      7          1           0        0.873651    0.000000    1.233309
      8          1           0       -0.873651    0.000000    1.233309
      9          1           0        0.873651   -1.257405   -0.891340
     10          1           0       -0.873651   -1.257405   -0.891340
     11          1           0       -0.000000   -2.131056    0.344190
 ---------------------------------------------------------------------
 Rotational constants (GHZ):          28.9413801           8.7001315           7.6203163
 Standard basis: STO-3G (5D, 7F)
 There are    10 symmetry adapted cartesian basis functions of A1  symmetry.
 There are     2 symmetry adapted cartesian basis functions of A2  symmetry.
 There are     4 symmetry adapted cartesian basis functions of B1  symmetry.
 There are     7 symmetry adapted cartesian basis functions of B2  symmetry.
 There are    10 symmetry adapted basis functions of A1  symmetry.
 There are     2 symmetry adapted basis functions of A2  symmetry.
 There are     4 symmetry adapted basis functions of B1  symmetry.
 There are     7 symmetry adapted basis functions of B2  symmetry.
    23 basis functions,    69 primitive gaussians,    23 cartesian basis functions
    13 alpha electrons       13 beta electrons
       nuclear repulsion energy        83.3207430581 Hartrees.
 NAtoms=   11 NActive=   11 NUniq=    5 SFac= 4.00D+00 NAtFMM=   60 NAOKFM=F Big=F
 Integral buffers will be    131072 words long.
 Raffenetti 1 integral format.
 Two-electron integral symmetry is turned on.
 One-electron integrals computed using PRISM.
 NBasis=    23 RedAO= T EigKep=  1.96D-01  NBF=    10     2     4     7
 NBsUse=    23 1.00D-06 EigRej= -1.00D+00 NBFU=    10     2     4     7
 ExpMin= 1.69D-01 ExpMax= 7.16D+01 ExpMxC= 7.16D+01 IAcc=3 IRadAn=         5 AccDes= 0.00D+00
 Harris functional with IExCor=  205 and IRadAn=       5 diagonalized for initial guess.
 HarFok:  IExCor=  205 AccDes= 0.00D+00 IRadAn=         5 IDoV= 1 UseB2=F ITyADJ=14
 ICtDFT=  3500011 ScaDFX=  1.000000  1.000000  1.000000  1.000000
 FoFCou: FMM=F IPFlag=           0 FMFlag=      100000 FMFlg1=           0
         NFxFlg=           0 DoJE=T BraDBF=F KetDBF=T FulRan=T
         wScrn=  0.000000 ICntrl=       500 IOpCl=  0 I1Cent=   200000004 NGrid=           0
         NMat0=    1 NMatS0=      1 NMatT0=    0 NMatD0=    1 NMtDS0=    0 NMtDT0=    0
 Petite list used in FoFCou.
 Initial guess orbital symmetries:
       Occupied  (A1) (B2) (A1) (A1) (B2) (A1) (B1) (A1) (B2) (A2)
                 (B2) (A1) (B1)
       Virtual   (B2) (A1) (B1) (A1) (A2) (B2) (A1) (B2) (B1) (A1)
 The electronic state of the initial guess is 1-A1.
 Keep R1 ints in memory in symmetry-blocked form, NReq=4878897.
 Requested convergence on RMS density matrix=1.00D-08 within 128 cycles.
 Requested convergence on MAX density matrix=1.00D-06.
 Requested convergence on             energy=1.00D-06.
 No special actions if energy rises.
 SCF Done:  E(RHF) =  -116.883467082     A.U. after    8 cycles
            NFock=  8  Conv=0.52D-08     -V/T= 2.0075

 **********************************************************************

            Population analysis using the SCF Density.

 **********************************************************************

 Orbital symmetries:
       Occupied  (A1) (B2) (A1) (A1) (B2) (A1) (B1) (A1) (B2) (A2)
                 (B1) (A1) (B2)
       Virtual   (A1) (B1) (B2) (A1) (A2) (A1) (B2) (B2) (A1) (B1)
 The electronic state is 1-A1.
 Alpha  occ. eigenvalues --  -11.03893 -11.02999 -11.02991  -1.01958  -0.89510
 Alpha  occ. eigenvalues --   -0.77625  -0.60840  -0.57343  -0.52688  -0.51283
 Alpha  occ. eigenvalues --   -0.45074  -0.44562  -0.43078
 Alpha virt. eigenvalues --    0.64391   0.65226   0.65754   0.71222   0.74817
 Alpha virt. eigenvalues --    0.77980   0.78412   0.79999   0.80711   0.83794
          Condensed to atoms (all electrons):
               1          2          3          4          5          6
     1  C    4.735853   0.388165   0.388898   0.388898   0.360978  -0.024660
     2  H    0.388165   0.618858  -0.021969  -0.021969  -0.020810   0.001384
     3  H    0.388898  -0.021969   0.618667  -0.022131  -0.021503  -0.002525
     4  H    0.388898  -0.021969  -0.022131   0.618667  -0.021503  -0.002525
     5  C    0.360978  -0.020810  -0.021503  -0.021503   4.725375   0.360978
     6  C   -0.024660   0.001384  -0.002525  -0.002525   0.360978   4.735853
     7  H   -0.022593  -0.002143  -0.002382   0.001968   0.389178  -0.022593
     8  H   -0.022593  -0.002143   0.001968  -0.002382   0.389178  -0.022593
     9  H   -0.002525   0.000022   0.000295  -0.000018  -0.021503   0.388898
    10  H   -0.002525   0.000022  -0.000018   0.000295  -0.021503   0.388898
    11  H    0.001384  -0.000041   0.000022   0.000022  -0.020810   0.388165
               7          8          9         10         11
     1  C   -0.022593  -0.022593  -0.002525  -0.002525   0.001384
     2  H   -0.002143  -0.002143   0.000022   0.000022  -0.000041
     3  H   -0.002382   0.001968   0.000295  -0.000018   0.000022
     4  H    0.001968  -0.002382  -0.000018   0.000295   0.000022
     5  C    0.389178   0.389178  -0.021503  -0.021503  -0.020810
     6  C   -0.022593  -0.022593   0.388898   0.388898   0.388165
     7  H    0.628494  -0.023699  -0.002382   0.001968  -0.002143
     8  H   -0.023699   0.628494   0.001968  -0.002382  -0.002143
     9  H   -0.002382   0.001968   0.618667  -0.022131  -0.021969
    10  H    0.001968  -0.002382  -0.022131   0.618667  -0.021969
    11  H   -0.002143  -0.002143  -0.021969  -0.021969   0.618858
 Mulliken charges:
               1
     1  C   -0.189279
     2  H    0.060624
     3  H    0.060679
     4  H    0.060679
     5  C   -0.098055
     6  C   -0.189279
     7  H    0.056325
     8  H    0.056325
     9  H    0.060679
    10  H    0.060679
    11  H    0.060624
 Sum of Mulliken charges =  -0.00000
 Mulliken charges with hydrogens summed into heavy atoms:
               1
     1  C   -0.007298
     5  C    0.014595
     6  C   -0.007298
 Electronic spatial extent (au):  <R**2>=            219.3385
 Charge=             -0.0000 electrons
 Dipole moment (field-independent basis, Debye):
    X=              0.0000    Y=             -0.0000    Z=              0.0228  Tot=              0.0228
 Quadrupole moment (field-independent basis, Debye-Ang):
   XX=            -20.1608   YY=            -20.9558   ZZ=            -20.5234
   XY=              0.0000   XZ=              0.0000   YZ=              0.0000
 Traceless Quadrupole moment (field-independent basis, Debye-Ang):
   XX=              0.3859   YY=             -0.4091   ZZ=              0.0233
   XY=              0.0000   XZ=              0.0000   YZ=              0.0000
 Octapole moment (field-independent basis, Debye-Ang**2):
  XXX=              0.0000  YYY=             -0.0000  ZZZ=             -0.0195  XYY=              0.0000
  XXY=             -0.0000  XXZ=             -0.4758  XZZ=              0.0000  YZZ=             -0.0000
  YYZ=              1.1425  XYZ=             -0.0000
 Hexadecapole moment (field-independent basis, Debye-Ang**3):
 XXXX=            -36.4643 YYYY=           -180.0538 ZZZZ=            -62.6297 XXXY=             -0.0000
 XXXZ=             -0.0000 YYYX=              0.0000 YYYZ=             -0.0000 ZZZX=              0.0000
 ZZZY=             -0.0000 XXYY=            -36.7825 XXZZ=            -14.7194 YYZZ=            -40.3491
 XXYZ=             -0.0000 YYXZ=             -0.0000 ZZXY=              0.0000
 N-N= 8.332074305807D+01 E-N=-4.377499315468D+02  KE= 1.160183993939D+02
 Symmetry A1   KE= 7.169528929703D+01
 Symmetry A2   KE= 2.035017758166D+00
 Symmetry B1   KE= 3.884166002443D+00
 Symmetry B2   KE= 3.840392633627D+01
 ******************************Gaussian NBO Version 3.1******************************
             N A T U R A L   A T O M I C   O R B I T A L   A N D
          N A T U R A L   B O N D   O R B I T A L   A N A L Y S I S
 ******************************Gaussian NBO Version 3.1******************************
       /RESON  / : Allow strongly delocalized NBO set

 Analyzing the SCF density

 Job title: Propane-HF-STO-3G                                               

 Storage needed:      1984 in NPA,      2311 in NBO (1342176565 available)
 GSVD:  LWork=        -713 too small for GESVD, short by        2990 words or        2990 for optimal perf.


 NATURAL POPULATIONS:  Natural atomic orbital occupancies 
                                                          
   NAO  Atom  No  lang   Type(AO)    Occupancy      Energy
 ----------------------------------------------------------
     1    C    1  S      Cor( 1S)     1.99996     -10.95774
     2    C    1  S      Val( 2S)     1.06338      -0.16270
     3    C    1  px     Val( 2p)     1.03792       0.08612
     4    C    1  py     Val( 2p)     1.01079       0.08281
     5    C    1  pz     Val( 2p)     1.02345       0.08554
 
     6    H    2  S      Val( 1S)     0.95879       0.08445
 
     7    H    3  S      Val( 1S)     0.95879       0.08394
 
     8    H    4  S      Val( 1S)     0.95879       0.08394
 
     9    C    5  S      Cor( 1S)     1.99995     -10.97351
    10    C    5  S      Val( 2S)     1.06413      -0.16985
    11    C    5  px     Val( 2p)     1.02274       0.10053
    12    C    5  py     Val( 2p)     0.96264       0.09877
    13    C    5  pz     Val( 2p)     0.98945       0.09857
 
    14    C    6  S      Cor( 1S)     1.99996     -10.95774
    15    C    6  S      Val( 2S)     1.06338      -0.16270
    16    C    6  px     Val( 2p)     1.03792       0.08612
    17    C    6  py     Val( 2p)     1.01079       0.08281
    18    C    6  pz     Val( 2p)     1.02345       0.08554
 
    19    H    7  S      Val( 1S)     0.96868       0.07869
 
    20    H    8  S      Val( 1S)     0.96868       0.07869
 
    21    H    9  S      Val( 1S)     0.95879       0.08394
 
    22    H   10  S      Val( 1S)     0.95879       0.08394
 
    23    H   11  S      Val( 1S)     0.95879       0.08445


 Summary of Natural Population Analysis:                  
                                                          
                                       Natural Population 
                Natural  -----------------------------------------------
    Atom  No    Charge         Core      Valence    Rydberg      Total
 -----------------------------------------------------------------------
      C    1   -0.13550      1.99996     4.13554    0.00000     6.13550
      H    2    0.04121      0.00000     0.95879    0.00000     0.95879
      H    3    0.04121      0.00000     0.95879    0.00000     0.95879
      H    4    0.04121      0.00000     0.95879    0.00000     0.95879
      C    5   -0.03890      1.99995     4.03895    0.00000     6.03890
      C    6   -0.13550      1.99996     4.13554    0.00000     6.13550
      H    7    0.03132      0.00000     0.96868    0.00000     0.96868
      H    8    0.03132      0.00000     0.96868    0.00000     0.96868
      H    9    0.04121      0.00000     0.95879    0.00000     0.95879
      H   10    0.04121      0.00000     0.95879    0.00000     0.95879
      H   11    0.04121      0.00000     0.95879    0.00000     0.95879
 =======================================================================
   * Total *   -0.00000      5.99986    20.00014    0.00000    26.00000

                                 Natural Population      
 --------------------------------------------------------
   Core                       5.99986 ( 99.9977% of   6)
   Valence                   20.00014 (100.0007% of  20)
   Natural Minimal Basis     26.00000 (100.0000% of  26)
   Natural Rydberg Basis      0.00000 (  0.0000% of  26)
 --------------------------------------------------------

    Atom  No          Natural Electron Configuration
 ----------------------------------------------------------------------------
      C    1      [core]2S( 1.06)2p( 3.07)
      H    2            1S( 0.96)
      H    3            1S( 0.96)
      H    4            1S( 0.96)
      C    5      [core]2S( 1.06)2p( 2.97)
      C    6      [core]2S( 1.06)2p( 3.07)
      H    7            1S( 0.97)
      H    8            1S( 0.97)
      H    9            1S( 0.96)
      H   10            1S( 0.96)
      H   11            1S( 0.96)


 NATURAL BOND ORBITAL ANALYSIS:

                       Occupancies       Lewis Structure    Low   High
           Occ.    -------------------  -----------------   occ   occ
  Cycle   Thresh.   Lewis   Non-Lewis     CR  BD  3C  LP    (L)   (NL)   Dev
 =============================================================================
   1(1)    1.90    25.95120   0.04880      3  10   0   0     0      0    0.01
 -----------------------------------------------------------------------------

 Structure accepted: No low occupancy Lewis orbitals

 --------------------------------------------------------
   Core                      5.99986 ( 99.998% of   6)
   Valence Lewis            19.95134 ( 99.757% of  20)
  ==================       ============================
   Total Lewis              25.95120 ( 99.812% of  26)
  -----------------------------------------------------
   Valence non-Lewis         0.04880 (  0.188% of  26)
   Rydberg non-Lewis         0.00000 (  0.000% of  26)
  ==================       ============================
   Total non-Lewis           0.04880 (  0.188% of  26)
 --------------------------------------------------------


       (Occupancy)   Bond orbital/ Coefficients/ Hybrids
 ---------------------------------------------------------------------------------
     1. (1.99580) BD ( 1) C   1 - H   2  
                ( 52.06%)   0.7215* C   1 s( 25.26%)p 2.96( 74.74%)
                                           -0.0000  0.5026  0.0000  0.7036  0.5024
                ( 47.94%)   0.6924* H   2 s(100.00%)
                                            1.0000
     2. (1.99611) BD ( 1) C   1 - H   3  
                ( 52.08%)   0.7216* C   1 s( 25.38%)p 2.94( 74.62%)
                                           -0.0000  0.5038  0.7071 -0.0056 -0.4962
                ( 47.92%)   0.6923* H   3 s(100.00%)
                                            1.0000
     3. (1.99611) BD ( 1) C   1 - H   4  
                ( 52.08%)   0.7216* C   1 s( 25.38%)p 2.94( 74.62%)
                                           -0.0000  0.5038 -0.7071 -0.0056 -0.4962
                ( 47.92%)   0.6923* H   4 s(100.00%)
                                            1.0000
     4. (1.99533) BD ( 1) C   1 - C   5  
                ( 50.57%)   0.7111* C   1 s( 23.98%)p 3.17( 76.02%)
                                            0.0000  0.4897 -0.0000 -0.7106  0.5052
                ( 49.43%)   0.7031* C   5 s( 24.22%)p 3.13( 75.78%)
                                           -0.0000  0.4922 -0.0000  0.7071 -0.5077
     5. (1.99533) BD ( 1) C   5 - C   6  
                ( 49.43%)   0.7031* C   5 s( 24.22%)p 3.13( 75.78%)
                                           -0.0000  0.4922 -0.0000 -0.7071 -0.5077
                ( 50.57%)   0.7111* C   6 s( 23.98%)p 3.17( 76.02%)
                                            0.0000  0.4897  0.0000  0.7106  0.5052
     6. (1.99231) BD ( 1) C   5 - H   7  
                ( 51.56%)   0.7180* C   5 s( 25.78%)p 2.88( 74.22%)
                                           -0.0000  0.5077  0.7071 -0.0000  0.4922
                ( 48.44%)   0.6960* H   7 s(100.00%)
                                            1.0000
     7. (1.99231) BD ( 1) C   5 - H   8  
                ( 51.56%)   0.7180* C   5 s( 25.78%)p 2.88( 74.22%)
                                           -0.0000  0.5077 -0.7071 -0.0000  0.4922
                ( 48.44%)   0.6960* H   8 s(100.00%)
                                            1.0000
     8. (1.99611) BD ( 1) C   6 - H   9  
                ( 52.08%)   0.7216* C   6 s( 25.38%)p 2.94( 74.62%)
                                           -0.0000  0.5038  0.7071  0.0056 -0.4962
                ( 47.92%)   0.6923* H   9 s(100.00%)
                                            1.0000
     9. (1.99611) BD ( 1) C   6 - H  10  
                ( 52.08%)   0.7216* C   6 s( 25.38%)p 2.94( 74.62%)
                                           -0.0000  0.5038 -0.7071  0.0056 -0.4962
                ( 47.92%)   0.6923* H  10 s(100.00%)
                                            1.0000
    10. (1.99580) BD ( 1) C   6 - H  11  
                ( 52.06%)   0.7215* C   6 s( 25.26%)p 2.96( 74.74%)
                                           -0.0000  0.5026 -0.0000 -0.7036  0.5024
                ( 47.94%)   0.6924* H  11 s(100.00%)
                                            1.0000
    11. (1.99996) CR ( 1) C   1           s(100.00%)
                                            1.0000 -0.0000 -0.0000  0.0000 -0.0000
    12. (1.99995) CR ( 1) C   5           s(100.00%)
                                            1.0000  0.0000  0.0000  0.0000 -0.0000
    13. (1.99996) CR ( 1) C   6           s(100.00%)
                                            1.0000 -0.0000  0.0000 -0.0000 -0.0000
    14. (0.00379) BD*( 1) C   1 - H   2  
                ( 47.94%)   0.6924* C   1 s( 25.26%)p 2.96( 74.74%)
                                            0.0000 -0.5026 -0.0000 -0.7036 -0.5024
                ( 52.06%)  -0.7215* H   2 s(100.00%)
                                           -1.0000
    15. (0.00423) BD*( 1) C   1 - H   3  
                ( 47.92%)   0.6923* C   1 s( 25.38%)p 2.94( 74.62%)
                                            0.0000 -0.5038 -0.7071  0.0056  0.4962
                ( 52.08%)  -0.7216* H   3 s(100.00%)
                                           -1.0000
    16. (0.00423) BD*( 1) C   1 - H   4  
                ( 47.92%)   0.6923* C   1 s( 25.38%)p 2.94( 74.62%)
                                            0.0000 -0.5038  0.7071  0.0056  0.4962
                ( 52.08%)  -0.7216* H   4 s(100.00%)
                                           -1.0000
    17. (0.00524) BD*( 1) C   1 - C   5  
                ( 49.43%)   0.7031* C   1 s( 23.98%)p 3.17( 76.02%)
                                           -0.0000 -0.4897  0.0000  0.7106 -0.5052
                ( 50.57%)  -0.7111* C   5 s( 24.22%)p 3.13( 75.78%)
                                            0.0000 -0.4922  0.0000 -0.7071  0.5077
    18. (0.00524) BD*( 1) C   5 - C   6  
                ( 50.57%)   0.7111* C   5 s( 24.22%)p 3.13( 75.78%)
                                           -0.0000  0.4922 -0.0000 -0.7071 -0.5077
                ( 49.43%)  -0.7031* C   6 s( 23.98%)p 3.17( 76.02%)
                                            0.0000  0.4897  0.0000  0.7106  0.5052
    19. (0.00691) BD*( 1) C   5 - H   7  
                ( 48.44%)   0.6960* C   5 s( 25.78%)p 2.88( 74.22%)
                                            0.0000 -0.5077 -0.7071  0.0000 -0.4922
                ( 51.56%)  -0.7180* H   7 s(100.00%)
                                           -1.0000
    20. (0.00691) BD*( 1) C   5 - H   8  
                ( 48.44%)   0.6960* C   5 s( 25.78%)p 2.88( 74.22%)
                                            0.0000 -0.5077  0.7071  0.0000 -0.4922
                ( 51.56%)  -0.7180* H   8 s(100.00%)
                                           -1.0000
    21. (0.00423) BD*( 1) C   6 - H   9  
                ( 47.92%)   0.6923* C   6 s( 25.38%)p 2.94( 74.62%)
                                            0.0000 -0.5038 -0.7071 -0.0056  0.4962
                ( 52.08%)  -0.7216* H   9 s(100.00%)
                                           -1.0000
    22. (0.00423) BD*( 1) C   6 - H  10  
                ( 47.92%)   0.6923* C   6 s( 25.38%)p 2.94( 74.62%)
                                            0.0000 -0.5038  0.7071 -0.0056  0.4962
                ( 52.08%)  -0.7216* H  10 s(100.00%)
                                           -1.0000
    23. (0.00379) BD*( 1) C   6 - H  11  
                ( 47.94%)   0.6924* C   6 s( 25.26%)p 2.96( 74.74%)
                                            0.0000 -0.5026  0.0000  0.7036 -0.5024
                ( 52.06%)  -0.7215* H  11 s(100.00%)
                                           -1.0000


 NHO Directionality and "Bond Bending" (deviations from line of nuclear centers)

         [Thresholds for printing:  angular deviation  >  1.0 degree]
                                    hybrid p-character > 25.0%
                                    orbital occupancy  >  0.10e

                                Line of Centers        Hybrid 1              Hybrid 2
                                ---------------  -------------------   ------------------
                NBO               Theta   Phi    Theta   Phi    Dev    Theta   Phi    Dev
 ========================================================================================
    None exceeding thresholds


 Second Order Perturbation Theory Analysis of Fock Matrix in NBO Basis

     Threshold for printing:   0.50 kcal/mol
                                                                              E(2)  E(j)-E(i) F(i,j)
         Donor NBO (i)                     Acceptor NBO (j)                 kcal/mol   a.u.    a.u. 
 ===================================================================================================

 within unit  1
   1. BD (   1) C   1 - H   2        / 18. BD*(   1) C   5 - C   6            2.12    1.33    0.047
   2. BD (   1) C   1 - H   3        / 20. BD*(   1) C   5 - H   8            2.03    1.39    0.048
   3. BD (   1) C   1 - H   4        / 19. BD*(   1) C   5 - H   7            2.03    1.39    0.048
   4. BD (   1) C   1 - C   5        / 23. BD*(   1) C   6 - H  11            2.05    1.40    0.048
   5. BD (   1) C   5 - C   6        / 14. BD*(   1) C   1 - H   2            2.05    1.40    0.048
   6. BD (   1) C   5 - H   7        / 16. BD*(   1) C   1 - H   4            2.21    1.39    0.050
   6. BD (   1) C   5 - H   7        / 22. BD*(   1) C   6 - H  10            2.21    1.39    0.050
   7. BD (   1) C   5 - H   8        / 15. BD*(   1) C   1 - H   3            2.21    1.39    0.050
   7. BD (   1) C   5 - H   8        / 21. BD*(   1) C   6 - H   9            2.21    1.39    0.050
   8. BD (   1) C   6 - H   9        / 20. BD*(   1) C   5 - H   8            2.03    1.39    0.048
   9. BD (   1) C   6 - H  10        / 19. BD*(   1) C   5 - H   7            2.03    1.39    0.048
  10. BD (   1) C   6 - H  11        / 17. BD*(   1) C   1 - C   5            2.12    1.33    0.047


 Natural Bond Orbitals (Summary):

                                                            Principal Delocalizations
           NBO                        Occupancy    Energy   (geminal,vicinal,remote)
 ====================================================================================
 Molecular unit  1  (C3H8)
     1. BD (   1) C   1 - H   2          1.99580    -0.64011  18(v)
     2. BD (   1) C   1 - H   3          1.99611    -0.64137  20(v)
     3. BD (   1) C   1 - H   4          1.99611    -0.64137  19(v)
     4. BD (   1) C   1 - C   5          1.99533    -0.64495  23(v)
     5. BD (   1) C   5 - C   6          1.99533    -0.64495  14(v)
     6. BD (   1) C   5 - H   7          1.99231    -0.64095  16(v),22(v)
     7. BD (   1) C   5 - H   8          1.99231    -0.64095  15(v),21(v)
     8. BD (   1) C   6 - H   9          1.99611    -0.64137  20(v)
     9. BD (   1) C   6 - H  10          1.99611    -0.64137  19(v)
    10. BD (   1) C   6 - H  11          1.99580    -0.64011  17(v)
    11. CR (   1) C   1                  1.99996   -10.95773   
    12. CR (   1) C   5                  1.99995   -10.97352   
    13. CR (   1) C   6                  1.99996   -10.95773   
    14. BD*(   1) C   1 - H   2          0.00379     0.75087   
    15. BD*(   1) C   1 - H   3          0.00423     0.74988   
    16. BD*(   1) C   1 - H   4          0.00423     0.74988   
    17. BD*(   1) C   1 - C   5          0.00524     0.69192   
    18. BD*(   1) C   5 - C   6          0.00524     0.69192   
    19. BD*(   1) C   5 - H   7          0.00691     0.75302   
    20. BD*(   1) C   5 - H   8          0.00691     0.75302   
    21. BD*(   1) C   6 - H   9          0.00423     0.74988   
    22. BD*(   1) C   6 - H  10          0.00423     0.74988   
    23. BD*(   1) C   6 - H  11          0.00379     0.75087   
       -------------------------------
              Total Lewis   25.95120  ( 99.8123%)
        Valence non-Lewis    0.04880  (  0.1877%)
        Rydberg non-Lewis    0.00000  (  0.0000%)
       -------------------------------
            Total unit  1   26.00000  (100.0000%)
           Charge unit  1    0.00000
 Calling FoFJK, ICntrl=      2127 FMM=F ISym2X=1 I1Cent= 0 IOpClX= 0 NMat=1 NMatS=1 NMatT=0.
 ***** Axes restored to original set *****
 -------------------------------------------------------------------
 Center     Atomic                   Forces (Hartrees/Bohr)
 Number     Number              X              Y              Z
 -------------------------------------------------------------------
      1        6           0.005477962   -0.020678871    0.003888409
      2        1          -0.002859997    0.007507131    0.013168344
      3        1           0.007932278    0.011345512   -0.004446806
      4        1          -0.012070049    0.005821998   -0.005642163
      5        6          -0.004010755    0.019293353   -0.022037483
      6        6          -0.000828024   -0.001689210    0.021661127
      7        1           0.012527654   -0.005098502    0.009892579
      8        1          -0.009162726   -0.011088160    0.008596343
      9        1           0.009453562    0.006764360   -0.008734377
     10        1          -0.010548765    0.001240847   -0.009929734
     11        1           0.004088860   -0.013418457   -0.006416239
 -------------------------------------------------------------------
 Cartesian Forces:  Max     0.022037483 RMS     0.010592456

 GradGradGradGradGradGradGradGradGradGradGradGradGradGradGradGradGradGrad
 Berny optimization.
 FormGI is forming the generalized inverse of G from B-inverse, IUseBI=4.
 Internal  Forces:  Max     0.016361616 RMS     0.006909767
 Search for a local minimum.
 Step number   1 out of a maximum of   56
 All quantities printed in internal units (Hartrees-Bohrs-Radians)
 Mixed Optimization -- RFO/linear search
 Second derivative matrix not updated -- first step.
 ITU=  0
     Eigenvalues ---    0.00237   0.00237   0.03840   0.04896   0.05720
     Eigenvalues ---    0.05720   0.05720   0.05720   0.07655   0.11701
     Eigenvalues ---    0.16000   0.16000   0.16000   0.16000   0.16000
     Eigenvalues ---    0.16000   0.21948   0.28519   0.28519   0.37230
     Eigenvalues ---    0.37230   0.37230   0.37230   0.37230   0.37230
     Eigenvalues ---    0.37230   0.37230
 RFO step:  Lambda=-7.33774771D-03 EMin= 2.36824221D-03
 Linear search not attempted -- first point.
 Iteration  1 RMS(Cart)=  0.04798688 RMS(Int)=  0.00075326
 Iteration  2 RMS(Cart)=  0.00052330 RMS(Int)=  0.00023067
 Iteration  3 RMS(Cart)=  0.00000051 RMS(Int)=  0.00023067
 ClnCor:  largest displacement from symmetrization is 9.49D-09 for atom     4.
 Variable       Old X    -DE/DX   Delta X   Delta X   Delta X     New X
                                 (Linear)    (Quad)   (Total)
    R1        2.02201   0.01465   0.00000   0.03860   0.03860   2.06061
    R2        2.02201   0.01405   0.00000   0.03702   0.03702   2.05902
    R3        2.02201   0.01405   0.00000   0.03702   0.03702   2.05902
    R4        2.91018   0.00501   0.00000   0.01713   0.01713   2.92731
    R5        2.91018   0.00501   0.00000   0.01713   0.01713   2.92731
    R6        2.02201   0.01636   0.00000   0.04310   0.04310   2.06510
    R7        2.02201   0.01636   0.00000   0.04310   0.04310   2.06510
    R8        2.02201   0.01405   0.00000   0.03702   0.03702   2.05902
    R9        2.02201   0.01405   0.00000   0.03702   0.03702   2.05902
   R10        2.02201   0.01465   0.00000   0.03860   0.03860   2.06061
    A1        1.91063  -0.00433   0.00000  -0.02487  -0.02525   1.88539
    A2        1.91063  -0.00433   0.00000  -0.02487  -0.02525   1.88539
    A3        1.91063   0.00541   0.00000   0.03332   0.03292   1.94355
    A4        1.91063  -0.00376   0.00000  -0.02446  -0.02461   1.88602
    A5        1.91063   0.00350   0.00000   0.02044   0.02015   1.93079
    A6        1.91063   0.00350   0.00000   0.02044   0.02015   1.93079
    A7        1.91063   0.01074   0.00000   0.05941   0.05888   1.96952
    A8        1.91063  -0.00262   0.00000  -0.00489  -0.00534   1.90530
    A9        1.91063  -0.00262   0.00000  -0.00489  -0.00534   1.90530
   A10        1.91063  -0.00262   0.00000  -0.00489  -0.00534   1.90530
   A11        1.91063  -0.00262   0.00000  -0.00489  -0.00534   1.90530
   A12        1.91063  -0.00025   0.00000  -0.03986  -0.04009   1.87055
   A13        1.91063   0.00350   0.00000   0.02044   0.02015   1.93079
   A14        1.91063   0.00350   0.00000   0.02044   0.02015   1.93079
   A15        1.91063   0.00541   0.00000   0.03332   0.03292   1.94355
   A16        1.91063  -0.00376   0.00000  -0.02446  -0.02461   1.88602
   A17        1.91063  -0.00433   0.00000  -0.02487  -0.02525   1.88539
   A18        1.91063  -0.00433   0.00000  -0.02487  -0.02525   1.88539
    D1        3.14159   0.00000   0.00000   0.00000   0.00000   3.14159
    D2       -1.04720   0.00176   0.00000   0.02740   0.02744  -1.01976
    D3        1.04720  -0.00176   0.00000  -0.02740  -0.02744   1.01976
    D4       -1.04720   0.00016   0.00000   0.00246   0.00252  -1.04468
    D5        1.04720   0.00192   0.00000   0.02986   0.02996   1.07716
    D6        3.14159  -0.00160   0.00000  -0.02494  -0.02492   3.11668
    D7        1.04720  -0.00016   0.00000  -0.00246  -0.00252   1.04468
    D8       -3.14159   0.00160   0.00000   0.02494   0.02492  -3.11668
    D9       -1.04720  -0.00192   0.00000  -0.02986  -0.02996  -1.07716
   D10        1.04720  -0.00016   0.00000  -0.00246  -0.00252   1.04468
   D11       -1.04720   0.00016   0.00000   0.00246   0.00252  -1.04468
   D12        3.14159  -0.00000   0.00000  -0.00000   0.00000   3.14159
   D13       -1.04720  -0.00192   0.00000  -0.02986  -0.02996  -1.07716
   D14        3.14159  -0.00160   0.00000  -0.02494  -0.02492   3.11668
   D15        1.04720  -0.00176   0.00000  -0.02740  -0.02744   1.01976
   D16       -3.14159   0.00160   0.00000   0.02494   0.02492  -3.11668
   D17        1.04720   0.00192   0.00000   0.02986   0.02996   1.07716
   D18       -1.04720   0.00176   0.00000   0.02740   0.02744  -1.01976
         Item               Value     Threshold  Converged?
 Maximum Force            0.016362     0.000450     NO 
 RMS     Force            0.006910     0.000300     NO 
 Maximum Displacement     0.112220     0.001800     NO 
 RMS     Displacement     0.047813     0.001200     NO 
 Predicted change in Energy=-3.800719D-03
 GradGradGradGradGradGradGradGradGradGradGradGradGradGradGradGradGradGrad

                          Input orientation:                          
 ---------------------------------------------------------------------
 Center     Atomic      Atomic             Coordinates (Angstroms)
 Number     Number       Type             X           Y           Z
 ---------------------------------------------------------------------
      1          6           0       -0.870563   -0.027113   -0.709729
      2          1           0       -0.995872    0.197339    0.349964
      3          1           0       -0.117243    0.650143   -1.111022
      4          1           0       -1.814475    0.181463   -1.212451
      5          6           0       -0.450236   -1.501977   -0.928145
      6          6           0       -0.262372   -1.858602   -2.423848
      7          1           0        0.484087   -1.691618   -0.394008
      8          1           0       -1.208547   -2.159028   -0.495162
      9          1           0        0.508176   -1.233224   -2.873695
     10          1           0       -1.189057   -1.701904   -2.975123
     11          1           0        0.032918   -2.900729   -2.549567
 ---------------------------------------------------------------------
                    Distance matrix (angstroms):
                    1          2          3          4          5
     1  C    0.000000
     2  H    1.090427   0.000000
     3  H    1.089588   1.763945   0.000000
     4  H    1.089588   1.763945   1.763674   0.000000
     5  C    1.549065   2.195212   2.185394   2.185394   0.000000
     6  C    2.581172   3.529724   2.835202   2.835202   1.549065
     7  H    2.169178   2.512356   2.521815   3.075983   1.092806
     8  H    2.169178   2.512356   3.075983   2.521815   1.092806
     9  H    2.835202   3.834142   2.654286   3.186813   2.185394
    10  H    2.835202   3.834142   3.186813   2.654286   2.185394
    11  H    3.529724   4.366201   3.834142   3.834142   2.195212
                    6          7          8          9         10
     6  C    0.000000
     7  H    2.169178   0.000000
     8  H    2.169178   1.758896   0.000000
     9  H    1.089588   2.521815   3.075983   0.000000
    10  H    1.089588   3.075983   2.521815   1.763674   0.000000
    11  H    1.090427   2.512356   2.512356   1.763945   1.763945
                   11
    11  H    0.000000
 Stoichiometry    C3H8
 Framework group  C2V[C2(C),SGV(C2H2),SGV'(H2),X(H4)]
 Deg. of freedom     9
 Full point group                 C2V     NOp   4
 Largest Abelian subgroup         C2V     NOp   4
 Largest concise Abelian subgroup C2V     NOp   4
                         Standard orientation:                         
 ---------------------------------------------------------------------
 Center     Atomic      Atomic             Coordinates (Angstroms)
 Number     Number       Type             X           Y           Z
 ---------------------------------------------------------------------
      1          6           0       -0.000000    1.290586   -0.263401
      2          1           0       -0.000000    2.183101    0.363056
      3          1           0        0.881837    1.327143   -0.902330
      4          1           0       -0.881837    1.327143   -0.902330
      5          6           0       -0.000000    0.000000    0.593331
      6          6           0        0.000000   -1.290586   -0.263401
      7          1           0        0.879448    0.000000    1.242020
      8          1           0       -0.879448    0.000000    1.242020
      9          1           0        0.881837   -1.327143   -0.902330
     10          1           0       -0.881837   -1.327143   -0.902330
     11          1           0        0.000000   -2.183101    0.363056
 ---------------------------------------------------------------------
 Rotational constants (GHZ):          29.3190048           8.2342330           7.3005366
 Standard basis: STO-3G (5D, 7F)
 There are    10 symmetry adapted cartesian basis functions of A1  symmetry.
 There are     2 symmetry adapted cartesian basis functions of A2  symmetry.
 There are     4 symmetry adapted cartesian basis functions of B1  symmetry.
 There are     7 symmetry adapted cartesian basis functions of B2  symmetry.
 There are    10 symmetry adapted basis functions of A1  symmetry.
 There are     2 symmetry adapted basis functions of A2  symmetry.
 There are     4 symmetry adapted basis functions of B1  symmetry.
 There are     7 symmetry adapted basis functions of B2  symmetry.
    23 basis functions,    69 primitive gaussians,    23 cartesian basis functions
    13 alpha electrons       13 beta electrons
       nuclear repulsion energy        81.9794530212 Hartrees.
 NAtoms=   11 NActive=   11 NUniq=    5 SFac= 4.00D+00 NAtFMM=   60 NAOKFM=F Big=F
 Integral buffers will be    131072 words long.
 Raffenetti 1 integral format.
 Two-electron integral symmetry is turned on.
 One-electron integrals computed using PRISM.
 NBasis=    23 RedAO= T EigKep=  2.06D-01  NBF=    10     2     4     7
 NBsUse=    23 1.00D-06 EigRej= -1.00D+00 NBFU=    10     2     4     7
 Initial guess from the checkpoint file:  "Propane-HF-STO-3G.chk"
 B after Tr=     0.000000    0.000000   -0.000000
         Rot=    1.000000    0.000000    0.000000   -0.000000 Ang=   0.00 deg.
 Initial guess orbital symmetries:
       Occupied  (A1) (B2) (A1) (A1) (B2) (A1) (B1) (A1) (B2) (A2)
                 (B1) (A1) (B2)
       Virtual   (A1) (B1) (B2) (A1) (A2) (A1) (B2) (B2) (A1) (B1)
 ExpMin= 1.69D-01 ExpMax= 7.16D+01 ExpMxC= 7.16D+01 IAcc=3 IRadAn=         5 AccDes= 0.00D+00
 Harris functional with IExCor=  205 and IRadAn=       5 diagonalized for initial guess.
 HarFok:  IExCor=  205 AccDes= 0.00D+00 IRadAn=         5 IDoV= 1 UseB2=F ITyADJ=14
 ICtDFT=  3500011 ScaDFX=  1.000000  1.000000  1.000000  1.000000
 FoFCou: FMM=F IPFlag=           0 FMFlag=      100000 FMFlg1=           0
         NFxFlg=           0 DoJE=T BraDBF=F KetDBF=T FulRan=T
         wScrn=  0.000000 ICntrl=       500 IOpCl=  0 I1Cent=   200000004 NGrid=           0
         NMat0=    1 NMatS0=      1 NMatT0=    0 NMatD0=    1 NMtDS0=    0 NMtDT0=    0
 Petite list used in FoFCou.
 Keep R1 ints in memory in symmetry-blocked form, NReq=4878729.
 Requested convergence on RMS density matrix=1.00D-08 within 128 cycles.
 Requested convergence on MAX density matrix=1.00D-06.
 Requested convergence on             energy=1.00D-06.
 No special actions if energy rises.
 SCF Done:  E(RHF) =  -116.886157932     A.U. after    8 cycles
            NFock=  8  Conv=0.26D-08     -V/T= 2.0089
 Calling FoFJK, ICntrl=      2127 FMM=F ISym2X=1 I1Cent= 0 IOpClX= 0 NMat=1 NMatS=1 NMatT=0.
 ***** Axes restored to original set *****
 -------------------------------------------------------------------
 Center     Atomic                   Forces (Hartrees/Bohr)
 Number     Number              X              Y              Z
 -------------------------------------------------------------------
      1        6           0.000227307   -0.000345674   -0.002206312
      2        1           0.000958580   -0.002742795   -0.003366338
      3        1          -0.002010004   -0.002013577    0.000939290
      4        1           0.002638719   -0.000729862    0.001217101
      5        6           0.000141453   -0.000680445    0.000777226
      6        6          -0.000603988    0.002157663    0.000136600
      7        1          -0.003133481    0.000533432   -0.001681756
      8        1           0.002583512    0.002112142   -0.001340103
      9        1          -0.002166163   -0.001543325    0.001379405
     10        1           0.002482561   -0.000259610    0.001657217
     11        1          -0.001118495    0.003512050    0.002487670
 -------------------------------------------------------------------
 Cartesian Forces:  Max     0.003512050 RMS     0.001846239

 GradGradGradGradGradGradGradGradGradGradGradGradGradGradGradGradGradGrad
 Berny optimization.
 Using GEDIIS/GDIIS optimizer.
 FormGI is forming the generalized inverse of G from B-inverse, IUseBI=4.
 Internal  Forces:  Max     0.006526619 RMS     0.002146285
 Search for a local minimum.
 Step number   2 out of a maximum of   56
 All quantities printed in internal units (Hartrees-Bohrs-Radians)
 Mixed Optimization -- RFO/linear search
 Update second derivatives using D2CorX and points    1    2
 DE= -2.69D-03 DEPred=-3.80D-03 R= 7.08D-01
 TightC=F SS=  1.41D+00  RLast= 1.86D-01 DXNew= 5.0454D-01 5.5815D-01
 Trust test= 7.08D-01 RLast= 1.86D-01 DXMaxT set to 5.05D-01
 ITU=  1  0
 Use linear search instead of GDIIS.
     Eigenvalues ---    0.00237   0.00237   0.03436   0.04803   0.05419
     Eigenvalues ---    0.05419   0.05501   0.05518   0.08281   0.12180
     Eigenvalues ---    0.15674   0.16000   0.16000   0.16000   0.16000
     Eigenvalues ---    0.16726   0.22241   0.28519   0.28977   0.37195
     Eigenvalues ---    0.37230   0.37230   0.37230   0.37230   0.37230
     Eigenvalues ---    0.37230   0.45065
 RFO step:  Lambda=-1.89824748D-04 EMin= 2.36824221D-03
 Quartic linear search produced a step of -0.20501.
 Iteration  1 RMS(Cart)=  0.01183613 RMS(Int)=  0.00005370
 Iteration  2 RMS(Cart)=  0.00002571 RMS(Int)=  0.00004241
 Iteration  3 RMS(Cart)=  0.00000000 RMS(Int)=  0.00004241
 ClnCor:  largest displacement from symmetrization is 2.49D-09 for atom     4.
 Variable       Old X    -DE/DX   Delta X   Delta X   Delta X     New X
                                 (Linear)    (Quad)   (Total)
    R1        2.06061  -0.00395  -0.00791   0.00038  -0.00754   2.05307
    R2        2.05902  -0.00299  -0.00759   0.00206  -0.00553   2.05350
    R3        2.05902  -0.00299  -0.00759   0.00206  -0.00553   2.05350
    R4        2.92731  -0.00653  -0.00351  -0.01429  -0.01780   2.90951
    R5        2.92731  -0.00653  -0.00351  -0.01429  -0.01780   2.90951
    R6        2.06510  -0.00359  -0.00884   0.00216  -0.00668   2.05842
    R7        2.06510  -0.00359  -0.00884   0.00216  -0.00668   2.05842
    R8        2.05902  -0.00299  -0.00759   0.00206  -0.00553   2.05350
    R9        2.05902  -0.00299  -0.00759   0.00206  -0.00553   2.05350
   R10        2.06061  -0.00395  -0.00791   0.00038  -0.00754   2.05307
    A1        1.88539   0.00122   0.00518  -0.00103   0.00421   1.88960
    A2        1.88539   0.00122   0.00518  -0.00103   0.00421   1.88960
    A3        1.94355  -0.00294  -0.00675  -0.00866  -0.01534   1.92822
    A4        1.88602   0.00008   0.00505  -0.00253   0.00254   1.88856
    A5        1.93079   0.00028  -0.00413   0.00653   0.00244   1.93323
    A6        1.93079   0.00028  -0.00413   0.00653   0.00244   1.93323
    A7        1.96952  -0.00260  -0.01207   0.00297  -0.00899   1.96052
    A8        1.90530   0.00079   0.00109   0.00110   0.00228   1.90758
    A9        1.90530   0.00079   0.00109   0.00110   0.00228   1.90758
   A10        1.90530   0.00079   0.00109   0.00110   0.00228   1.90758
   A11        1.90530   0.00079   0.00109   0.00110   0.00228   1.90758
   A12        1.87055  -0.00047   0.00822  -0.00795   0.00031   1.87085
   A13        1.93079   0.00028  -0.00413   0.00653   0.00244   1.93323
   A14        1.93079   0.00028  -0.00413   0.00653   0.00244   1.93323
   A15        1.94355  -0.00294  -0.00675  -0.00866  -0.01534   1.92822
   A16        1.88602   0.00008   0.00505  -0.00253   0.00254   1.88856
   A17        1.88539   0.00122   0.00518  -0.00103   0.00421   1.88960
   A18        1.88539   0.00122   0.00518  -0.00103   0.00421   1.88960
    D1        3.14159   0.00000   0.00000   0.00000   0.00000  -3.14159
    D2       -1.01976  -0.00017  -0.00562   0.00415  -0.00148  -1.02124
    D3        1.01976   0.00017   0.00562  -0.00415   0.00148   1.02124
    D4       -1.04468  -0.00023  -0.00052  -0.00265  -0.00318  -1.04786
    D5        1.07716  -0.00039  -0.00614   0.00150  -0.00466   1.07249
    D6        3.11668  -0.00006   0.00511  -0.00680  -0.00170   3.11498
    D7        1.04468   0.00023   0.00052   0.00265   0.00318   1.04786
    D8       -3.11668   0.00006  -0.00511   0.00680   0.00170  -3.11498
    D9       -1.07716   0.00039   0.00614  -0.00150   0.00466  -1.07249
   D10        1.04468   0.00023   0.00052   0.00265   0.00318   1.04786
   D11       -1.04468  -0.00023  -0.00052  -0.00265  -0.00318  -1.04786
   D12        3.14159  -0.00000   0.00000   0.00000  -0.00000   3.14159
   D13       -1.07716   0.00039   0.00614  -0.00150   0.00466  -1.07249
   D14        3.11668  -0.00006   0.00511  -0.00680  -0.00170   3.11498
   D15        1.01976   0.00017   0.00562  -0.00415   0.00148   1.02124
   D16       -3.11668   0.00006  -0.00511   0.00680   0.00170  -3.11498
   D17        1.07716  -0.00039  -0.00614   0.00150  -0.00466   1.07249
   D18       -1.01976  -0.00017  -0.00562   0.00415  -0.00148  -1.02124
         Item               Value     Threshold  Converged?
 Maximum Force            0.006527     0.000450     NO 
 RMS     Force            0.002146     0.000300     NO 
 Maximum Displacement     0.035590     0.001800     NO 
 RMS     Displacement     0.011844     0.001200     NO 
 Predicted change in Energy=-2.751341D-04
 GradGradGradGradGradGradGradGradGradGradGradGradGradGradGradGradGradGrad

                          Input orientation:                          
 ---------------------------------------------------------------------
 Center     Atomic      Atomic             Coordinates (Angstroms)
 Number     Number       Type             X           Y           Z
 ---------------------------------------------------------------------
      1          6           0       -0.868097   -0.034020   -0.719076
      2          1           0       -0.990039    0.178505    0.339373
      3          1           0       -0.116099    0.641584   -1.117695
      4          1           0       -1.810334    0.173732   -1.218944
      5          6           0       -0.450450   -1.500949   -0.929319
      6          6           0       -0.265415   -1.848921   -2.417670
      7          1           0        0.480929   -1.689863   -0.397005
      8          1           0       -1.206422   -2.155813   -0.497842
      9          1           0        0.504242   -1.226494   -2.866059
     10          1           0       -1.189992   -1.694346   -2.967308
     11          1           0        0.028492   -2.888667   -2.531241
 ---------------------------------------------------------------------
                    Distance matrix (angstroms):
                    1          2          3          4          5
     1  C    0.000000
     2  H    1.086439   0.000000
     3  H    1.086664   1.761039   0.000000
     4  H    1.086664   1.761039   1.760559   0.000000
     5  C    1.539647   2.172856   2.176632   2.176632   0.000000
     6  C    2.557795   3.498117   2.813334   2.813334   1.539647
     7  H    2.159957   2.489336   2.512266   3.065690   1.089271
     8  H    2.159957   2.489336   3.065690   2.512266   1.089271
     9  H    2.813334   3.805482   2.632740   3.167157   2.176632
    10  H    2.813334   3.805482   3.167157   2.632740   2.176632
    11  H    3.498117   4.322658   3.805482   3.805482   2.172856
                    6          7          8          9         10
     6  C    0.000000
     7  H    2.159957   0.000000
     8  H    2.159957   1.753405   0.000000
     9  H    1.086664   2.512266   3.065690   0.000000
    10  H    1.086664   3.065690   2.512266   1.760559   0.000000
    11  H    1.086439   2.489336   2.489336   1.761039   1.761039
                   11
    11  H    0.000000
 Stoichiometry    C3H8
 Framework group  C2V[C2(C),SGV(C2H2),SGV'(H2),X(H4)]
 Deg. of freedom     9
 Full point group                 C2V     NOp   4
 Largest Abelian subgroup         C2V     NOp   4
 Largest concise Abelian subgroup C2V     NOp   4
                         Standard orientation:                         
 ---------------------------------------------------------------------
 Center     Atomic      Atomic             Coordinates (Angstroms)
 Number     Number       Type             X           Y           Z
 ---------------------------------------------------------------------
      1          6           0       -0.000000    1.278897   -0.264406
      2          1           0       -0.000000    2.161329    0.369364
      3          1           0        0.880279    1.316370   -0.900444
      4          1           0       -0.880279    1.316370   -0.900444
      5          6           0       -0.000000   -0.000000    0.592876
      6          6           0       -0.000000   -1.278897   -0.264406
      7          1           0        0.876703   -0.000000    1.239332
      8          1           0       -0.876703    0.000000    1.239332
      9          1           0        0.880279   -1.316370   -0.900444
     10          1           0       -0.880279   -1.316370   -0.900444
     11          1           0       -0.000000   -2.161329    0.369364
 ---------------------------------------------------------------------
 Rotational constants (GHZ):          29.3737234           8.3771471           7.4116291
 Standard basis: STO-3G (5D, 7F)
 There are    10 symmetry adapted cartesian basis functions of A1  symmetry.
 There are     2 symmetry adapted cartesian basis functions of A2  symmetry.
 There are     4 symmetry adapted cartesian basis functions of B1  symmetry.
 There are     7 symmetry adapted cartesian basis functions of B2  symmetry.
 There are    10 symmetry adapted basis functions of A1  symmetry.
 There are     2 symmetry adapted basis functions of A2  symmetry.
 There are     4 symmetry adapted basis functions of B1  symmetry.
 There are     7 symmetry adapted basis functions of B2  symmetry.
    23 basis functions,    69 primitive gaussians,    23 cartesian basis functions
    13 alpha electrons       13 beta electrons
       nuclear repulsion energy        82.4261757579 Hartrees.
 NAtoms=   11 NActive=   11 NUniq=    5 SFac= 4.00D+00 NAtFMM=   60 NAOKFM=F Big=F
 Integral buffers will be    131072 words long.
 Raffenetti 1 integral format.
 Two-electron integral symmetry is turned on.
 One-electron integrals computed using PRISM.
 NBasis=    23 RedAO= T EigKep=  2.03D-01  NBF=    10     2     4     7
 NBsUse=    23 1.00D-06 EigRej= -1.00D+00 NBFU=    10     2     4     7
 Initial guess from the checkpoint file:  "Propane-HF-STO-3G.chk"
 B after Tr=    -0.000000   -0.000000   -0.000000
         Rot=    1.000000    0.000000    0.000000    0.000000 Ang=   0.00 deg.
 Initial guess orbital symmetries:
       Occupied  (A1) (B2) (A1) (A1) (B2) (A1) (B1) (A1) (B2) (A2)
                 (B1) (A1) (B2)
       Virtual   (A1) (B1) (B2) (A1) (A2) (A1) (B2) (B2) (A1) (B1)
 ExpMin= 1.69D-01 ExpMax= 7.16D+01 ExpMxC= 7.16D+01 IAcc=3 IRadAn=         5 AccDes= 0.00D+00
 Harris functional with IExCor=  205 and IRadAn=       5 diagonalized for initial guess.
 HarFok:  IExCor=  205 AccDes= 0.00D+00 IRadAn=         5 IDoV= 1 UseB2=F ITyADJ=14
 ICtDFT=  3500011 ScaDFX=  1.000000  1.000000  1.000000  1.000000
 FoFCou: FMM=F IPFlag=           0 FMFlag=      100000 FMFlg1=           0
         NFxFlg=           0 DoJE=T BraDBF=F KetDBF=T FulRan=T
         wScrn=  0.000000 ICntrl=       500 IOpCl=  0 I1Cent=   200000004 NGrid=           0
         NMat0=    1 NMatS0=      1 NMatT0=    0 NMatD0=    1 NMtDS0=    0 NMtDT0=    0
 Petite list used in FoFCou.
 Keep R1 ints in memory in symmetry-blocked form, NReq=4878729.
 Requested convergence on RMS density matrix=1.00D-08 within 128 cycles.
 Requested convergence on MAX density matrix=1.00D-06.
 Requested convergence on             energy=1.00D-06.
 No special actions if energy rises.
 SCF Done:  E(RHF) =  -116.886411544     A.U. after    7 cycles
            NFock=  7  Conv=0.45D-08     -V/T= 2.0085
 Calling FoFJK, ICntrl=      2127 FMM=F ISym2X=1 I1Cent= 0 IOpClX= 0 NMat=1 NMatS=1 NMatT=0.
 ***** Axes restored to original set *****
 -------------------------------------------------------------------
 Center     Atomic                   Forces (Hartrees/Bohr)
 Number     Number              X              Y              Z
 -------------------------------------------------------------------
      1        6          -0.000438469    0.001384459    0.000939733
      2        1          -0.000059269    0.000306949   -0.000426589
      3        1          -0.000426785   -0.000399954    0.000182506
      4        1           0.000548044   -0.000130761    0.000240763
      5        6           0.000113394   -0.000545472    0.000623055
      6        6           0.000367245   -0.001041842   -0.001331081
      7        1          -0.000603181    0.000045557   -0.000262692
      8        1           0.000519776    0.000355654   -0.000195584
      9        1          -0.000456016   -0.000311928    0.000264891
     10        1           0.000518813   -0.000042735    0.000323148
     11        1          -0.000083551    0.000380073   -0.000358150
 -------------------------------------------------------------------
 Cartesian Forces:  Max     0.001384459 RMS     0.000539744

 GradGradGradGradGradGradGradGradGradGradGradGradGradGradGradGradGradGrad
 Berny optimization.
 Using GEDIIS/GDIIS optimizer.
 FormGI is forming the generalized inverse of G from B-inverse, IUseBI=4.
 Internal  Forces:  Max     0.001335867 RMS     0.000425904
 Search for a local minimum.
 Step number   3 out of a maximum of   56
 All quantities printed in internal units (Hartrees-Bohrs-Radians)
 Mixed Optimization -- En-DIIS/RFO-DIIS
 Update second derivatives using D2CorX and points    1    2    3
 DE= -2.54D-04 DEPred=-2.75D-04 R= 9.22D-01
 TightC=F SS=  1.41D+00  RLast= 4.23D-02 DXNew= 8.4853D-01 1.2679D-01
 Trust test= 9.22D-01 RLast= 4.23D-02 DXMaxT set to 5.05D-01
 ITU=  1  1  0
 Use linear search instead of GDIIS.
     Eigenvalues ---    0.00237   0.00237   0.03483   0.04808   0.05483
     Eigenvalues ---    0.05513   0.05513   0.05568   0.08197   0.12118
     Eigenvalues ---    0.15868   0.16000   0.16000   0.16000   0.16000
     Eigenvalues ---    0.17083   0.22345   0.28519   0.34500   0.37133
     Eigenvalues ---    0.37230   0.37230   0.37230   0.37230   0.37230
     Eigenvalues ---    0.37230   0.41616
 RFO step:  Lambda=-2.16104747D-05 EMin= 2.36824221D-03
 Quartic linear search produced a step of -0.09257.
 Iteration  1 RMS(Cart)=  0.00245663 RMS(Int)=  0.00000138
 Iteration  2 RMS(Cart)=  0.00000162 RMS(Int)=  0.00000053
 Iteration  3 RMS(Cart)=  0.00000000 RMS(Int)=  0.00000053
 ClnCor:  largest displacement from symmetrization is 5.81D-11 for atom     4.
 Variable       Old X    -DE/DX   Delta X   Delta X   Delta X     New X
                                 (Linear)    (Quad)   (Total)
    R1        2.05307  -0.00035   0.00070  -0.00203  -0.00133   2.05174
    R2        2.05350  -0.00061   0.00051  -0.00236  -0.00185   2.05165
    R3        2.05350  -0.00061   0.00051  -0.00236  -0.00185   2.05165
    R4        2.90951   0.00134   0.00165   0.00152   0.00317   2.91268
    R5        2.90951   0.00134   0.00165   0.00152   0.00317   2.91268
    R6        2.05842  -0.00065   0.00062  -0.00264  -0.00202   2.05640
    R7        2.05842  -0.00065   0.00062  -0.00264  -0.00202   2.05640
    R8        2.05350  -0.00061   0.00051  -0.00236  -0.00185   2.05165
    R9        2.05350  -0.00061   0.00051  -0.00236  -0.00185   2.05165
   R10        2.05307  -0.00035   0.00070  -0.00203  -0.00133   2.05174
    A1        1.88960  -0.00019  -0.00039   0.00016  -0.00023   1.88937
    A2        1.88960  -0.00019  -0.00039   0.00016  -0.00023   1.88937
    A3        1.92822   0.00062   0.00142   0.00166   0.00308   1.93129
    A4        1.88856   0.00002  -0.00023  -0.00050  -0.00074   1.88782
    A5        1.93323  -0.00014  -0.00023  -0.00073  -0.00096   1.93227
    A6        1.93323  -0.00014  -0.00023  -0.00073  -0.00096   1.93227
    A7        1.96052   0.00088   0.00083   0.00270   0.00353   1.96406
    A8        1.90758  -0.00025  -0.00021  -0.00030  -0.00052   1.90706
    A9        1.90758  -0.00025  -0.00021  -0.00030  -0.00052   1.90706
   A10        1.90758  -0.00025  -0.00021  -0.00030  -0.00052   1.90706
   A11        1.90758  -0.00025  -0.00021  -0.00030  -0.00052   1.90706
   A12        1.87085   0.00008  -0.00003  -0.00169  -0.00172   1.86914
   A13        1.93323  -0.00014  -0.00023  -0.00073  -0.00096   1.93227
   A14        1.93323  -0.00014  -0.00023  -0.00073  -0.00096   1.93227
   A15        1.92822   0.00062   0.00142   0.00166   0.00308   1.93129
   A16        1.88856   0.00002  -0.00023  -0.00050  -0.00074   1.88782
   A17        1.88960  -0.00019  -0.00039   0.00016  -0.00023   1.88937
   A18        1.88960  -0.00019  -0.00039   0.00016  -0.00023   1.88937
    D1        3.14159  -0.00000   0.00000   0.00000   0.00000   3.14159
    D2       -1.02124   0.00009   0.00014   0.00119   0.00133  -1.01991
    D3        1.02124  -0.00009  -0.00014  -0.00119  -0.00133   1.01991
    D4       -1.04786   0.00008   0.00029   0.00080   0.00109  -1.04676
    D5        1.07249   0.00017   0.00043   0.00199   0.00242   1.07491
    D6        3.11498  -0.00001   0.00016  -0.00039  -0.00023   3.11474
    D7        1.04786  -0.00008  -0.00029  -0.00080  -0.00109   1.04676
    D8       -3.11498   0.00001  -0.00016   0.00039   0.00023  -3.11474
    D9       -1.07249  -0.00017  -0.00043  -0.00199  -0.00242  -1.07491
   D10        1.04786  -0.00008  -0.00029  -0.00080  -0.00109   1.04676
   D11       -1.04786   0.00008   0.00029   0.00080   0.00109  -1.04676
   D12        3.14159   0.00000   0.00000   0.00000   0.00000  -3.14159
   D13       -1.07249  -0.00017  -0.00043  -0.00199  -0.00242  -1.07491
   D14        3.11498  -0.00001   0.00016  -0.00039  -0.00023   3.11474
   D15        1.02124  -0.00009  -0.00014  -0.00119  -0.00133   1.01991
   D16       -3.11498   0.00001  -0.00016   0.00039   0.00023  -3.11474
   D17        1.07249   0.00017   0.00043   0.00199   0.00242   1.07491
   D18       -1.02124   0.00009   0.00014   0.00119   0.00133  -1.01991
         Item               Value     Threshold  Converged?
 Maximum Force            0.001336     0.000450     NO 
 RMS     Force            0.000426     0.000300     NO 
 Maximum Displacement     0.005508     0.001800     NO 
 RMS     Displacement     0.002456     0.001200     NO 
 Predicted change in Energy=-1.358728D-05
 GradGradGradGradGradGradGradGradGradGradGradGradGradGradGradGradGradGrad

                          Input orientation:                          
 ---------------------------------------------------------------------
 Center     Atomic      Atomic             Coordinates (Angstroms)
 Number     Number       Type             X           Y           Z
 ---------------------------------------------------------------------
      1          6           0       -0.868708   -0.032312   -0.716740
      2          1           0       -0.990923    0.181420    0.340709
      3          1           0       -0.117584    0.642616   -1.115487
      4          1           0       -1.809841    0.175310   -1.216618
      5          6           0       -0.450556   -1.500438   -0.929903
      6          6           0       -0.264656   -1.851338   -2.419195
      7          1           0        0.479476   -1.689803   -0.397584
      8          1           0       -1.205150   -2.155002   -0.498259
      9          1           0        0.503959   -1.229078   -2.867235
     10          1           0       -1.188299   -1.696384   -2.968366
     11          1           0        0.029098   -2.890242   -2.534108
 ---------------------------------------------------------------------
                    Distance matrix (angstroms):
                    1          2          3          4          5
     1  C    0.000000
     2  H    1.085734   0.000000
     3  H    1.085687   1.759526   0.000000
     4  H    1.085687   1.759526   1.758505   0.000000
     5  C    1.541325   2.176028   2.176693   2.176693   0.000000
     6  C    2.563609   3.503804   2.817995   2.817995   1.541325
     7  H    2.160263   2.491712   2.512378   3.064382   1.088201
     8  H    2.160263   2.491712   3.064382   2.512378   1.088201
     9  H    2.817995   3.809867   2.637836   3.170255   2.176693
    10  H    2.817995   3.809867   3.170255   2.637836   2.176693
    11  H    3.503804   4.328987   3.809867   3.809867   2.176028
                    6          7          8          9         10
     6  C    0.000000
     7  H    2.160263   0.000000
     8  H    2.160263   1.750573   0.000000
     9  H    1.085687   2.512378   3.064382   0.000000
    10  H    1.085687   3.064382   2.512378   1.758505   0.000000
    11  H    1.085734   2.491712   2.491712   1.759526   1.759526
                   11
    11  H    0.000000
 Stoichiometry    C3H8
 Framework group  C2V[C2(C),SGV(C2H2),SGV'(H2),X(H4)]
 Deg. of freedom     9
 Full point group                 C2V     NOp   4
 Largest Abelian subgroup         C2V     NOp   4
 Largest concise Abelian subgroup C2V     NOp   4
                         Standard orientation:                         
 ---------------------------------------------------------------------
 Center     Atomic      Atomic             Coordinates (Angstroms)
 Number     Number       Type             X           Y           Z
 ---------------------------------------------------------------------
      1          6           0       -0.000000    1.281804   -0.263921
      2          1           0       -0.000000    2.164493    0.368279
      3          1           0        0.879252    1.318918   -0.899731
      4          1           0       -0.879252    1.318918   -0.899731
      5          6           0        0.000000    0.000000    0.592034
      6          6           0        0.000000   -1.281804   -0.263921
      7          1           0        0.875287    0.000000    1.238606
      8          1           0       -0.875287    0.000000    1.238606
      9          1           0        0.879252   -1.318918   -0.899731
     10          1           0       -0.879252   -1.318918   -0.899731
     11          1           0        0.000000   -2.164493    0.368279
 ---------------------------------------------------------------------
 Rotational constants (GHZ):          29.4435977           8.3465671           7.3894382
 Standard basis: STO-3G (5D, 7F)
 There are    10 symmetry adapted cartesian basis functions of A1  symmetry.
 There are     2 symmetry adapted cartesian basis functions of A2  symmetry.
 There are     4 symmetry adapted cartesian basis functions of B1  symmetry.
 There are     7 symmetry adapted cartesian basis functions of B2  symmetry.
 There are    10 symmetry adapted basis functions of A1  symmetry.
 There are     2 symmetry adapted basis functions of A2  symmetry.
 There are     4 symmetry adapted basis functions of B1  symmetry.
 There are     7 symmetry adapted basis functions of B2  symmetry.
    23 basis functions,    69 primitive gaussians,    23 cartesian basis functions
    13 alpha electrons       13 beta electrons
       nuclear repulsion energy        82.3864701213 Hartrees.
 NAtoms=   11 NActive=   11 NUniq=    5 SFac= 4.00D+00 NAtFMM=   60 NAOKFM=F Big=F
 Integral buffers will be    131072 words long.
 Raffenetti 1 integral format.
 Two-electron integral symmetry is turned on.
 One-electron integrals computed using PRISM.
 NBasis=    23 RedAO= T EigKep=  2.03D-01  NBF=    10     2     4     7
 NBsUse=    23 1.00D-06 EigRej= -1.00D+00 NBFU=    10     2     4     7
 Initial guess from the checkpoint file:  "Propane-HF-STO-3G.chk"
 B after Tr=     0.000000    0.000000    0.000000
         Rot=    1.000000   -0.000000   -0.000000   -0.000000 Ang=   0.00 deg.
 Initial guess orbital symmetries:
       Occupied  (A1) (B2) (A1) (A1) (B2) (A1) (B1) (A1) (B2) (A2)
                 (A1) (B1) (B2)
       Virtual   (A1) (B1) (B2) (A1) (A2) (A1) (B2) (B2) (A1) (B1)
 Keep R1 ints in memory in symmetry-blocked form, NReq=4878729.
 Requested convergence on RMS density matrix=1.00D-08 within 128 cycles.
 Requested convergence on MAX density matrix=1.00D-06.
 Requested convergence on             energy=1.00D-06.
 No special actions if energy rises.
 SCF Done:  E(RHF) =  -116.886421056     A.U. after    6 cycles
            NFock=  6  Conv=0.93D-08     -V/T= 2.0085
 Calling FoFJK, ICntrl=      2127 FMM=F ISym2X=1 I1Cent= 0 IOpClX= 0 NMat=1 NMatS=1 NMatT=0.
 ***** Axes restored to original set *****
 -------------------------------------------------------------------
 Center     Atomic                   Forces (Hartrees/Bohr)
 Number     Number              X              Y              Z
 -------------------------------------------------------------------
      1        6           0.000094379   -0.000294839   -0.000216886
      2        1           0.000000284   -0.000054311    0.000246204
      3        1           0.000221579    0.000182617   -0.000098745
      4        1          -0.000271289    0.000046515   -0.000128199
      5        6          -0.000021427    0.000103071   -0.000117731
      6        6          -0.000082564    0.000238002    0.000281808
      7        1           0.000338521   -0.000004416    0.000124830
      8        1          -0.000300029   -0.000180747    0.000086670
      9        1           0.000227136    0.000165882   -0.000114407
     10        1          -0.000265732    0.000029780   -0.000143861
     11        1           0.000059142   -0.000231553    0.000080319
 -------------------------------------------------------------------
 Cartesian Forces:  Max     0.000338521 RMS     0.000179816

 GradGradGradGradGradGradGradGradGradGradGradGradGradGradGradGradGradGrad
 Berny optimization.
 Using GEDIIS/GDIIS optimizer.
 FormGI is forming the generalized inverse of G from B-inverse, IUseBI=4.
 Internal  Forces:  Max     0.000351149 RMS     0.000139485
 Search for a local minimum.
 Step number   4 out of a maximum of   56
 All quantities printed in internal units (Hartrees-Bohrs-Radians)
 Mixed Optimization -- En-DIIS/RFO-DIIS
 Swapping is turned off.
 Update second derivatives using D2CorX and points    1    2    3    4
 DE= -9.51D-06 DEPred=-1.36D-05 R= 7.00D-01
 TightC=F SS=  1.41D+00  RLast= 1.10D-02 DXNew= 8.4853D-01 3.3054D-02
 Trust test= 7.00D-01 RLast= 1.10D-02 DXMaxT set to 5.05D-01
 ITU=  1  1  1  0
     Eigenvalues ---    0.00237   0.00237   0.03461   0.04936   0.05493
     Eigenvalues ---    0.05495   0.05495   0.05669   0.08233   0.12145
     Eigenvalues ---    0.15749   0.16000   0.16000   0.16000   0.16000
     Eigenvalues ---    0.17340   0.22438   0.28519   0.36478   0.37227
     Eigenvalues ---    0.37230   0.37230   0.37230   0.37230   0.37230
     Eigenvalues ---    0.40406   0.46245
 En-DIIS/RFO-DIIS/Sim-DIIS IScMMF=       -3 using points:     4    3
 RFO step:  Lambda=-2.24835683D-06.
 DidBck=T Rises=F RFO-DIIS coefs:    0.74914    0.25086
 Iteration  1 RMS(Cart)=  0.00048101 RMS(Int)=  0.00000017
 Iteration  2 RMS(Cart)=  0.00000015 RMS(Int)=  0.00000013
 ClnCor:  largest displacement from symmetrization is 9.92D-09 for atom    10.
 Variable       Old X    -DE/DX   Delta X   Delta X   Delta X     New X
                                 (Linear)    (Quad)   (Total)
    R1        2.05174   0.00023   0.00033   0.00017   0.00050   2.05224
    R2        2.05165   0.00030   0.00046   0.00016   0.00063   2.05228
    R3        2.05165   0.00030   0.00046   0.00016   0.00063   2.05228
    R4        2.91268  -0.00015  -0.00080   0.00059  -0.00021   2.91247
    R5        2.91268  -0.00015  -0.00080   0.00059  -0.00021   2.91247
    R6        2.05640   0.00035   0.00051   0.00022   0.00073   2.05713
    R7        2.05640   0.00035   0.00051   0.00022   0.00073   2.05713
    R8        2.05165   0.00030   0.00046   0.00016   0.00063   2.05228
    R9        2.05165   0.00030   0.00046   0.00016   0.00063   2.05228
   R10        2.05174   0.00023   0.00033   0.00017   0.00050   2.05224
    A1        1.88937   0.00005   0.00006   0.00004   0.00010   1.88947
    A2        1.88937   0.00005   0.00006   0.00004   0.00010   1.88947
    A3        1.93129  -0.00016  -0.00077   0.00008  -0.00069   1.93060
    A4        1.88782   0.00001   0.00019   0.00009   0.00027   1.88809
    A5        1.93227   0.00002   0.00024  -0.00012   0.00012   1.93239
    A6        1.93227   0.00002   0.00024  -0.00012   0.00012   1.93239
    A7        1.96406  -0.00019  -0.00089   0.00014  -0.00075   1.96331
    A8        1.90706   0.00005   0.00013  -0.00012   0.00001   1.90707
    A9        1.90706   0.00005   0.00013  -0.00012   0.00001   1.90707
   A10        1.90706   0.00005   0.00013  -0.00012   0.00001   1.90707
   A11        1.90706   0.00005   0.00013  -0.00012   0.00001   1.90707
   A12        1.86914   0.00002   0.00043   0.00037   0.00080   1.86994
   A13        1.93227   0.00002   0.00024  -0.00012   0.00012   1.93239
   A14        1.93227   0.00002   0.00024  -0.00012   0.00012   1.93239
   A15        1.93129  -0.00016  -0.00077   0.00008  -0.00069   1.93060
   A16        1.88782   0.00001   0.00019   0.00009   0.00027   1.88809
   A17        1.88937   0.00005   0.00006   0.00004   0.00010   1.88947
   A18        1.88937   0.00005   0.00006   0.00004   0.00010   1.88947
    D1        3.14159   0.00000   0.00000   0.00000   0.00000  -3.14159
    D2       -1.01991  -0.00004  -0.00033  -0.00015  -0.00048  -1.02040
    D3        1.01991   0.00004   0.00033   0.00015   0.00048   1.02040
    D4       -1.04676  -0.00002  -0.00027   0.00002  -0.00025  -1.04701
    D5        1.07491  -0.00006  -0.00061  -0.00013  -0.00073   1.07418
    D6        3.11474   0.00001   0.00006   0.00018   0.00023   3.11498
    D7        1.04676   0.00002   0.00027  -0.00002   0.00025   1.04701
    D8       -3.11474  -0.00001  -0.00006  -0.00018  -0.00023  -3.11498
    D9       -1.07491   0.00006   0.00061   0.00013   0.00073  -1.07418
   D10        1.04676   0.00002   0.00027  -0.00002   0.00025   1.04701
   D11       -1.04676  -0.00002  -0.00027   0.00002  -0.00025  -1.04701
   D12        3.14159  -0.00000   0.00000  -0.00000   0.00000   3.14159
   D13       -1.07491   0.00006   0.00061   0.00013   0.00073  -1.07418
   D14        3.11474   0.00001   0.00006   0.00018   0.00023   3.11498
   D15        1.01991   0.00004   0.00033   0.00015   0.00048   1.02040
   D16       -3.11474  -0.00001  -0.00006  -0.00018  -0.00023  -3.11498
   D17        1.07491  -0.00006  -0.00061  -0.00013  -0.00073   1.07418
   D18       -1.01991  -0.00004  -0.00033  -0.00015  -0.00048  -1.02040
         Item               Value     Threshold  Converged?
 Maximum Force            0.000351     0.000450     YES
 RMS     Force            0.000139     0.000300     YES
 Maximum Displacement     0.001074     0.001800     YES
 RMS     Displacement     0.000481     0.001200     YES
 Predicted change in Energy=-1.124182D-06
 Optimization completed.
    -- Stationary point found.
                           ----------------------------
                           !   Optimized Parameters   !
                           ! (Angstroms and Degrees)  !
 --------------------------                            --------------------------
 ! Name  Definition              Value          Derivative Info.                !
 --------------------------------------------------------------------------------
 ! R1    R(1,2)                  1.0857         -DE/DX =    0.0002              !
 ! R2    R(1,3)                  1.0857         -DE/DX =    0.0003              !
 ! R3    R(1,4)                  1.0857         -DE/DX =    0.0003              !
 ! R4    R(1,5)                  1.5413         -DE/DX =   -0.0002              !
 ! R5    R(5,6)                  1.5413         -DE/DX =   -0.0002              !
 ! R6    R(5,7)                  1.0882         -DE/DX =    0.0004              !
 ! R7    R(5,8)                  1.0882         -DE/DX =    0.0004              !
 ! R8    R(6,9)                  1.0857         -DE/DX =    0.0003              !
 ! R9    R(6,10)                 1.0857         -DE/DX =    0.0003              !
 ! R10   R(6,11)                 1.0857         -DE/DX =    0.0002              !
 ! A1    A(2,1,3)              108.2527         -DE/DX =    0.0001              !
 ! A2    A(2,1,4)              108.2527         -DE/DX =    0.0001              !
 ! A3    A(2,1,5)              110.655          -DE/DX =   -0.0002              !
 ! A4    A(3,1,4)              108.1641         -DE/DX =    0.0                 !
 ! A5    A(3,1,5)              110.7107         -DE/DX =    0.0                 !
 ! A6    A(4,1,5)              110.7107         -DE/DX =    0.0                 !
 ! A7    A(1,5,6)              112.5321         -DE/DX =   -0.0002              !
 ! A8    A(1,5,7)              109.2665         -DE/DX =    0.0                 !
 ! A9    A(1,5,8)              109.2665         -DE/DX =    0.0                 !
 ! A10   A(6,5,7)              109.2665         -DE/DX =    0.0                 !
 ! A11   A(6,5,8)              109.2665         -DE/DX =    0.0                 !
 ! A12   A(7,5,8)              107.0936         -DE/DX =    0.0                 !
 ! A13   A(5,6,9)              110.7107         -DE/DX =    0.0                 !
 ! A14   A(5,6,10)             110.7107         -DE/DX =    0.0                 !
 ! A15   A(5,6,11)             110.655          -DE/DX =   -0.0002              !
 ! A16   A(9,6,10)             108.1641         -DE/DX =    0.0                 !
 ! A17   A(9,6,11)             108.2527         -DE/DX =    0.0001              !
 ! A18   A(10,6,11)            108.2527         -DE/DX =    0.0001              !
 ! D1    D(2,1,5,6)           -180.0            -DE/DX =    0.0                 !
 ! D2    D(2,1,5,7)            -58.4368         -DE/DX =    0.0                 !
 ! D3    D(2,1,5,8)             58.4368         -DE/DX =    0.0                 !
 ! D4    D(3,1,5,6)            -59.9752         -DE/DX =    0.0                 !
 ! D5    D(3,1,5,7)             61.588          -DE/DX =   -0.0001              !
 ! D6    D(3,1,5,8)            178.4616         -DE/DX =    0.0                 !
 ! D7    D(4,1,5,6)             59.9752         -DE/DX =    0.0                 !
 ! D8    D(4,1,5,7)           -178.4616         -DE/DX =    0.0                 !
 ! D9    D(4,1,5,8)            -61.588          -DE/DX =    0.0001              !
 ! D10   D(1,5,6,9)             59.9752         -DE/DX =    0.0                 !
 ! D11   D(1,5,6,10)           -59.9752         -DE/DX =    0.0                 !
 ! D12   D(1,5,6,11)           180.0            -DE/DX =    0.0                 !
 ! D13   D(7,5,6,9)            -61.588          -DE/DX =    0.0001              !
 ! D14   D(7,5,6,10)           178.4616         -DE/DX =    0.0                 !
 ! D15   D(7,5,6,11)            58.4368         -DE/DX =    0.0                 !
 ! D16   D(8,5,6,9)           -178.4616         -DE/DX =    0.0                 !
 ! D17   D(8,5,6,10)            61.588          -DE/DX =   -0.0001              !
 ! D18   D(8,5,6,11)           -58.4368         -DE/DX =    0.0                 !
 --------------------------------------------------------------------------------
 GradGradGradGradGradGradGradGradGradGradGradGradGradGradGradGradGradGrad

                          Input orientation:                          
 ---------------------------------------------------------------------
 Center     Atomic      Atomic             Coordinates (Angstroms)
 Number     Number       Type             X           Y           Z
 ---------------------------------------------------------------------
      1          6           0       -0.868708   -0.032312   -0.716740
      2          1           0       -0.990923    0.181420    0.340709
      3          1           0       -0.117584    0.642616   -1.115487
      4          1           0       -1.809841    0.175310   -1.216618
      5          6           0       -0.450556   -1.500438   -0.929903
      6          6           0       -0.264656   -1.851338   -2.419195
      7          1           0        0.479476   -1.689803   -0.397584
      8          1           0       -1.205150   -2.155002   -0.498259
      9          1           0        0.503959   -1.229078   -2.867235
     10          1           0       -1.188299   -1.696384   -2.968366
     11          1           0        0.029098   -2.890242   -2.534108
 ---------------------------------------------------------------------
                    Distance matrix (angstroms):
                    1          2          3          4          5
     1  C    0.000000
     2  H    1.085734   0.000000
     3  H    1.085687   1.759526   0.000000
     4  H    1.085687   1.759526   1.758505   0.000000
     5  C    1.541325   2.176028   2.176693   2.176693   0.000000
     6  C    2.563609   3.503804   2.817995   2.817995   1.541325
     7  H    2.160263   2.491712   2.512378   3.064382   1.088201
     8  H    2.160263   2.491712   3.064382   2.512378   1.088201
     9  H    2.817995   3.809867   2.637836   3.170255   2.176693
    10  H    2.817995   3.809867   3.170255   2.637836   2.176693
    11  H    3.503804   4.328987   3.809867   3.809867   2.176028
                    6          7          8          9         10
     6  C    0.000000
     7  H    2.160263   0.000000
     8  H    2.160263   1.750573   0.000000
     9  H    1.085687   2.512378   3.064382   0.000000
    10  H    1.085687   3.064382   2.512378   1.758505   0.000000
    11  H    1.085734   2.491712   2.491712   1.759526   1.759526
                   11
    11  H    0.000000
 Stoichiometry    C3H8
 Framework group  C2V[C2(C),SGV(C2H2),SGV'(H2),X(H4)]
 Deg. of freedom     9
 Full point group                 C2V     NOp   4
 Largest Abelian subgroup         C2V     NOp   4
 Largest concise Abelian subgroup C2V     NOp   4
                         Standard orientation:                         
 ---------------------------------------------------------------------
 Center     Atomic      Atomic             Coordinates (Angstroms)
 Number     Number       Type             X           Y           Z
 ---------------------------------------------------------------------
      1          6           0       -0.000000    1.281804   -0.263921
      2          1           0       -0.000000    2.164493    0.368279
      3          1           0        0.879252    1.318918   -0.899731
      4          1           0       -0.879252    1.318918   -0.899731
      5          6           0       -0.000000    0.000000    0.592034
      6          6           0       -0.000000   -1.281804   -0.263921
      7          1           0        0.875287    0.000000    1.238606
      8          1           0       -0.875287    0.000000    1.238606
      9          1           0        0.879252   -1.318918   -0.899731
     10          1           0       -0.879252   -1.318918   -0.899731
     11          1           0       -0.000000   -2.164493    0.368279
 ---------------------------------------------------------------------
 Rotational constants (GHZ):          29.4435977           8.3465671           7.3894382

 **********************************************************************

            Population analysis using the SCF Density.

 **********************************************************************

 Orbital symmetries:
       Occupied  (A1) (B2) (A1) (A1) (B2) (A1) (B1) (A1) (B2) (A2)
                 (A1) (B1) (B2)
       Virtual   (A1) (B1) (B2) (A1) (A2) (A1) (B2) (B2) (A1) (B1)
 The electronic state is 1-A1.
 Alpha  occ. eigenvalues --  -11.04162 -11.03205 -11.03198  -1.01205  -0.89125
 Alpha  occ. eigenvalues --   -0.77072  -0.59722  -0.56668  -0.52251  -0.50634
 Alpha  occ. eigenvalues --   -0.44122  -0.44034  -0.43622
 Alpha virt. eigenvalues --    0.62611   0.63127   0.65914   0.70972   0.72466
 Alpha virt. eigenvalues --    0.76359   0.77017   0.78351   0.79342   0.81756
          Condensed to atoms (all electrons):
               1          2          3          4          5          6
     1  C    4.731167   0.384753   0.384388   0.384388   0.362393  -0.021741
     2  H    0.384753   0.624123  -0.021936  -0.021936  -0.019643   0.001192
     3  H    0.384388  -0.021936   0.625537  -0.022193  -0.020555  -0.001922
     4  H    0.384388  -0.021936  -0.022193   0.625537  -0.020555  -0.001922
     5  C    0.362393  -0.019643  -0.020555  -0.020555   4.719878   0.362393
     6  C   -0.021741   0.001192  -0.001922  -0.001922   0.362393   4.731167
     7  H   -0.022343  -0.002096  -0.002185   0.001855   0.384088  -0.022343
     8  H   -0.022343  -0.002096   0.001855  -0.002185   0.384088  -0.022343
     9  H   -0.001922   0.000009   0.000361  -0.000010  -0.020555   0.384388
    10  H   -0.001922   0.000009  -0.000010   0.000361  -0.020555   0.384388
    11  H    0.001192  -0.000032   0.000009   0.000009  -0.019643   0.384753
               7          8          9         10         11
     1  C   -0.022343  -0.022343  -0.001922  -0.001922   0.001192
     2  H   -0.002096  -0.002096   0.000009   0.000009  -0.000032
     3  H   -0.002185   0.001855   0.000361  -0.000010   0.000009
     4  H    0.001855  -0.002185  -0.000010   0.000361   0.000009
     5  C    0.384088   0.384088  -0.020555  -0.020555  -0.019643
     6  C   -0.022343  -0.022343   0.384388   0.384388   0.384753
     7  H    0.636642  -0.023919  -0.002185   0.001855  -0.002096
     8  H   -0.023919   0.636642   0.001855  -0.002185  -0.002096
     9  H   -0.002185   0.001855   0.625537  -0.022193  -0.021936
    10  H    0.001855  -0.002185  -0.022193   0.625537  -0.021936
    11  H   -0.002096  -0.002096  -0.021936  -0.021936   0.624123
 Mulliken charges:
               1
     1  C   -0.178011
     2  H    0.057654
     3  H    0.056649
     4  H    0.056649
     5  C   -0.091335
     6  C   -0.178011
     7  H    0.052726
     8  H    0.052726
     9  H    0.056649
    10  H    0.056649
    11  H    0.057654
 Sum of Mulliken charges =   0.00000
 Mulliken charges with hydrogens summed into heavy atoms:
               1
     1  C   -0.007058
     5  C    0.014116
     6  C   -0.007058
 Electronic spatial extent (au):  <R**2>=            224.9608
 Charge=              0.0000 electrons
 Dipole moment (field-independent basis, Debye):
    X=             -0.0000    Y=             -0.0000    Z=              0.0244  Tot=              0.0244
 Quadrupole moment (field-independent basis, Debye-Ang):
   XX=            -20.2462   YY=            -20.7915   ZZ=            -20.4905
   XY=              0.0000   XZ=             -0.0000   YZ=             -0.0000
 Traceless Quadrupole moment (field-independent basis, Debye-Ang):
   XX=              0.2632   YY=             -0.2821   ZZ=              0.0189
   XY=              0.0000   XZ=             -0.0000   YZ=             -0.0000
 Octapole moment (field-independent basis, Debye-Ang**2):
  XXX=             -0.0000  YYY=             -0.0000  ZZZ=              0.0093  XYY=             -0.0000
  XXY=             -0.0000  XXZ=             -0.4993  XZZ=             -0.0000  YZZ=              0.0000
  YYZ=              1.0013  XYZ=             -0.0000
 Hexadecapole moment (field-independent basis, Debye-Ang**3):
 XXXX=            -36.8551 YYYY=           -187.0690 ZZZZ=            -61.8677 XXXY=              0.0000
 XXXZ=             -0.0000 YYYX=              0.0000 YYYZ=             -0.0000 ZZZX=             -0.0000
 ZZZY=             -0.0000 XXYY=            -38.0301 XXZZ=            -14.6245 YYZZ=            -41.3301
 XXYZ=             -0.0000 YYXZ=             -0.0000 ZZXY=              0.0000
 N-N= 8.238647012134D+01 E-N=-4.358624296677D+02  KE= 1.158970143585D+02
 Symmetry A1   KE= 7.166730417946D+01
 Symmetry A2   KE= 2.013712406811D+00
 Symmetry B1   KE= 3.875523768158D+00
 Symmetry B2   KE= 3.834047400406D+01
 ******************************Gaussian NBO Version 3.1******************************
             N A T U R A L   A T O M I C   O R B I T A L   A N D
          N A T U R A L   B O N D   O R B I T A L   A N A L Y S I S
 ******************************Gaussian NBO Version 3.1******************************
       /RESON  / : Allow strongly delocalized NBO set

 Analyzing the SCF density

 Job title: Propane-HF-STO-3G                                               

 Storage needed:      1984 in NPA,      2311 in NBO (1342176565 available)
 GSVD:  LWork=        -713 too small for GESVD, short by        2990 words or        2990 for optimal perf.


 NATURAL POPULATIONS:  Natural atomic orbital occupancies 
                                                          
   NAO  Atom  No  lang   Type(AO)    Occupancy      Energy
 ----------------------------------------------------------
     1    C    1  S      Cor( 1S)     1.99997     -10.96417
     2    C    1  S      Val( 2S)     1.07302      -0.17512
     3    C    1  px     Val( 2p)     1.03270       0.08459
     4    C    1  py     Val( 2p)     1.00238       0.08633
     5    C    1  pz     Val( 2p)     1.01907       0.08633
 
     6    H    2  S      Val( 1S)     0.96065       0.07841
 
     7    H    3  S      Val( 1S)     0.96182       0.07835
 
     8    H    4  S      Val( 1S)     0.96182       0.07835
 
     9    C    5  S      Cor( 1S)     1.99996     -10.97974
    10    C    5  S      Val( 2S)     1.07307      -0.18144
    11    C    5  px     Val( 2p)     1.02029       0.09490
    12    C    5  py     Val( 2p)     0.95629       0.10473
    13    C    5  pz     Val( 2p)     0.98696       0.09794
 
    14    C    6  S      Cor( 1S)     1.99997     -10.96417
    15    C    6  S      Val( 2S)     1.07302      -0.17512
    16    C    6  px     Val( 2p)     1.03270       0.08459
    17    C    6  py     Val( 2p)     1.00238       0.08633
    18    C    6  pz     Val( 2p)     1.01907       0.08633
 
    19    H    7  S      Val( 1S)     0.97029       0.07320
 
    20    H    8  S      Val( 1S)     0.97029       0.07320
 
    21    H    9  S      Val( 1S)     0.96182       0.07835
 
    22    H   10  S      Val( 1S)     0.96182       0.07835
 
    23    H   11  S      Val( 1S)     0.96065       0.07841


 Summary of Natural Population Analysis:                  
                                                          
                                       Natural Population 
                Natural  -----------------------------------------------
    Atom  No    Charge         Core      Valence    Rydberg      Total
 -----------------------------------------------------------------------
      C    1   -0.12713      1.99997     4.12717    0.00000     6.12713
      H    2    0.03935      0.00000     0.96065    0.00000     0.96065
      H    3    0.03818      0.00000     0.96182    0.00000     0.96182
      H    4    0.03818      0.00000     0.96182    0.00000     0.96182
      C    5   -0.03657      1.99996     4.03661    0.00000     6.03657
      C    6   -0.12713      1.99997     4.12717    0.00000     6.12713
      H    7    0.02971      0.00000     0.97029    0.00000     0.97029
      H    8    0.02971      0.00000     0.97029    0.00000     0.97029
      H    9    0.03818      0.00000     0.96182    0.00000     0.96182
      H   10    0.03818      0.00000     0.96182    0.00000     0.96182
      H   11    0.03935      0.00000     0.96065    0.00000     0.96065
 =======================================================================
   * Total *    0.00000      5.99989    20.00011    0.00000    26.00000

                                 Natural Population      
 --------------------------------------------------------
   Core                       5.99989 ( 99.9981% of   6)
   Valence                   20.00011 (100.0006% of  20)
   Natural Minimal Basis     26.00000 (100.0000% of  26)
   Natural Rydberg Basis      0.00000 (  0.0000% of  26)
 --------------------------------------------------------

    Atom  No          Natural Electron Configuration
 ----------------------------------------------------------------------------
      C    1      [core]2S( 1.07)2p( 3.05)
      H    2            1S( 0.96)
      H    3            1S( 0.96)
      H    4            1S( 0.96)
      C    5      [core]2S( 1.07)2p( 2.96)
      C    6      [core]2S( 1.07)2p( 3.05)
      H    7            1S( 0.97)
      H    8            1S( 0.97)
      H    9            1S( 0.96)
      H   10            1S( 0.96)
      H   11            1S( 0.96)


 NATURAL BOND ORBITAL ANALYSIS:

                       Occupancies       Lewis Structure    Low   High
           Occ.    -------------------  -----------------   occ   occ
  Cycle   Thresh.   Lewis   Non-Lewis     CR  BD  3C  LP    (L)   (NL)   Dev
 =============================================================================
   1(1)    1.90    25.94646   0.05354      3  10   0   0     0      0    0.01
 -----------------------------------------------------------------------------

 Structure accepted: No low occupancy Lewis orbitals

 --------------------------------------------------------
   Core                      5.99989 ( 99.998% of   6)
   Valence Lewis            19.94657 ( 99.733% of  20)
  ==================       ============================
   Total Lewis              25.94646 ( 99.794% of  26)
  -----------------------------------------------------
   Valence non-Lewis         0.05354 (  0.206% of  26)
   Rydberg non-Lewis         0.00000 (  0.000% of  26)
  ==================       ============================
   Total non-Lewis           0.05354 (  0.206% of  26)
 --------------------------------------------------------


       (Occupancy)   Bond orbital/ Coefficients/ Hybrids
 ---------------------------------------------------------------------------------
     1. (1.99532) BD ( 1) C   1 - H   2  
                ( 51.96%)   0.7208* C   1 s( 25.05%)p 2.99( 74.95%)
                                           -0.0000  0.5005  0.0000  0.6928  0.5192
                ( 48.04%)   0.6931* H   2 s(100.00%)
                                            1.0000
     2. (1.99593) BD ( 1) C   1 - H   3  
                ( 51.93%)   0.7206* C   1 s( 24.94%)p 3.01( 75.06%)
                                           -0.0000  0.4994  0.7071  0.0142 -0.5003
                ( 48.07%)   0.6933* H   3 s(100.00%)
                                            1.0000
     3. (1.99593) BD ( 1) C   1 - H   4  
                ( 51.93%)   0.7206* C   1 s( 24.94%)p 3.01( 75.06%)
                                           -0.0000  0.4994 -0.7071  0.0142 -0.5003
                ( 48.07%)   0.6933* H   4 s(100.00%)
                                            1.0000
     4. (1.99474) BD ( 1) C   1 - C   5  
                ( 50.53%)   0.7109* C   1 s( 25.06%)p 2.99( 74.94%)
                                            0.0000  0.5006 -0.0000 -0.7209  0.4793
                ( 49.47%)   0.7033* C   5 s( 25.03%)p 2.99( 74.97%)
                                           -0.0000  0.5003  0.0000  0.7071 -0.4997
     5. (1.99474) BD ( 1) C   5 - C   6  
                ( 49.47%)   0.7033* C   5 s( 25.03%)p 2.99( 74.97%)
                                           -0.0000  0.5003  0.0000 -0.7071 -0.4997
                ( 50.53%)   0.7109* C   6 s( 25.06%)p 2.99( 74.94%)
                                            0.0000  0.5006 -0.0000  0.7209  0.4793
     6. (1.99136) BD ( 1) C   5 - H   7  
                ( 51.46%)   0.7174* C   5 s( 24.97%)p 3.01( 75.03%)
                                           -0.0000  0.4997  0.7071 -0.0000  0.5003
                ( 48.54%)   0.6967* H   7 s(100.00%)
                                            1.0000
     7. (1.99136) BD ( 1) C   5 - H   8  
                ( 51.46%)   0.7174* C   5 s( 24.97%)p 3.01( 75.03%)
                                           -0.0000  0.4997 -0.7071 -0.0000  0.5003
                ( 48.54%)   0.6967* H   8 s(100.00%)
                                            1.0000
     8. (1.99593) BD ( 1) C   6 - H   9  
                ( 51.93%)   0.7206* C   6 s( 24.94%)p 3.01( 75.06%)
                                           -0.0000  0.4994  0.7071 -0.0142 -0.5003
                ( 48.07%)   0.6933* H   9 s(100.00%)
                                            1.0000
     9. (1.99593) BD ( 1) C   6 - H  10  
                ( 51.93%)   0.7206* C   6 s( 24.94%)p 3.01( 75.06%)
                                           -0.0000  0.4994 -0.7071 -0.0142 -0.5003
                ( 48.07%)   0.6933* H  10 s(100.00%)
                                            1.0000
    10. (1.99532) BD ( 1) C   6 - H  11  
                ( 51.96%)   0.7208* C   6 s( 25.05%)p 2.99( 74.95%)
                                           -0.0000  0.5005  0.0000 -0.6928  0.5192
                ( 48.04%)   0.6931* H  11 s(100.00%)
                                            1.0000
    11. (1.99996) CR ( 1) C   1           s(100.00%)
                                            1.0000 -0.0000 -0.0000  0.0000 -0.0000
    12. (1.99996) CR ( 1) C   5           s(100.00%)
                                            1.0000  0.0000 -0.0000 -0.0000 -0.0000
    13. (1.99996) CR ( 1) C   6           s(100.00%)
                                            1.0000 -0.0000 -0.0000 -0.0000 -0.0000
    14. (0.00396) BD*( 1) C   1 - H   2  
                ( 48.04%)   0.6931* C   1 s( 25.05%)p 2.99( 74.95%)
                                            0.0000 -0.5005 -0.0000 -0.6928 -0.5192
                ( 51.96%)  -0.7208* H   2 s(100.00%)
                                           -1.0000
    15. (0.00465) BD*( 1) C   1 - H   3  
                ( 48.07%)   0.6933* C   1 s( 24.94%)p 3.01( 75.06%)
                                            0.0000 -0.4994 -0.7071 -0.0142  0.5003
                ( 51.93%)  -0.7206* H   3 s(100.00%)
                                           -1.0000
    16. (0.00465) BD*( 1) C   1 - H   4  
                ( 48.07%)   0.6933* C   1 s( 24.94%)p 3.01( 75.06%)
                                            0.0000 -0.4994  0.7071 -0.0142  0.5003
                ( 51.93%)  -0.7206* H   4 s(100.00%)
                                           -1.0000
    17. (0.00617) BD*( 1) C   1 - C   5  
                ( 49.47%)   0.7033* C   1 s( 25.06%)p 2.99( 74.94%)
                                           -0.0000 -0.5006  0.0000  0.7209 -0.4793
                ( 50.53%)  -0.7109* C   5 s( 25.03%)p 2.99( 74.97%)
                                            0.0000 -0.5003 -0.0000 -0.7071  0.4997
    18. (0.00617) BD*( 1) C   5 - C   6  
                ( 50.53%)   0.7109* C   5 s( 25.03%)p 2.99( 74.97%)
                                           -0.0000  0.5003  0.0000 -0.7071 -0.4997
                ( 49.47%)  -0.7033* C   6 s( 25.06%)p 2.99( 74.94%)
                                            0.0000  0.5006 -0.0000  0.7209  0.4793
    19. (0.00734) BD*( 1) C   5 - H   7  
                ( 48.54%)   0.6967* C   5 s( 24.97%)p 3.01( 75.03%)
                                            0.0000 -0.4997 -0.7071  0.0000 -0.5003
                ( 51.46%)  -0.7174* H   7 s(100.00%)
                                           -1.0000
    20. (0.00734) BD*( 1) C   5 - H   8  
                ( 48.54%)   0.6967* C   5 s( 24.97%)p 3.01( 75.03%)
                                            0.0000 -0.4997  0.7071  0.0000 -0.5003
                ( 51.46%)  -0.7174* H   8 s(100.00%)
                                           -1.0000
    21. (0.00465) BD*( 1) C   6 - H   9  
                ( 48.07%)   0.6933* C   6 s( 24.94%)p 3.01( 75.06%)
                                            0.0000 -0.4994 -0.7071  0.0142  0.5003
                ( 51.93%)  -0.7206* H   9 s(100.00%)
                                           -1.0000
    22. (0.00465) BD*( 1) C   6 - H  10  
                ( 48.07%)   0.6933* C   6 s( 24.94%)p 3.01( 75.06%)
                                            0.0000 -0.4994  0.7071  0.0142  0.5003
                ( 51.93%)  -0.7206* H  10 s(100.00%)
                                           -1.0000
    23. (0.00396) BD*( 1) C   6 - H  11  
                ( 48.04%)   0.6931* C   6 s( 25.05%)p 2.99( 74.95%)
                                            0.0000 -0.5005 -0.0000  0.6928 -0.5192
                ( 51.96%)  -0.7208* H  11 s(100.00%)
                                           -1.0000


 NHO Directionality and "Bond Bending" (deviations from line of nuclear centers)

         [Thresholds for printing:  angular deviation  >  1.0 degree]
                                    hybrid p-character > 25.0%
                                    orbital occupancy  >  0.10e

                                Line of Centers        Hybrid 1              Hybrid 2
                                ---------------  -------------------   ------------------
                NBO               Theta   Phi    Theta   Phi    Dev    Theta   Phi    Dev
 ========================================================================================
     1. BD (   1) C   1 - H   2    54.4   90.0    53.1   90.0   1.2      --     --    --
     2. BD (   1) C   1 - H   3   125.8    2.4   125.3    1.2   1.2      --     --    --
     3. BD (   1) C   1 - H   4   125.8  177.6   125.3  178.8   1.2      --     --    --
     4. BD (   1) C   1 - C   5    56.3  270.0     --     --    --     125.2   90.0   1.5
     5. BD (   1) C   5 - C   6   123.7  270.0   125.2  270.0   1.5      --     --    --
     6. BD (   1) C   5 - H   7    53.5    0.0    54.7    0.0   1.2      --     --    --
     7. BD (   1) C   5 - H   8    53.5  180.0    54.7  180.0   1.2      --     --    --
     8. BD (   1) C   6 - H   9   125.8  357.6   125.3  358.8   1.2      --     --    --
     9. BD (   1) C   6 - H  10   125.8  182.4   125.3  181.2   1.2      --     --    --
    10. BD (   1) C   6 - H  11    54.4  270.0    53.1  270.0   1.2      --     --    --


 Second Order Perturbation Theory Analysis of Fock Matrix in NBO Basis

     Threshold for printing:   0.50 kcal/mol
                                                                              E(2)  E(j)-E(i) F(i,j)
         Donor NBO (i)                     Acceptor NBO (j)                 kcal/mol   a.u.    a.u. 
 ===================================================================================================

 within unit  1
   1. BD (   1) C   1 - H   2        / 18. BD*(   1) C   5 - C   6            2.32    1.32    0.049
   2. BD (   1) C   1 - H   3        / 20. BD*(   1) C   5 - H   8            2.05    1.36    0.047
   3. BD (   1) C   1 - H   4        / 19. BD*(   1) C   5 - H   7            2.05    1.36    0.047
   4. BD (   1) C   1 - C   5        / 18. BD*(   1) C   5 - C   6            0.57    1.34    0.025
   4. BD (   1) C   1 - C   5        / 23. BD*(   1) C   6 - H  11            2.01    1.38    0.047
   5. BD (   1) C   5 - C   6        / 14. BD*(   1) C   1 - H   2            2.01    1.38    0.047
   5. BD (   1) C   5 - C   6        / 17. BD*(   1) C   1 - C   5            0.57    1.34    0.025
   6. BD (   1) C   5 - H   7        / 16. BD*(   1) C   1 - H   4            2.42    1.36    0.051
   6. BD (   1) C   5 - H   7        / 22. BD*(   1) C   6 - H  10            2.42    1.36    0.051
   7. BD (   1) C   5 - H   8        / 15. BD*(   1) C   1 - H   3            2.42    1.36    0.051
   7. BD (   1) C   5 - H   8        / 21. BD*(   1) C   6 - H   9            2.42    1.36    0.051
   8. BD (   1) C   6 - H   9        / 20. BD*(   1) C   5 - H   8            2.05    1.36    0.047
   9. BD (   1) C   6 - H  10        / 19. BD*(   1) C   5 - H   7            2.05    1.36    0.047
  10. BD (   1) C   6 - H  11        / 17. BD*(   1) C   1 - C   5            2.32    1.32    0.049


 Natural Bond Orbitals (Summary):

                                                            Principal Delocalizations
           NBO                        Occupancy    Energy   (geminal,vicinal,remote)
 ====================================================================================
 Molecular unit  1  (C3H8)
     1. BD (   1) C   1 - H   2          1.99532    -0.63172  18(v)
     2. BD (   1) C   1 - H   3          1.99593    -0.63173  20(v)
     3. BD (   1) C   1 - H   4          1.99593    -0.63173  19(v)
     4. BD (   1) C   1 - C   5          1.99474    -0.64979  23(v),18(g)
     5. BD (   1) C   5 - C   6          1.99474    -0.64979  14(v),17(g)
     6. BD (   1) C   5 - H   7          1.99136    -0.62885  16(v),22(v)
     7. BD (   1) C   5 - H   8          1.99136    -0.62885  15(v),21(v)
     8. BD (   1) C   6 - H   9          1.99593    -0.63173  20(v)
     9. BD (   1) C   6 - H  10          1.99593    -0.63173  19(v)
    10. BD (   1) C   6 - H  11          1.99532    -0.63172  17(v)
    11. CR (   1) C   1                  1.99996   -10.96415   
    12. CR (   1) C   5                  1.99996   -10.97976   
    13. CR (   1) C   6                  1.99996   -10.96415   
    14. BD*(   1) C   1 - H   2          0.00396     0.73342   
    15. BD*(   1) C   1 - H   3          0.00465     0.73298   
    16. BD*(   1) C   1 - H   4          0.00465     0.73298   
    17. BD*(   1) C   1 - C   5          0.00617     0.69002   
    18. BD*(   1) C   5 - C   6          0.00617     0.69002   
    19. BD*(   1) C   5 - H   7          0.00734     0.73293   
    20. BD*(   1) C   5 - H   8          0.00734     0.73293   
    21. BD*(   1) C   6 - H   9          0.00465     0.73298   
    22. BD*(   1) C   6 - H  10          0.00465     0.73298   
    23. BD*(   1) C   6 - H  11          0.00396     0.73342   
       -------------------------------
              Total Lewis   25.94646  ( 99.7941%)
        Valence non-Lewis    0.05354  (  0.2059%)
        Rydberg non-Lewis    0.00000  (  0.0000%)
       -------------------------------
            Total unit  1   26.00000  (100.0000%)
           Charge unit  1    0.00000
 Unable to Open any file for archive entry.
 1\1\GINC-LOCALHOST\FOpt\RHF\STO-3G\C3H8\USER\21-Mar-2026\0\\# opt freq
  hf/sto-3g pop=nbo geom=connectivity\\Propane-HF-STO-3G\\0,1\C,-0.8687
 084131,-0.032312165,-0.7167401341\H,-0.990923373,0.1814203314,0.340709
 3286\H,-0.117583515,0.6426162929,-1.1154873438\H,-1.8098413852,0.17531
 02201,-1.2166181665\C,-0.4505562581,-1.5004376568,-0.9299028154\C,-0.2
 646558408,-1.851338479,-2.419195151\H,0.4794755272,-1.6898032045,-0.39
 75839009\H,-1.2051496669,-2.1550015632,-0.4982585882\H,0.5039588641,-1
 .2290783156,-2.8672354367\H,-1.188299006,-1.6963843884,-2.9683662593\H
 ,0.0290980147,-2.8902423515,-2.534107547\\Version=ES64L-G16RevC.02\Sta
 te=1-A1\HF=-116.8864211\RMSD=9.324e-09\RMSF=1.798e-04\Dipole=0.0013001
 ,-0.0062538,0.0071433\Quadrupole=0.1698439,-0.0857973,-0.0840466,0.083
 8687,0.0450702,-0.1026728\PG=C02V [C2(C1),SGV(C2H2),SGV'(H2),X(H4)]\\@
 The archive entry for this job was punched.


 EVERYTHING'S GOT A MORAL, IF ONLY YOU CAN FIND IT.

                                    -- LEWIS CARROL, ALICE IN WONDERLAND
 Job cpu time:       0 days  0 hours  0 minutes 50.0 seconds.
 Elapsed time:       0 days  0 hours  0 minutes  3.7 seconds.
 File lengths (MBytes):  RWF=      6 Int=      0 D2E=      0 Chk=      1 Scr=      1
 Normal termination of Gaussian 16 at Sat Mar 21 10:17:44 2026.
 Link1:  Proceeding to internal job step number  2.
 ---------------------------------------------------------------
 #N Geom=AllCheck Guess=TCheck SCRF=Check GenChk RHF/STO-3G Freq
 ---------------------------------------------------------------
 1/10=4,29=7,30=1,38=1,40=1/1,3;
 2/12=2,40=1/2;
 3/6=3,11=1,14=-4,25=1,30=1,70=2,71=2,116=1,140=1/1,2,3;
 4/5=101/1;
 5/5=2,38=6,98=1/2;
 8/6=4,10=90,11=11/1;
 10/13=10,15=4/2;
 11/6=3,8=1,9=11,15=111,16=1/1,2,10;
 10/6=1/2;
 6/7=2,8=2,9=2,10=2,28=1,40=1/1,7;
 7/8=1,10=1,25=1/1,2,3,16;
 1/10=4,30=1/3;
 99//99;
 Structure from the checkpoint file:  "Propane-HF-STO-3G.chk"
 -----------------
 Propane-HF-STO-3G
 -----------------
 Charge =  0 Multiplicity = 1
 Redundant internal coordinates found in file.  (old form).
 C,0,-0.8687084131,-0.032312165,-0.7167401341
 H,0,-0.990923373,0.1814203314,0.3407093286
 H,0,-0.117583515,0.6426162929,-1.1154873438
 H,0,-1.8098413852,0.1753102201,-1.2166181665
 C,0,-0.4505562581,-1.5004376568,-0.9299028154
 C,0,-0.2646558408,-1.851338479,-2.419195151
 H,0,0.4794755272,-1.6898032045,-0.3975839009
 H,0,-1.2051496669,-2.1550015632,-0.4982585882
 H,0,0.5039588641,-1.2290783156,-2.8672354367
 H,0,-1.188299006,-1.6963843884,-2.9683662593
 H,0,0.0290980147,-2.8902423515,-2.534107547
 Recover connectivity data from disk.

 GradGradGradGradGradGradGradGradGradGradGradGradGradGradGradGradGradGrad
 Berny optimization.
 Initialization pass.
                           ----------------------------
                           !    Initial Parameters    !
                           ! (Angstroms and Degrees)  !
 --------------------------                            --------------------------
 ! Name  Definition              Value          Derivative Info.                !
 --------------------------------------------------------------------------------
 ! R1    R(1,2)                  1.0857         calculate D2E/DX2 analytically  !
 ! R2    R(1,3)                  1.0857         calculate D2E/DX2 analytically  !
 ! R3    R(1,4)                  1.0857         calculate D2E/DX2 analytically  !
 ! R4    R(1,5)                  1.5413         calculate D2E/DX2 analytically  !
 ! R5    R(5,6)                  1.5413         calculate D2E/DX2 analytically  !
 ! R6    R(5,7)                  1.0882         calculate D2E/DX2 analytically  !
 ! R7    R(5,8)                  1.0882         calculate D2E/DX2 analytically  !
 ! R8    R(6,9)                  1.0857         calculate D2E/DX2 analytically  !
 ! R9    R(6,10)                 1.0857         calculate D2E/DX2 analytically  !
 ! R10   R(6,11)                 1.0857         calculate D2E/DX2 analytically  !
 ! A1    A(2,1,3)              108.2527         calculate D2E/DX2 analytically  !
 ! A2    A(2,1,4)              108.2527         calculate D2E/DX2 analytically  !
 ! A3    A(2,1,5)              110.655          calculate D2E/DX2 analytically  !
 ! A4    A(3,1,4)              108.1641         calculate D2E/DX2 analytically  !
 ! A5    A(3,1,5)              110.7107         calculate D2E/DX2 analytically  !
 ! A6    A(4,1,5)              110.7107         calculate D2E/DX2 analytically  !
 ! A7    A(1,5,6)              112.5321         calculate D2E/DX2 analytically  !
 ! A8    A(1,5,7)              109.2665         calculate D2E/DX2 analytically  !
 ! A9    A(1,5,8)              109.2665         calculate D2E/DX2 analytically  !
 ! A10   A(6,5,7)              109.2665         calculate D2E/DX2 analytically  !
 ! A11   A(6,5,8)              109.2665         calculate D2E/DX2 analytically  !
 ! A12   A(7,5,8)              107.0936         calculate D2E/DX2 analytically  !
 ! A13   A(5,6,9)              110.7107         calculate D2E/DX2 analytically  !
 ! A14   A(5,6,10)             110.7107         calculate D2E/DX2 analytically  !
 ! A15   A(5,6,11)             110.655          calculate D2E/DX2 analytically  !
 ! A16   A(9,6,10)             108.1641         calculate D2E/DX2 analytically  !
 ! A17   A(9,6,11)             108.2527         calculate D2E/DX2 analytically  !
 ! A18   A(10,6,11)            108.2527         calculate D2E/DX2 analytically  !
 ! D1    D(2,1,5,6)            180.0            calculate D2E/DX2 analytically  !
 ! D2    D(2,1,5,7)            -58.4368         calculate D2E/DX2 analytically  !
 ! D3    D(2,1,5,8)             58.4368         calculate D2E/DX2 analytically  !
 ! D4    D(3,1,5,6)            -59.9752         calculate D2E/DX2 analytically  !
 ! D5    D(3,1,5,7)             61.588          calculate D2E/DX2 analytically  !
 ! D6    D(3,1,5,8)            178.4616         calculate D2E/DX2 analytically  !
 ! D7    D(4,1,5,6)             59.9752         calculate D2E/DX2 analytically  !
 ! D8    D(4,1,5,7)           -178.4616         calculate D2E/DX2 analytically  !
 ! D9    D(4,1,5,8)            -61.588          calculate D2E/DX2 analytically  !
 ! D10   D(1,5,6,9)             59.9752         calculate D2E/DX2 analytically  !
 ! D11   D(1,5,6,10)           -59.9752         calculate D2E/DX2 analytically  !
 ! D12   D(1,5,6,11)           180.0            calculate D2E/DX2 analytically  !
 ! D13   D(7,5,6,9)            -61.588          calculate D2E/DX2 analytically  !
 ! D14   D(7,5,6,10)           178.4616         calculate D2E/DX2 analytically  !
 ! D15   D(7,5,6,11)            58.4368         calculate D2E/DX2 analytically  !
 ! D16   D(8,5,6,9)           -178.4616         calculate D2E/DX2 analytically  !
 ! D17   D(8,5,6,10)            61.588          calculate D2E/DX2 analytically  !
 ! D18   D(8,5,6,11)           -58.4368         calculate D2E/DX2 analytically  !
 --------------------------------------------------------------------------------
 Trust Radius=3.00D-01 FncErr=1.00D-07 GrdErr=1.00D-07 EigMax=2.50D+02 EigMin=1.00D-04
 Number of steps in this run=      2 maximum allowed number of steps=      2.
 GradGradGradGradGradGradGradGradGradGradGradGradGradGradGradGradGradGrad

                          Input orientation:                          
 ---------------------------------------------------------------------
 Center     Atomic      Atomic             Coordinates (Angstroms)
 Number     Number       Type             X           Y           Z
 ---------------------------------------------------------------------
      1          6           0       -0.868708   -0.032312   -0.716740
      2          1           0       -0.990923    0.181420    0.340709
      3          1           0       -0.117584    0.642616   -1.115487
      4          1           0       -1.809841    0.175310   -1.216618
      5          6           0       -0.450556   -1.500438   -0.929903
      6          6           0       -0.264656   -1.851338   -2.419195
      7          1           0        0.479476   -1.689803   -0.397584
      8          1           0       -1.205150   -2.155002   -0.498259
      9          1           0        0.503959   -1.229078   -2.867235
     10          1           0       -1.188299   -1.696384   -2.968366
     11          1           0        0.029098   -2.890242   -2.534108
 ---------------------------------------------------------------------
                    Distance matrix (angstroms):
                    1          2          3          4          5
     1  C    0.000000
     2  H    1.085734   0.000000
     3  H    1.085687   1.759526   0.000000
     4  H    1.085687   1.759526   1.758505   0.000000
     5  C    1.541325   2.176028   2.176693   2.176693   0.000000
     6  C    2.563609   3.503804   2.817995   2.817995   1.541325
     7  H    2.160263   2.491712   2.512378   3.064382   1.088201
     8  H    2.160263   2.491712   3.064382   2.512378   1.088201
     9  H    2.817995   3.809867   2.637836   3.170255   2.176693
    10  H    2.817995   3.809867   3.170255   2.637836   2.176693
    11  H    3.503804   4.328987   3.809867   3.809867   2.176028
                    6          7          8          9         10
     6  C    0.000000
     7  H    2.160263   0.000000
     8  H    2.160263   1.750573   0.000000
     9  H    1.085687   2.512378   3.064382   0.000000
    10  H    1.085687   3.064382   2.512378   1.758505   0.000000
    11  H    1.085734   2.491712   2.491712   1.759526   1.759526
                   11
    11  H    0.000000
 Stoichiometry    C3H8
 Framework group  C2V[C2(C),SGV(C2H2),SGV'(H2),X(H4)]
 Deg. of freedom     9
 Full point group                 C2V     NOp   4
 Largest Abelian subgroup         C2V     NOp   4
 Largest concise Abelian subgroup C2V     NOp   4
                         Standard orientation:                         
 ---------------------------------------------------------------------
 Center     Atomic      Atomic             Coordinates (Angstroms)
 Number     Number       Type             X           Y           Z
 ---------------------------------------------------------------------
      1          6           0        0.000000    1.281804   -0.263921
      2          1           0        0.000000    2.164493    0.368279
      3          1           0        0.879252    1.318918   -0.899731
      4          1           0       -0.879252    1.318918   -0.899731
      5          6           0       -0.000000    0.000000    0.592034
      6          6           0       -0.000000   -1.281804   -0.263921
      7          1           0        0.875287    0.000000    1.238606
      8          1           0       -0.875287    0.000000    1.238606
      9          1           0        0.879252   -1.318918   -0.899731
     10          1           0       -0.879252   -1.318918   -0.899731
     11          1           0       -0.000000   -2.164493    0.368279
 ---------------------------------------------------------------------
 Rotational constants (GHZ):          29.4435977           8.3465671           7.3894382
 Standard basis: STO-3G (5D, 7F)
 There are    10 symmetry adapted cartesian basis functions of A1  symmetry.
 There are     2 symmetry adapted cartesian basis functions of A2  symmetry.
 There are     4 symmetry adapted cartesian basis functions of B1  symmetry.
 There are     7 symmetry adapted cartesian basis functions of B2  symmetry.
 There are    10 symmetry adapted basis functions of A1  symmetry.
 There are     2 symmetry adapted basis functions of A2  symmetry.
 There are     4 symmetry adapted basis functions of B1  symmetry.
 There are     7 symmetry adapted basis functions of B2  symmetry.
    23 basis functions,    69 primitive gaussians,    23 cartesian basis functions
    13 alpha electrons       13 beta electrons
       nuclear repulsion energy        82.3864701213 Hartrees.
 NAtoms=   11 NActive=   11 NUniq=    5 SFac= 4.00D+00 NAtFMM=   60 NAOKFM=F Big=F
 Integral buffers will be    131072 words long.
 Raffenetti 1 integral format.
 Two-electron integral symmetry is turned on.
 One-electron integrals computed using PRISM.
 NBasis=    23 RedAO= T EigKep=  2.03D-01  NBF=    10     2     4     7
 NBsUse=    23 1.00D-06 EigRej= -1.00D+00 NBFU=    10     2     4     7
 Initial guess from the checkpoint file:  "Propane-HF-STO-3G.chk"
 B after Tr=    -0.000000    0.000000   -0.000000
         Rot=    1.000000   -0.000000   -0.000000    0.000000 Ang=   0.00 deg.
 Initial guess orbital symmetries:
       Occupied  (A1) (B2) (A1) (A1) (B2) (A1) (B1) (A1) (B2) (A2)
                 (A1) (B1) (B2)
       Virtual   (A1) (B1) (B2) (A1) (A2) (A1) (B2) (B2) (A1) (B1)
 Keep R1 ints in memory in symmetry-blocked form, NReq=4878729.
 Requested convergence on RMS density matrix=1.00D-08 within 128 cycles.
 Requested convergence on MAX density matrix=1.00D-06.
 Requested convergence on             energy=1.00D-06.
 No special actions if energy rises.
 SCF Done:  E(RHF) =  -116.886421056     A.U. after    1 cycles
            NFock=  1  Conv=0.12D-08     -V/T= 2.0085
 Range of M.O.s used for correlation:     1    23
 NBasis=    23 NAE=    13 NBE=    13 NFC=     0 NFV=     0
 NROrb=     23 NOA=    13 NOB=    13 NVA=    10 NVB=    10
          Differentiating once with respect to electric field.
                with respect to dipole field.
          Electric field/nuclear overlap derivatives assumed to be zero.
 Keep R1 ints in memory in symmetry-blocked form, NReq=4879659.
          There are     3 degrees of freedom in the 1st order CPHF.  IDoFFX=0 NUNeed=     3.
      3 vectors produced by pass  0 Test12= 4.33D-15 3.33D-08 XBig12= 2.78D+00 1.09D+00.
 AX will form     3 AO Fock derivatives at one time.
      3 vectors produced by pass  1 Test12= 4.33D-15 3.33D-08 XBig12= 2.61D-02 7.91D-02.
      3 vectors produced by pass  2 Test12= 4.33D-15 3.33D-08 XBig12= 1.09D-03 1.36D-02.
      3 vectors produced by pass  3 Test12= 4.33D-15 3.33D-08 XBig12= 6.17D-06 1.30D-03.
      3 vectors produced by pass  4 Test12= 4.33D-15 3.33D-08 XBig12= 2.69D-08 6.12D-05.
      3 vectors produced by pass  5 Test12= 4.33D-15 3.33D-08 XBig12= 7.49D-10 1.04D-05.
      2 vectors produced by pass  6 Test12= 4.33D-15 3.33D-08 XBig12= 7.23D-12 1.01D-06.
      2 vectors produced by pass  7 Test12= 4.33D-15 3.33D-08 XBig12= 5.54D-14 8.49D-08.
 InvSVY:  IOpt=1 It=  1 EMax= 2.22D-16
 Solved reduced A of dimension    22 with     3 vectors.
 End of Minotr F.D. properties file   721 does not exist.
 End of Minotr F.D. properties file   722 does not exist.
 End of Minotr F.D. properties file   788 does not exist.
 Symmetrizing basis deriv contribution to polar:
 IMax=3 JMax=2 DiffMx= 0.00D+00
 G2DrvN: will do    12 centers at a time, making    1 passes.
 PxScal for G2LodP:  IOpCl= 0 ISclPx=1 IMOff=     1 NMtTot=     4 NTT=     276 ScalPx= 1.30D+00
 Calling FoFCou, ICntrl=  3107 FMM=F I1Cent=   0 AccDes= 0.00D+00.
 End of G2Drv F.D. properties file   721 does not exist.
 End of G2Drv F.D. properties file   722 does not exist.
 End of G2Drv F.D. properties file   788 does not exist.
          IDoAtm=11111111111
          Differentiating once with respect to electric field.
                with respect to dipole field.
          Differentiating once with respect to nuclear coordinates.
 Keep R1 ints in memory in symmetry-blocked form, NReq=4879915.
          There are    18 degrees of freedom in the 1st order CPHF.  IDoFFX=4 NUNeed=    18.
 Will reuse    3 saved solutions.
     15 vectors produced by pass  0 Test12= 7.22D-16 5.56D-09 XBig12= 9.82D-03 4.61D-02.
 AX will form    15 AO Fock derivatives at one time.
     15 vectors produced by pass  1 Test12= 7.22D-16 5.56D-09 XBig12= 3.33D-05 2.85D-03.
     15 vectors produced by pass  2 Test12= 7.22D-16 5.56D-09 XBig12= 2.45D-07 1.43D-04.
     15 vectors produced by pass  3 Test12= 7.22D-16 5.56D-09 XBig12= 1.34D-09 1.00D-05.
     15 vectors produced by pass  4 Test12= 7.22D-16 5.56D-09 XBig12= 4.51D-12 5.97D-07.
      8 vectors produced by pass  5 Test12= 7.22D-16 5.56D-09 XBig12= 2.17D-14 3.12D-08.
 InvSVY:  IOpt=1 It=  1 EMax= 8.88D-16
 Solved reduced A of dimension    83 with    15 vectors.
 Isotropic polarizability for W=    0.000000       16.24 Bohr**3.
 End of Minotr F.D. properties file   721 does not exist.
 End of Minotr F.D. properties file   722 does not exist.
 End of Minotr F.D. properties file   788 does not exist.

 **********************************************************************

            Population analysis using the SCF Density.

 **********************************************************************

 Orbital symmetries:
       Occupied  (A1) (B2) (A1) (A1) (B2) (A1) (B1) (A1) (B2) (A2)
                 (A1) (B1) (B2)
       Virtual   (A1) (B1) (B2) (A1) (A2) (A1) (B2) (B2) (A1) (B1)
 The electronic state is 1-A1.
 Alpha  occ. eigenvalues --  -11.04162 -11.03204 -11.03198  -1.01205  -0.89125
 Alpha  occ. eigenvalues --   -0.77072  -0.59722  -0.56668  -0.52251  -0.50634
 Alpha  occ. eigenvalues --   -0.44122  -0.44034  -0.43622
 Alpha virt. eigenvalues --    0.62611   0.63127   0.65914   0.70972   0.72466
 Alpha virt. eigenvalues --    0.76359   0.77017   0.78351   0.79342   0.81756
          Condensed to atoms (all electrons):
               1          2          3          4          5          6
     1  C    4.731167   0.384753   0.384388   0.384388   0.362393  -0.021741
     2  H    0.384753   0.624123  -0.021936  -0.021936  -0.019643   0.001192
     3  H    0.384388  -0.021936   0.625537  -0.022193  -0.020555  -0.001922
     4  H    0.384388  -0.021936  -0.022193   0.625537  -0.020555  -0.001922
     5  C    0.362393  -0.019643  -0.020555  -0.020555   4.719878   0.362393
     6  C   -0.021741   0.001192  -0.001922  -0.001922   0.362393   4.731167
     7  H   -0.022343  -0.002096  -0.002185   0.001855   0.384088  -0.022343
     8  H   -0.022343  -0.002096   0.001855  -0.002185   0.384088  -0.022343
     9  H   -0.001922   0.000009   0.000361  -0.000010  -0.020555   0.384388
    10  H   -0.001922   0.000009  -0.000010   0.000361  -0.020555   0.384388
    11  H    0.001192  -0.000032   0.000009   0.000009  -0.019643   0.384753
               7          8          9         10         11
     1  C   -0.022343  -0.022343  -0.001922  -0.001922   0.001192
     2  H   -0.002096  -0.002096   0.000009   0.000009  -0.000032
     3  H   -0.002185   0.001855   0.000361  -0.000010   0.000009
     4  H    0.001855  -0.002185  -0.000010   0.000361   0.000009
     5  C    0.384088   0.384088  -0.020555  -0.020555  -0.019643
     6  C   -0.022343  -0.022343   0.384388   0.384388   0.384753
     7  H    0.636642  -0.023919  -0.002185   0.001855  -0.002096
     8  H   -0.023919   0.636642   0.001855  -0.002185  -0.002096
     9  H   -0.002185   0.001855   0.625537  -0.022193  -0.021936
    10  H    0.001855  -0.002185  -0.022193   0.625537  -0.021936
    11  H   -0.002096  -0.002096  -0.021936  -0.021936   0.624123
 Mulliken charges:
               1
     1  C   -0.178011
     2  H    0.057654
     3  H    0.056649
     4  H    0.056649
     5  C   -0.091335
     6  C   -0.178011
     7  H    0.052726
     8  H    0.052726
     9  H    0.056649
    10  H    0.056649
    11  H    0.057654
 Sum of Mulliken charges =   0.00000
 Mulliken charges with hydrogens summed into heavy atoms:
               1
     1  C   -0.007058
     5  C    0.014116
     6  C   -0.007058
 APT charges:
               1
     1  C   -0.006347
     2  H   -0.006400
     3  H   -0.004635
     4  H   -0.004635
     5  C    0.101207
     6  C   -0.006347
     7  H   -0.028587
     8  H   -0.028587
     9  H   -0.004635
    10  H   -0.004635
    11  H   -0.006400
 Sum of APT charges =   0.00000
 APT charges with hydrogens summed into heavy atoms:
               1
     1  C   -0.022017
     5  C    0.044034
     6  C   -0.022017
 Electronic spatial extent (au):  <R**2>=            224.9608
 Charge=              0.0000 electrons
 Dipole moment (field-independent basis, Debye):
    X=              0.0000    Y=              0.0000    Z=              0.0244  Tot=              0.0244
 Quadrupole moment (field-independent basis, Debye-Ang):
   XX=            -20.2462   YY=            -20.7915   ZZ=            -20.4905
   XY=             -0.0000   XZ=             -0.0000   YZ=             -0.0000
 Traceless Quadrupole moment (field-independent basis, Debye-Ang):
   XX=              0.2632   YY=             -0.2821   ZZ=              0.0189
   XY=             -0.0000   XZ=             -0.0000   YZ=             -0.0000
 Octapole moment (field-independent basis, Debye-Ang**2):
  XXX=              0.0000  YYY=              0.0000  ZZZ=              0.0093  XYY=              0.0000
  XXY=             -0.0000  XXZ=             -0.4993  XZZ=              0.0000  YZZ=             -0.0000
  YYZ=              1.0013  XYZ=              0.0000
 Hexadecapole moment (field-independent basis, Debye-Ang**3):
 XXXX=            -36.8551 YYYY=           -187.0690 ZZZZ=            -61.8677 XXXY=             -0.0000
 XXXZ=             -0.0000 YYYX=             -0.0000 YYYZ=             -0.0000 ZZZX=             -0.0000
 ZZZY=             -0.0000 XXYY=            -38.0301 XXZZ=            -14.6245 YYZZ=            -41.3301
 XXYZ=             -0.0000 YYXZ=             -0.0000 ZZXY=             -0.0000
 N-N= 8.238647012134D+01 E-N=-4.358624296444D+02  KE= 1.158970143541D+02
 Symmetry A1   KE= 7.166730418151D+01
 Symmetry A2   KE= 2.013712401729D+00
 Symmetry B1   KE= 3.875523760084D+00
 Symmetry B2   KE= 3.834047401074D+01
  Exact polarizability:      15.715       0.000      17.218      -0.000       0.000      15.799
 Approx polarizability:      13.354       0.000      12.124      -0.000       0.000      12.697
 ******************************Gaussian NBO Version 3.1******************************
             N A T U R A L   A T O M I C   O R B I T A L   A N D
          N A T U R A L   B O N D   O R B I T A L   A N A L Y S I S
 ******************************Gaussian NBO Version 3.1******************************
       /RESON  / : Allow strongly delocalized NBO set

 Analyzing the SCF density

 Job title: Propane-HF-STO-3G                                               

 Storage needed:      1984 in NPA,      2311 in NBO (1342176565 available)
 GSVD:  LWork=        -713 too small for GESVD, short by        2990 words or        2990 for optimal perf.


 NATURAL POPULATIONS:  Natural atomic orbital occupancies 
                                                          
   NAO  Atom  No  lang   Type(AO)    Occupancy      Energy
 ----------------------------------------------------------
     1    C    1  S      Cor( 1S)     1.99997     -10.96417
     2    C    1  S      Val( 2S)     1.07302      -0.17512
     3    C    1  px     Val( 2p)     1.03270       0.08459
     4    C    1  py     Val( 2p)     1.00238       0.08633
     5    C    1  pz     Val( 2p)     1.01907       0.08633
 
     6    H    2  S      Val( 1S)     0.96065       0.07841
 
     7    H    3  S      Val( 1S)     0.96182       0.07835
 
     8    H    4  S      Val( 1S)     0.96182       0.07835
 
     9    C    5  S      Cor( 1S)     1.99996     -10.97974
    10    C    5  S      Val( 2S)     1.07307      -0.18144
    11    C    5  px     Val( 2p)     1.02029       0.09490
    12    C    5  py     Val( 2p)     0.95629       0.10473
    13    C    5  pz     Val( 2p)     0.98696       0.09794
 
    14    C    6  S      Cor( 1S)     1.99997     -10.96417
    15    C    6  S      Val( 2S)     1.07302      -0.17512
    16    C    6  px     Val( 2p)     1.03270       0.08459
    17    C    6  py     Val( 2p)     1.00238       0.08633
    18    C    6  pz     Val( 2p)     1.01907       0.08633
 
    19    H    7  S      Val( 1S)     0.97029       0.07320
 
    20    H    8  S      Val( 1S)     0.97029       0.07320
 
    21    H    9  S      Val( 1S)     0.96182       0.07835
 
    22    H   10  S      Val( 1S)     0.96182       0.07835
 
    23    H   11  S      Val( 1S)     0.96065       0.07841


 Summary of Natural Population Analysis:                  
                                                          
                                       Natural Population 
                Natural  -----------------------------------------------
    Atom  No    Charge         Core      Valence    Rydberg      Total
 -----------------------------------------------------------------------
      C    1   -0.12713      1.99997     4.12717    0.00000     6.12713
      H    2    0.03935      0.00000     0.96065    0.00000     0.96065
      H    3    0.03818      0.00000     0.96182    0.00000     0.96182
      H    4    0.03818      0.00000     0.96182    0.00000     0.96182
      C    5   -0.03657      1.99996     4.03661    0.00000     6.03657
      C    6   -0.12713      1.99997     4.12717    0.00000     6.12713
      H    7    0.02971      0.00000     0.97029    0.00000     0.97029
      H    8    0.02971      0.00000     0.97029    0.00000     0.97029
      H    9    0.03818      0.00000     0.96182    0.00000     0.96182
      H   10    0.03818      0.00000     0.96182    0.00000     0.96182
      H   11    0.03935      0.00000     0.96065    0.00000     0.96065
 =======================================================================
   * Total *    0.00000      5.99989    20.00011    0.00000    26.00000

                                 Natural Population      
 --------------------------------------------------------
   Core                       5.99989 ( 99.9981% of   6)
   Valence                   20.00011 (100.0006% of  20)
   Natural Minimal Basis     26.00000 (100.0000% of  26)
   Natural Rydberg Basis      0.00000 (  0.0000% of  26)
 --------------------------------------------------------

    Atom  No          Natural Electron Configuration
 ----------------------------------------------------------------------------
      C    1      [core]2S( 1.07)2p( 3.05)
      H    2            1S( 0.96)
      H    3            1S( 0.96)
      H    4            1S( 0.96)
      C    5      [core]2S( 1.07)2p( 2.96)
      C    6      [core]2S( 1.07)2p( 3.05)
      H    7            1S( 0.97)
      H    8            1S( 0.97)
      H    9            1S( 0.96)
      H   10            1S( 0.96)
      H   11            1S( 0.96)


 NATURAL BOND ORBITAL ANALYSIS:

                       Occupancies       Lewis Structure    Low   High
           Occ.    -------------------  -----------------   occ   occ
  Cycle   Thresh.   Lewis   Non-Lewis     CR  BD  3C  LP    (L)   (NL)   Dev
 =============================================================================
   1(1)    1.90    25.94646   0.05354      3  10   0   0     0      0    0.01
 -----------------------------------------------------------------------------

 Structure accepted: No low occupancy Lewis orbitals

 --------------------------------------------------------
   Core                      5.99989 ( 99.998% of   6)
   Valence Lewis            19.94657 ( 99.733% of  20)
  ==================       ============================
   Total Lewis              25.94646 ( 99.794% of  26)
  -----------------------------------------------------
   Valence non-Lewis         0.05354 (  0.206% of  26)
   Rydberg non-Lewis         0.00000 (  0.000% of  26)
  ==================       ============================
   Total non-Lewis           0.05354 (  0.206% of  26)
 --------------------------------------------------------


       (Occupancy)   Bond orbital/ Coefficients/ Hybrids
 ---------------------------------------------------------------------------------
     1. (1.99532) BD ( 1) C   1 - H   2  
                ( 51.96%)   0.7208* C   1 s( 25.05%)p 2.99( 74.95%)
                                           -0.0000  0.5005  0.0000  0.6928  0.5192
                ( 48.04%)   0.6931* H   2 s(100.00%)
                                            1.0000
     2. (1.99593) BD ( 1) C   1 - H   3  
                ( 51.93%)   0.7206* C   1 s( 24.94%)p 3.01( 75.06%)
                                           -0.0000  0.4994  0.7071  0.0142 -0.5003
                ( 48.07%)   0.6933* H   3 s(100.00%)
                                            1.0000
     3. (1.99593) BD ( 1) C   1 - H   4  
                ( 51.93%)   0.7206* C   1 s( 24.94%)p 3.01( 75.06%)
                                           -0.0000  0.4994 -0.7071  0.0142 -0.5003
                ( 48.07%)   0.6933* H   4 s(100.00%)
                                            1.0000
     4. (1.99474) BD ( 1) C   1 - C   5  
                ( 50.53%)   0.7109* C   1 s( 25.06%)p 2.99( 74.94%)
                                            0.0000  0.5006 -0.0000 -0.7209  0.4793
                ( 49.47%)   0.7033* C   5 s( 25.03%)p 2.99( 74.97%)
                                           -0.0000  0.5003 -0.0000  0.7071 -0.4997
     5. (1.99474) BD ( 1) C   5 - C   6  
                ( 49.47%)   0.7033* C   5 s( 25.03%)p 2.99( 74.97%)
                                           -0.0000  0.5003 -0.0000 -0.7071 -0.4997
                ( 50.53%)   0.7109* C   6 s( 25.06%)p 2.99( 74.94%)
                                            0.0000  0.5006 -0.0000  0.7209  0.4793
     6. (1.99136) BD ( 1) C   5 - H   7  
                ( 51.46%)   0.7174* C   5 s( 24.97%)p 3.01( 75.03%)
                                           -0.0000  0.4997  0.7071 -0.0000  0.5003
                ( 48.54%)   0.6967* H   7 s(100.00%)
                                            1.0000
     7. (1.99136) BD ( 1) C   5 - H   8  
                ( 51.46%)   0.7174* C   5 s( 24.97%)p 3.01( 75.03%)
                                           -0.0000  0.4997 -0.7071 -0.0000  0.5003
                ( 48.54%)   0.6967* H   8 s(100.00%)
                                            1.0000
     8. (1.99593) BD ( 1) C   6 - H   9  
                ( 51.93%)   0.7206* C   6 s( 24.94%)p 3.01( 75.06%)
                                           -0.0000  0.4994  0.7071 -0.0142 -0.5003
                ( 48.07%)   0.6933* H   9 s(100.00%)
                                            1.0000
     9. (1.99593) BD ( 1) C   6 - H  10  
                ( 51.93%)   0.7206* C   6 s( 24.94%)p 3.01( 75.06%)
                                           -0.0000  0.4994 -0.7071 -0.0142 -0.5003
                ( 48.07%)   0.6933* H  10 s(100.00%)
                                            1.0000
    10. (1.99532) BD ( 1) C   6 - H  11  
                ( 51.96%)   0.7208* C   6 s( 25.05%)p 2.99( 74.95%)
                                           -0.0000  0.5005  0.0000 -0.6928  0.5192
                ( 48.04%)   0.6931* H  11 s(100.00%)
                                            1.0000
    11. (1.99996) CR ( 1) C   1           s(100.00%)
                                            1.0000 -0.0000  0.0000  0.0000 -0.0000
    12. (1.99996) CR ( 1) C   5           s(100.00%)
                                            1.0000  0.0000 -0.0000  0.0000 -0.0000
    13. (1.99996) CR ( 1) C   6           s(100.00%)
                                            1.0000 -0.0000  0.0000 -0.0000 -0.0000
    14. (0.00396) BD*( 1) C   1 - H   2  
                ( 48.04%)   0.6931* C   1 s( 25.05%)p 2.99( 74.95%)
                                            0.0000 -0.5005 -0.0000 -0.6928 -0.5192
                ( 51.96%)  -0.7208* H   2 s(100.00%)
                                           -1.0000
    15. (0.00465) BD*( 1) C   1 - H   3  
                ( 48.07%)   0.6933* C   1 s( 24.94%)p 3.01( 75.06%)
                                            0.0000 -0.4994 -0.7071 -0.0142  0.5003
                ( 51.93%)  -0.7206* H   3 s(100.00%)
                                           -1.0000
    16. (0.00465) BD*( 1) C   1 - H   4  
                ( 48.07%)   0.6933* C   1 s( 24.94%)p 3.01( 75.06%)
                                            0.0000 -0.4994  0.7071 -0.0142  0.5003
                ( 51.93%)  -0.7206* H   4 s(100.00%)
                                           -1.0000
    17. (0.00617) BD*( 1) C   1 - C   5  
                ( 49.47%)   0.7033* C   1 s( 25.06%)p 2.99( 74.94%)
                                           -0.0000 -0.5006  0.0000  0.7209 -0.4793
                ( 50.53%)  -0.7109* C   5 s( 25.03%)p 2.99( 74.97%)
                                            0.0000 -0.5003  0.0000 -0.7071  0.4997
    18. (0.00617) BD*( 1) C   5 - C   6  
                ( 50.53%)   0.7109* C   5 s( 25.03%)p 2.99( 74.97%)
                                           -0.0000  0.5003 -0.0000 -0.7071 -0.4997
                ( 49.47%)  -0.7033* C   6 s( 25.06%)p 2.99( 74.94%)
                                            0.0000  0.5006 -0.0000  0.7209  0.4793
    19. (0.00734) BD*( 1) C   5 - H   7  
                ( 48.54%)   0.6967* C   5 s( 24.97%)p 3.01( 75.03%)
                                            0.0000 -0.4997 -0.7071  0.0000 -0.5003
                ( 51.46%)  -0.7174* H   7 s(100.00%)
                                           -1.0000
    20. (0.00734) BD*( 1) C   5 - H   8  
                ( 48.54%)   0.6967* C   5 s( 24.97%)p 3.01( 75.03%)
                                            0.0000 -0.4997  0.7071  0.0000 -0.5003
                ( 51.46%)  -0.7174* H   8 s(100.00%)
                                           -1.0000
    21. (0.00465) BD*( 1) C   6 - H   9  
                ( 48.07%)   0.6933* C   6 s( 24.94%)p 3.01( 75.06%)
                                            0.0000 -0.4994 -0.7071  0.0142  0.5003
                ( 51.93%)  -0.7206* H   9 s(100.00%)
                                           -1.0000
    22. (0.00465) BD*( 1) C   6 - H  10  
                ( 48.07%)   0.6933* C   6 s( 24.94%)p 3.01( 75.06%)
                                            0.0000 -0.4994  0.7071  0.0142  0.5003
                ( 51.93%)  -0.7206* H  10 s(100.00%)
                                           -1.0000
    23. (0.00396) BD*( 1) C   6 - H  11  
                ( 48.04%)   0.6931* C   6 s( 25.05%)p 2.99( 74.95%)
                                            0.0000 -0.5005 -0.0000  0.6928 -0.5192
                ( 51.96%)  -0.7208* H  11 s(100.00%)
                                           -1.0000


 NHO Directionality and "Bond Bending" (deviations from line of nuclear centers)

         [Thresholds for printing:  angular deviation  >  1.0 degree]
                                    hybrid p-character > 25.0%
                                    orbital occupancy  >  0.10e

                                Line of Centers        Hybrid 1              Hybrid 2
                                ---------------  -------------------   ------------------
                NBO               Theta   Phi    Theta   Phi    Dev    Theta   Phi    Dev
 ========================================================================================
     1. BD (   1) C   1 - H   2    54.4   90.0    53.1   90.0   1.2      --     --    --
     2. BD (   1) C   1 - H   3   125.8    2.4   125.3    1.2   1.2      --     --    --
     3. BD (   1) C   1 - H   4   125.8  177.6   125.3  178.8   1.2      --     --    --
     4. BD (   1) C   1 - C   5    56.3  270.0     --     --    --     125.2   90.0   1.5
     5. BD (   1) C   5 - C   6   123.7  270.0   125.2  270.0   1.5      --     --    --
     6. BD (   1) C   5 - H   7    53.5    0.0    54.7    0.0   1.2      --     --    --
     7. BD (   1) C   5 - H   8    53.5  180.0    54.7  180.0   1.2      --     --    --
     8. BD (   1) C   6 - H   9   125.8  357.6   125.3  358.8   1.2      --     --    --
     9. BD (   1) C   6 - H  10   125.8  182.4   125.3  181.2   1.2      --     --    --
    10. BD (   1) C   6 - H  11    54.4  270.0    53.1  270.0   1.2      --     --    --


 Second Order Perturbation Theory Analysis of Fock Matrix in NBO Basis

     Threshold for printing:   0.50 kcal/mol
                                                                              E(2)  E(j)-E(i) F(i,j)
         Donor NBO (i)                     Acceptor NBO (j)                 kcal/mol   a.u.    a.u. 
 ===================================================================================================

 within unit  1
   1. BD (   1) C   1 - H   2        / 18. BD*(   1) C   5 - C   6            2.32    1.32    0.049
   2. BD (   1) C   1 - H   3        / 20. BD*(   1) C   5 - H   8            2.05    1.36    0.047
   3. BD (   1) C   1 - H   4        / 19. BD*(   1) C   5 - H   7            2.05    1.36    0.047
   4. BD (   1) C   1 - C   5        / 18. BD*(   1) C   5 - C   6            0.57    1.34    0.025
   4. BD (   1) C   1 - C   5        / 23. BD*(   1) C   6 - H  11            2.01    1.38    0.047
   5. BD (   1) C   5 - C   6        / 14. BD*(   1) C   1 - H   2            2.01    1.38    0.047
   5. BD (   1) C   5 - C   6        / 17. BD*(   1) C   1 - C   5            0.57    1.34    0.025
   6. BD (   1) C   5 - H   7        / 16. BD*(   1) C   1 - H   4            2.42    1.36    0.051
   6. BD (   1) C   5 - H   7        / 22. BD*(   1) C   6 - H  10            2.42    1.36    0.051
   7. BD (   1) C   5 - H   8        / 15. BD*(   1) C   1 - H   3            2.42    1.36    0.051
   7. BD (   1) C   5 - H   8        / 21. BD*(   1) C   6 - H   9            2.42    1.36    0.051
   8. BD (   1) C   6 - H   9        / 20. BD*(   1) C   5 - H   8            2.05    1.36    0.047
   9. BD (   1) C   6 - H  10        / 19. BD*(   1) C   5 - H   7            2.05    1.36    0.047
  10. BD (   1) C   6 - H  11        / 17. BD*(   1) C   1 - C   5            2.32    1.32    0.049


 Natural Bond Orbitals (Summary):

                                                            Principal Delocalizations
           NBO                        Occupancy    Energy   (geminal,vicinal,remote)
 ====================================================================================
 Molecular unit  1  (C3H8)
     1. BD (   1) C   1 - H   2          1.99532    -0.63172  18(v)
     2. BD (   1) C   1 - H   3          1.99593    -0.63173  20(v)
     3. BD (   1) C   1 - H   4          1.99593    -0.63173  19(v)
     4. BD (   1) C   1 - C   5          1.99474    -0.64979  23(v),18(g)
     5. BD (   1) C   5 - C   6          1.99474    -0.64979  14(v),17(g)
     6. BD (   1) C   5 - H   7          1.99136    -0.62885  16(v),22(v)
     7. BD (   1) C   5 - H   8          1.99136    -0.62885  15(v),21(v)
     8. BD (   1) C   6 - H   9          1.99593    -0.63173  20(v)
     9. BD (   1) C   6 - H  10          1.99593    -0.63173  19(v)
    10. BD (   1) C   6 - H  11          1.99532    -0.63172  17(v)
    11. CR (   1) C   1                  1.99996   -10.96415   
    12. CR (   1) C   5                  1.99996   -10.97976   
    13. CR (   1) C   6                  1.99996   -10.96415   
    14. BD*(   1) C   1 - H   2          0.00396     0.73342   
    15. BD*(   1) C   1 - H   3          0.00465     0.73298   
    16. BD*(   1) C   1 - H   4          0.00465     0.73298   
    17. BD*(   1) C   1 - C   5          0.00617     0.69002   
    18. BD*(   1) C   5 - C   6          0.00617     0.69002   
    19. BD*(   1) C   5 - H   7          0.00734     0.73293   
    20. BD*(   1) C   5 - H   8          0.00734     0.73293   
    21. BD*(   1) C   6 - H   9          0.00465     0.73298   
    22. BD*(   1) C   6 - H  10          0.00465     0.73298   
    23. BD*(   1) C   6 - H  11          0.00396     0.73342   
       -------------------------------
              Total Lewis   25.94646  ( 99.7941%)
        Valence non-Lewis    0.05354  (  0.2059%)
        Rydberg non-Lewis    0.00000  (  0.0000%)
       -------------------------------
            Total unit  1   26.00000  (100.0000%)
           Charge unit  1    0.00000
 Calling FoFJK, ICntrl=    100127 FMM=F ISym2X=1 I1Cent= 0 IOpClX= 0 NMat=1 NMatS=1 NMatT=0.
 Full mass-weighted force constant matrix:
 Low frequencies ---  -45.0451  -16.2686  -11.3017   -0.0006   -0.0005   -0.0004
 Low frequencies ---  219.1739  271.9643  414.5527
 Diagonal vibrational polarizability:
        0.1726071       0.1470838       0.1007206
 Diagonal vibrational hyperpolarizability:
       -0.0000000       0.0000000      -0.2011426
 Harmonic frequencies (cm**-1), IR intensities (KM/Mole), Raman scattering
 activities (A**4/AMU), depolarization ratios for plane and unpolarized
 incident light, reduced masses (AMU), force constants (mDyne/A),
 and normal coordinates:
                      1                      2                      3
                     A2                     B1                     A1
 Frequencies --    219.1624               271.9261               414.5527
 Red. masses --      1.0274                 1.1361                 2.1259
 Frc consts  --      0.0291                 0.0495                 0.2153
 IR Inten    --      0.0000                 0.0002                 0.1836
 Raman Activ --      0.0001                 0.0083                 0.2511
 Depolar (P) --      0.7500                 0.7500                 0.2747
 Depolar (U) --      0.8571                 0.8571                 0.4310
  Atom  AN      X      Y      Z        X      Y      Z        X      Y      Z
     1   6    -0.03  -0.00  -0.00     0.04  -0.00  -0.00    -0.00   0.18   0.06
     2   1     0.37   0.00  -0.00     0.45  -0.00   0.00     0.00  -0.02   0.34
     3   1    -0.24  -0.18  -0.30    -0.11  -0.25  -0.22     0.01   0.39   0.08
     4   1    -0.24   0.18   0.30    -0.11   0.25   0.22    -0.01   0.39   0.08
     5   6     0.00   0.00   0.00    -0.09  -0.00   0.00    -0.00   0.00  -0.18
     6   6     0.03   0.00  -0.00     0.04   0.00   0.00     0.00  -0.18   0.06
     7   1     0.00   0.01   0.00    -0.17  -0.00   0.10    -0.01   0.00  -0.16
     8   1     0.00  -0.01   0.00    -0.17  -0.00  -0.10     0.01  -0.00  -0.16
     9   1     0.24  -0.18   0.30    -0.11   0.25  -0.22     0.01  -0.39   0.08
    10   1     0.24   0.18  -0.30    -0.11  -0.25   0.22    -0.01  -0.39   0.08
    11   1    -0.37  -0.00  -0.00     0.45  -0.00  -0.00    -0.00   0.02   0.34
                      4                      5                      6
                     B1                     A1                     A2
 Frequencies --    877.3592              1039.1119              1084.5939
 Red. masses --      1.0809                 2.3353                 1.0903
 Frc consts  --      0.4902                 1.4857                 0.7556
 IR Inten    --      3.5236                 0.6044                 0.0000
 Raman Activ --      0.0167                10.9077                 0.0177
 Depolar (P) --      0.7500                 0.2776                 0.7500
 Depolar (U) --      0.8571                 0.4346                 0.8571
  Atom  AN      X      Y      Z        X      Y      Z        X      Y      Z
     1   6     0.01   0.00   0.00     0.00   0.20  -0.06    -0.06   0.00  -0.00
     2   1    -0.12   0.00  -0.00    -0.00   0.46  -0.40     0.18   0.00  -0.00
     3   1    -0.13   0.22  -0.18    -0.02   0.01  -0.11     0.12  -0.31   0.23
     4   1    -0.13  -0.22   0.18     0.02   0.01  -0.11     0.12   0.31  -0.23
     5   6     0.08  -0.00  -0.00     0.00  -0.00   0.19     0.00   0.00   0.00
     6   6     0.01   0.00  -0.00    -0.00  -0.20  -0.06     0.06  -0.00  -0.00
     7   1    -0.27  -0.00   0.47     0.00  -0.00   0.21    -0.00   0.37   0.00
     8   1    -0.27  -0.00  -0.47    -0.00   0.00   0.21     0.00  -0.37   0.00
     9   1    -0.13  -0.22  -0.18    -0.02  -0.01  -0.11    -0.12  -0.31  -0.23
    10   1    -0.13   0.22   0.18     0.02  -0.01  -0.11    -0.12   0.31   0.23
    11   1    -0.12   0.00   0.00     0.00  -0.46  -0.40    -0.18  -0.00  -0.00
                      7                      8                      9
                     B2                     B2                     A1
 Frequencies --   1117.9463              1257.9093              1396.1589
 Red. masses --      1.1661                 2.0272                 1.6804
 Frc consts  --      0.8587                 1.8900                 1.9298
 IR Inten    --      1.4831                 0.0763                 2.1047
 Raman Activ --      0.4984                 9.6472                 5.7515
 Depolar (P) --      0.7500                 0.7500                 0.4891
 Depolar (U) --      0.8571                 0.8571                 0.6569
  Atom  AN      X      Y      Z        X      Y      Z        X      Y      Z
     1   6     0.00  -0.03  -0.08    -0.00  -0.11   0.10     0.00  -0.03  -0.12
     2   1    -0.00  -0.34   0.36     0.00  -0.14   0.12    -0.00  -0.31   0.27
     3   1     0.03   0.32  -0.02     0.02  -0.18   0.13     0.04   0.36  -0.04
     4   1    -0.03   0.32  -0.02    -0.02  -0.18   0.13    -0.04   0.36  -0.04
     5   6     0.00  -0.03  -0.00     0.00   0.22  -0.00    -0.00   0.00   0.18
     6   6     0.00  -0.03   0.08    -0.00  -0.11  -0.10     0.00   0.03  -0.12
     7   1    -0.00   0.22   0.00    -0.00   0.56   0.00     0.01   0.00   0.19
     8   1    -0.00   0.22  -0.00    -0.00   0.56  -0.00    -0.01   0.00   0.19
     9   1    -0.03   0.32   0.02    -0.02  -0.18  -0.13     0.04  -0.36  -0.04
    10   1     0.03   0.32   0.02     0.02  -0.18  -0.13    -0.04  -0.36  -0.04
    11   1    -0.00  -0.34  -0.36     0.00  -0.14  -0.12    -0.00   0.31   0.27
                     10                     11                     12
                     B1                     A2                     B2
 Frequencies --   1451.8110              1552.7057              1657.6865
 Red. masses --      1.6012                 1.1137                 1.3884
 Frc consts  --      1.9884                 1.5819                 2.2478
 IR Inten    --      0.4500                 0.0000                10.2712
 Raman Activ --      3.5106                16.3320                 0.0025
 Depolar (P) --      0.7500                 0.7500                 0.7500
 Depolar (U) --      0.8571                 0.8571                 0.8571
  Atom  AN      X      Y      Z        X      Y      Z        X      Y      Z
     1   6    -0.11   0.00  -0.00     0.07   0.00  -0.00     0.00  -0.00  -0.05
     2   1     0.18  -0.00   0.00    -0.07  -0.00   0.00    -0.00  -0.23   0.26
     3   1     0.08  -0.28   0.25    -0.03   0.16  -0.14     0.11  -0.11   0.11
     4   1     0.08   0.28  -0.25    -0.03  -0.16   0.14    -0.11  -0.11   0.11
     5   6     0.17  -0.00   0.00    -0.00   0.00  -0.00     0.00   0.17  -0.00
     6   6    -0.11   0.00   0.00    -0.07  -0.00  -0.00     0.00  -0.00   0.05
     7   1    -0.09   0.00   0.37    -0.00   0.63   0.00     0.00  -0.54  -0.00
     8   1    -0.09   0.00  -0.37     0.00  -0.63   0.00     0.00  -0.54   0.00
     9   1     0.08   0.28   0.25     0.03   0.16   0.14    -0.11  -0.11  -0.11
    10   1     0.08  -0.28  -0.25     0.03  -0.16  -0.14     0.11  -0.11  -0.11
    11   1     0.18  -0.00  -0.00     0.07   0.00   0.00    -0.00  -0.23  -0.26
                     13                     14                     15
                     A1                     B2                     A1
 Frequencies --   1744.7514              1746.1136              1823.2373
 Red. masses --      1.2646                 1.4644                 1.0629
 Frc consts  --      2.2682                 2.6306                 2.0818
 IR Inten    --      0.0109                 0.2343                 0.4778
 Raman Activ --      2.7466                 4.5784                39.2654
 Depolar (P) --      0.7320                 0.7500                 0.7497
 Depolar (U) --      0.8453                 0.8571                 0.8570
  Atom  AN      X      Y      Z        X      Y      Z        X      Y      Z
     1   6    -0.00   0.09  -0.06    -0.00  -0.11   0.04     0.00   0.01   0.03
     2   1     0.00  -0.21   0.35     0.00   0.14  -0.31    -0.00  -0.07   0.12
     3   1     0.15  -0.34   0.13    -0.09   0.37  -0.06    -0.18  -0.04  -0.24
     4   1    -0.15  -0.34   0.13     0.09   0.37  -0.06     0.18  -0.04  -0.24
     5   6     0.00  -0.00   0.01     0.00   0.11   0.00    -0.00  -0.00  -0.06
     6   6     0.00  -0.09  -0.06    -0.00  -0.11  -0.04    -0.00  -0.01   0.03
     7   1    -0.04   0.00   0.08    -0.00  -0.24   0.00    -0.35  -0.00   0.42
     8   1     0.04   0.00   0.08     0.00  -0.24   0.00     0.35   0.00   0.42
     9   1     0.15   0.34   0.13     0.09   0.37   0.06    -0.18   0.04  -0.24
    10   1    -0.15   0.34   0.13    -0.09   0.37   0.06     0.18   0.04  -0.24
    11   1    -0.00   0.21   0.35     0.00   0.14   0.31     0.00   0.07   0.12
                     16                     17                     18
                     A2                     B2                     B1
 Frequencies --   1834.3920              1840.6851              1840.9810
 Red. masses --      1.0479                 1.0575                 1.0454
 Frc consts  --      2.0775                 2.1110                 2.0876
 IR Inten    --      0.0000                 0.2499                 3.4264
 Raman Activ --     32.1532                 0.0014                 1.0707
 Depolar (P) --      0.7500                 0.7500                 0.7500
 Depolar (U) --      0.8571                 0.8571                 0.8571
  Atom  AN      X      Y      Z        X      Y      Z        X      Y      Z
     1   6    -0.04   0.00   0.00    -0.00  -0.01  -0.04    -0.04   0.00   0.00
     2   1     0.52  -0.00   0.00     0.00   0.12  -0.21     0.51  -0.00   0.00
     3   1     0.04   0.32   0.12     0.28   0.08   0.36     0.04   0.32   0.11
     4   1     0.04  -0.32  -0.12    -0.28   0.08   0.36     0.04  -0.32  -0.11
     5   6    -0.00   0.00  -0.00    -0.00  -0.03  -0.00    -0.02   0.00  -0.00
     6   6     0.04  -0.00   0.00    -0.00  -0.01   0.04    -0.04   0.00  -0.00
     7   1    -0.00   0.01   0.00    -0.00   0.07  -0.00    -0.00  -0.00  -0.03
     8   1     0.00  -0.01   0.00    -0.00   0.07   0.00    -0.00  -0.00   0.03
     9   1    -0.04   0.32  -0.12    -0.28   0.08  -0.36     0.04  -0.32   0.11
    10   1    -0.04  -0.32   0.12     0.28   0.08  -0.36     0.04   0.32  -0.11
    11   1    -0.52   0.00   0.00     0.00   0.12   0.21     0.51  -0.00  -0.00
                     19                     20                     21
                     A1                     B2                     A1
 Frequencies --   1853.5625              3570.0628              3570.2490
 Red. masses --      1.0858                 1.0395                 1.0398
 Frc consts  --      2.1980                 7.8063                 7.8088
 IR Inten    --      0.6540                 3.2970                 1.6754
 Raman Activ --      4.2789                 3.4410                71.1457
 Depolar (P) --      0.7478                 0.7500                 0.0044
 Depolar (U) --      0.8557                 0.8571                 0.0088
  Atom  AN      X      Y      Z        X      Y      Z        X      Y      Z
     1   6    -0.00  -0.03  -0.02    -0.00  -0.03   0.02     0.00  -0.03   0.02
     2   1     0.00   0.11  -0.20    -0.00   0.33   0.24     0.00   0.33   0.24
     3   1     0.21   0.09   0.28     0.33   0.01  -0.24     0.33   0.01  -0.24
     4   1    -0.21   0.09   0.28    -0.33   0.01  -0.24    -0.33   0.01  -0.24
     5   6     0.00   0.00  -0.07     0.00   0.00  -0.00     0.00  -0.00  -0.00
     6   6     0.00   0.03  -0.02    -0.00  -0.03  -0.02     0.00   0.03   0.02
     7   1    -0.29  -0.00   0.32    -0.00   0.00  -0.00    -0.01  -0.00  -0.01
     8   1     0.29  -0.00   0.32    -0.00   0.00   0.00     0.01  -0.00  -0.01
     9   1     0.21  -0.09   0.28    -0.33   0.01   0.24     0.33  -0.01  -0.24
    10   1    -0.21  -0.09   0.28     0.33   0.01   0.24    -0.33  -0.01  -0.24
    11   1    -0.00  -0.11  -0.20    -0.00   0.33  -0.24    -0.00  -0.33   0.24
                     22                     23                     24
                     A1                     B1                     B2
 Frequencies --   3610.7380              3722.4985              3753.0035
 Red. masses --      1.0675                 1.1113                 1.1086
 Frc consts  --      8.2000                 9.0733                 9.2002
 IR Inten    --      4.4031                 1.8043                 1.1775
 Raman Activ --     40.8240                51.9538                23.1603
 Depolar (P) --      0.1665                 0.7500                 0.7500
 Depolar (U) --      0.2854                 0.8571                 0.8571
  Atom  AN      X      Y      Z        X      Y      Z        X      Y      Z
     1   6     0.00  -0.00   0.00     0.02  -0.00  -0.00    -0.00  -0.04  -0.06
     2   1    -0.00  -0.01  -0.01     0.00   0.00   0.00    -0.00   0.47   0.34
     3   1     0.02  -0.00  -0.01    -0.11   0.00   0.08    -0.24  -0.01   0.17
     4   1    -0.02  -0.00  -0.01    -0.11  -0.00  -0.08     0.24  -0.01   0.17
     5   6    -0.00   0.00  -0.07    -0.09   0.00   0.00     0.00   0.00  -0.00
     6   6    -0.00   0.00   0.00     0.02  -0.00   0.00    -0.00  -0.04   0.06
     7   1     0.57   0.00   0.41     0.55  -0.00   0.40    -0.00  -0.00  -0.00
     8   1    -0.57  -0.00   0.41     0.55  -0.00  -0.40    -0.00  -0.00   0.00
     9   1     0.02   0.00  -0.01    -0.11  -0.00   0.08     0.24  -0.01  -0.17
    10   1    -0.02   0.00  -0.01    -0.11   0.00  -0.08    -0.24  -0.01  -0.17
    11   1     0.00   0.01  -0.01     0.00   0.00  -0.00    -0.00   0.47  -0.34
                     25                     26                     27
                     A2                     A1                     B1
 Frequencies --   3753.1949              3754.8714              3756.2456
 Red. masses --      1.1094                 1.1095                 1.1079
 Frc consts  --      9.2076                 9.2168                 9.2102
 IR Inten    --      0.0000                 3.2136                 6.7504
 Raman Activ --      2.8899                36.5344                25.8588
 Depolar (P) --      0.7500                 0.7271                 0.7500
 Depolar (U) --      0.8571                 0.8420                 0.8571
  Atom  AN      X      Y      Z        X      Y      Z        X      Y      Z
     1   6    -0.07   0.00   0.00    -0.00  -0.04  -0.06    -0.07   0.00   0.00
     2   1    -0.00  -0.00  -0.00    -0.00   0.47   0.34    -0.00  -0.00  -0.00
     3   1     0.40   0.01  -0.29    -0.23  -0.01   0.16     0.39   0.01  -0.28
     4   1     0.40  -0.01   0.29     0.23  -0.01   0.16     0.39  -0.01   0.28
     5   6     0.00  -0.00  -0.00    -0.00   0.00  -0.00    -0.02   0.00   0.00
     6   6     0.07  -0.00   0.00     0.00   0.04  -0.06    -0.07   0.00  -0.00
     7   1     0.00  -0.01   0.00     0.02  -0.00   0.02     0.15   0.00   0.11
     8   1    -0.00   0.01   0.00    -0.02   0.00   0.02     0.15  -0.00  -0.11
     9   1    -0.40   0.01   0.29    -0.23   0.01   0.16     0.39  -0.01  -0.28
    10   1    -0.40  -0.01  -0.29     0.23   0.01   0.16     0.39   0.01   0.28
    11   1     0.00   0.00  -0.00     0.00  -0.47   0.34    -0.00  -0.00   0.00

 -------------------
 - Thermochemistry -
 -------------------
 Temperature   298.150 Kelvin.  Pressure   1.00000 Atm.
 Atom     1 has atomic number  6 and mass  12.00000
 Atom     2 has atomic number  1 and mass   1.00783
 Atom     3 has atomic number  1 and mass   1.00783
 Atom     4 has atomic number  1 and mass   1.00783
 Atom     5 has atomic number  6 and mass  12.00000
 Atom     6 has atomic number  6 and mass  12.00000
 Atom     7 has atomic number  1 and mass   1.00783
 Atom     8 has atomic number  1 and mass   1.00783
 Atom     9 has atomic number  1 and mass   1.00783
 Atom    10 has atomic number  1 and mass   1.00783
 Atom    11 has atomic number  1 and mass   1.00783
 Molecular mass:    44.06260 amu.
 Principal axes and moments of inertia in atomic units:
                           1         2         3
     Eigenvalues --    61.29486 216.22557 244.23253
           X            0.00000  -0.00000   1.00000
           Y            1.00000  -0.00000  -0.00000
           Z            0.00000   1.00000   0.00000
 This molecule is an asymmetric top.
 Rotational symmetry number  2.
 Rotational temperatures (Kelvin)      1.41307     0.40057     0.35464
 Rotational constants (GHZ):          29.44360     8.34657     7.38944
 Zero-point vibrational energy     326075.2 (Joules/Mol)
                                   77.93384 (Kcal/Mol)
 Warning -- explicit consideration of   3 degrees of freedom as
           vibrations may cause significant error
 Vibrational temperatures:    315.33   391.24   596.45  1262.32  1495.05
          (Kelvin)           1560.49  1608.48  1809.85  2008.76  2088.83
                             2234.00  2385.04  2510.31  2512.27  2623.23
                             2639.28  2648.34  2648.76  2666.86  5136.52
                             5136.79  5195.05  5355.85  5399.74  5400.01
                             5402.42  5404.40
 
 Zero-point correction=                           0.124195 (Hartree/Particle)
 Thermal correction to Energy=                    0.128494
 Thermal correction to Enthalpy=                  0.129438
 Thermal correction to Gibbs Free Energy=         0.099260
 Sum of electronic and zero-point Energies=           -116.762226
 Sum of electronic and thermal Energies=              -116.757927
 Sum of electronic and thermal Enthalpies=            -116.756983
 Sum of electronic and thermal Free Energies=         -116.787161
 
                     E (Thermal)             CV                S
                      KCal/Mol        Cal/Mol-Kelvin    Cal/Mol-Kelvin
 Total                   80.631             13.006             63.515
 Electronic               0.000              0.000              0.000
 Translational            0.889              2.981             37.275
 Rotational               0.889              2.981             21.320
 Vibrational             78.854              7.044              4.920
 Vibration     1          0.647              1.812              1.966
 Vibration     2          0.675              1.725              1.584
 Vibration     3          0.778              1.439              0.911
                       Q            Log10(Q)             Ln(Q)
 Total Bot       0.220537D-45        -45.656519       -105.128021
 Total V=0       0.294701D+12         11.469381         26.409226
 Vib (Bot)       0.188382D-56        -56.724961       -130.614051
 Vib (Bot)    1  0.902859D+00         -0.044380         -0.102189
 Vib (Bot)    2  0.710013D+00         -0.148734         -0.342473
 Vib (Bot)    3  0.425320D+00         -0.371285         -0.854914
 Vib (V=0)       0.251733D+01          0.400939          0.923197
 Vib (V=0)    1  0.153206D+01          0.185277          0.426615
 Vib (V=0)    2  0.136840D+01          0.136213          0.313642
 Vib (V=0)    3  0.115643D+01          0.063118          0.145335
 Electronic      0.100000D+01          0.000000          0.000000
 Translational   0.114963D+08          7.060559         16.257538
 Rotational      0.101832D+05          4.007883          9.228491
 ***** Axes restored to original set *****
 -------------------------------------------------------------------
 Center     Atomic                   Forces (Hartrees/Bohr)
 Number     Number              X              Y              Z
 -------------------------------------------------------------------
      1        6           0.000094380   -0.000294841   -0.000216888
      2        1           0.000000284   -0.000054311    0.000246204
      3        1           0.000221578    0.000182617   -0.000098744
      4        1          -0.000271289    0.000046515   -0.000128199
      5        6          -0.000021427    0.000103070   -0.000117730
      6        6          -0.000082564    0.000238004    0.000281809
      7        1           0.000338520   -0.000004415    0.000124829
      8        1          -0.000300028   -0.000180746    0.000086669
      9        1           0.000227136    0.000165882   -0.000114407
     10        1          -0.000265732    0.000029779   -0.000143862
     11        1           0.000059142   -0.000231554    0.000080319
 -------------------------------------------------------------------
 Cartesian Forces:  Max     0.000338520 RMS     0.000179816
 FormGI is forming the generalized inverse of G from B-inverse, IUseBI=4.

 GradGradGradGradGradGradGradGradGradGradGradGradGradGradGradGradGradGrad
 Berny optimization.
 Internal  Forces:  Max     0.000351148 RMS     0.000139485
 Search for a local minimum.
 Step number   1 out of a maximum of    2
 All quantities printed in internal units (Hartrees-Bohrs-Radians)
 Second derivative matrix not updated -- analytic derivatives used.
 ITU=  0
     Eigenvalues ---    0.00237   0.00275   0.04841   0.05772   0.06798
     Eigenvalues ---    0.06837   0.06886   0.07022   0.10100   0.14139
     Eigenvalues ---    0.17652   0.18265   0.18687   0.20236   0.21045
     Eigenvalues ---    0.22744   0.28665   0.41459   0.42365   0.46980
     Eigenvalues ---    0.47223   0.47241   0.47844   0.48583   0.48595
     Eigenvalues ---    0.48665   0.48712
 Angle between quadratic step and forces=  37.06 degrees.
 Linear search not attempted -- first point.
 Iteration  1 RMS(Cart)=  0.00047572 RMS(Int)=  0.00000010
 Iteration  2 RMS(Cart)=  0.00000013 RMS(Int)=  0.00000004
 ClnCor:  largest displacement from symmetrization is 6.81D-09 for atom    11.
 Variable       Old X    -DE/DX   Delta X   Delta X   Delta X     New X
                                 (Linear)    (Quad)   (Total)
    R1        2.05174   0.00023   0.00000   0.00051   0.00051   2.05225
    R2        2.05165   0.00030   0.00000   0.00062   0.00062   2.05227
    R3        2.05165   0.00030   0.00000   0.00062   0.00062   2.05227
    R4        2.91268  -0.00015   0.00000  -0.00025  -0.00025   2.91243
    R5        2.91268  -0.00015   0.00000  -0.00025  -0.00025   2.91243
    R6        2.05640   0.00035   0.00000   0.00072   0.00072   2.05712
    R7        2.05640   0.00035   0.00000   0.00072   0.00072   2.05712
    R8        2.05165   0.00030   0.00000   0.00062   0.00062   2.05227
    R9        2.05165   0.00030   0.00000   0.00062   0.00062   2.05227
   R10        2.05174   0.00023   0.00000   0.00051   0.00051   2.05225
    A1        1.88937   0.00005   0.00000   0.00009   0.00009   1.88945
    A2        1.88937   0.00005   0.00000   0.00009   0.00009   1.88945
    A3        1.93129  -0.00016   0.00000  -0.00067  -0.00067   1.93062
    A4        1.88782   0.00001   0.00000   0.00026   0.00026   1.88808
    A5        1.93227   0.00002   0.00000   0.00013   0.00013   1.93239
    A6        1.93227   0.00002   0.00000   0.00013   0.00013   1.93239
    A7        1.96406  -0.00019   0.00000  -0.00073  -0.00073   1.96333
    A8        1.90706   0.00005   0.00000   0.00001   0.00001   1.90707
    A9        1.90706   0.00005   0.00000   0.00001   0.00001   1.90707
   A10        1.90706   0.00005   0.00000   0.00001   0.00001   1.90707
   A11        1.90706   0.00005   0.00000   0.00001   0.00001   1.90707
   A12        1.86914   0.00002   0.00000   0.00075   0.00075   1.86989
   A13        1.93227   0.00002   0.00000   0.00013   0.00013   1.93239
   A14        1.93227   0.00002   0.00000   0.00013   0.00013   1.93239
   A15        1.93129  -0.00016   0.00000  -0.00067  -0.00067   1.93062
   A16        1.88782   0.00001   0.00000   0.00026   0.00026   1.88808
   A17        1.88937   0.00005   0.00000   0.00009   0.00009   1.88945
   A18        1.88937   0.00005   0.00000   0.00009   0.00009   1.88945
    D1        3.14159   0.00000   0.00000   0.00000   0.00000   3.14159
    D2       -1.01991  -0.00004   0.00000  -0.00046  -0.00046  -1.02037
    D3        1.01991   0.00004   0.00000   0.00046   0.00046   1.02037
    D4       -1.04676  -0.00002   0.00000  -0.00025  -0.00025  -1.04701
    D5        1.07491  -0.00006   0.00000  -0.00070  -0.00070   1.07421
    D6        3.11474   0.00001   0.00000   0.00021   0.00021   3.11496
    D7        1.04676   0.00002   0.00000   0.00025   0.00025   1.04701
    D8       -3.11474  -0.00001   0.00000  -0.00021  -0.00021  -3.11496
    D9       -1.07491   0.00006   0.00000   0.00070   0.00070  -1.07421
   D10        1.04676   0.00002   0.00000   0.00025   0.00025   1.04701
   D11       -1.04676  -0.00002   0.00000  -0.00025  -0.00025  -1.04701
   D12        3.14159  -0.00000   0.00000   0.00000   0.00000  -3.14159
   D13       -1.07491   0.00006   0.00000   0.00070   0.00070  -1.07421
   D14        3.11474   0.00001   0.00000   0.00021   0.00021   3.11496
   D15        1.01991   0.00004   0.00000   0.00046   0.00046   1.02037
   D16       -3.11474  -0.00001   0.00000  -0.00021  -0.00021  -3.11496
   D17        1.07491  -0.00006   0.00000  -0.00070  -0.00070   1.07421
   D18       -1.01991  -0.00004   0.00000  -0.00046  -0.00046  -1.02037
         Item               Value     Threshold  Converged?
 Maximum Force            0.000351     0.000450     YES
 RMS     Force            0.000139     0.000300     YES
 Maximum Displacement     0.001034     0.001800     YES
 RMS     Displacement     0.000476     0.001200     YES
 Predicted change in Energy=-1.112535D-06
 Optimization completed.
    -- Stationary point found.
                           ----------------------------
                           !   Optimized Parameters   !
                           ! (Angstroms and Degrees)  !
 --------------------------                            --------------------------
 ! Name  Definition              Value          Derivative Info.                !
 --------------------------------------------------------------------------------
 ! R1    R(1,2)                  1.0857         -DE/DX =    0.0002              !
 ! R2    R(1,3)                  1.0857         -DE/DX =    0.0003              !
 ! R3    R(1,4)                  1.0857         -DE/DX =    0.0003              !
 ! R4    R(1,5)                  1.5413         -DE/DX =   -0.0002              !
 ! R5    R(5,6)                  1.5413         -DE/DX =   -0.0002              !
 ! R6    R(5,7)                  1.0882         -DE/DX =    0.0004              !
 ! R7    R(5,8)                  1.0882         -DE/DX =    0.0004              !
 ! R8    R(6,9)                  1.0857         -DE/DX =    0.0003              !
 ! R9    R(6,10)                 1.0857         -DE/DX =    0.0003              !
 ! R10   R(6,11)                 1.0857         -DE/DX =    0.0002              !
 ! A1    A(2,1,3)              108.2527         -DE/DX =    0.0001              !
 ! A2    A(2,1,4)              108.2527         -DE/DX =    0.0001              !
 ! A3    A(2,1,5)              110.655          -DE/DX =   -0.0002              !
 ! A4    A(3,1,4)              108.1641         -DE/DX =    0.0                 !
 ! A5    A(3,1,5)              110.7107         -DE/DX =    0.0                 !
 ! A6    A(4,1,5)              110.7107         -DE/DX =    0.0                 !
 ! A7    A(1,5,6)              112.5321         -DE/DX =   -0.0002              !
 ! A8    A(1,5,7)              109.2665         -DE/DX =    0.0                 !
 ! A9    A(1,5,8)              109.2665         -DE/DX =    0.0                 !
 ! A10   A(6,5,7)              109.2665         -DE/DX =    0.0                 !
 ! A11   A(6,5,8)              109.2665         -DE/DX =    0.0                 !
 ! A12   A(7,5,8)              107.0936         -DE/DX =    0.0                 !
 ! A13   A(5,6,9)              110.7107         -DE/DX =    0.0                 !
 ! A14   A(5,6,10)             110.7107         -DE/DX =    0.0                 !
 ! A15   A(5,6,11)             110.655          -DE/DX =   -0.0002              !
 ! A16   A(9,6,10)             108.1641         -DE/DX =    0.0                 !
 ! A17   A(9,6,11)             108.2527         -DE/DX =    0.0001              !
 ! A18   A(10,6,11)            108.2527         -DE/DX =    0.0001              !
 ! D1    D(2,1,5,6)            180.0            -DE/DX =    0.0                 !
 ! D2    D(2,1,5,7)            -58.4368         -DE/DX =    0.0                 !
 ! D3    D(2,1,5,8)             58.4368         -DE/DX =    0.0                 !
 ! D4    D(3,1,5,6)            -59.9752         -DE/DX =    0.0                 !
 ! D5    D(3,1,5,7)             61.588          -DE/DX =   -0.0001              !
 ! D6    D(3,1,5,8)            178.4616         -DE/DX =    0.0                 !
 ! D7    D(4,1,5,6)             59.9752         -DE/DX =    0.0                 !
 ! D8    D(4,1,5,7)           -178.4616         -DE/DX =    0.0                 !
 ! D9    D(4,1,5,8)            -61.588          -DE/DX =    0.0001              !
 ! D10   D(1,5,6,9)             59.9752         -DE/DX =    0.0                 !
 ! D11   D(1,5,6,10)           -59.9752         -DE/DX =    0.0                 !
 ! D12   D(1,5,6,11)          -180.0            -DE/DX =    0.0                 !
 ! D13   D(7,5,6,9)            -61.588          -DE/DX =    0.0001              !
 ! D14   D(7,5,6,10)           178.4616         -DE/DX =    0.0                 !
 ! D15   D(7,5,6,11)            58.4368         -DE/DX =    0.0                 !
 ! D16   D(8,5,6,9)           -178.4616         -DE/DX =    0.0                 !
 ! D17   D(8,5,6,10)            61.588          -DE/DX =   -0.0001              !
 ! D18   D(8,5,6,11)           -58.4368         -DE/DX =    0.0                 !
 --------------------------------------------------------------------------------
 GradGradGradGradGradGradGradGradGradGradGradGradGradGradGradGradGradGrad


 ----------------------------------------------------------------------

 Electric dipole moment (input orientation):
 (Debye = 10**-18 statcoulomb cm , SI units = C m)
                  (au)            (Debye)         (10**-30 SI)
   Tot        0.958264D-02      0.243567D-01      0.812450D-01
   x          0.130006D-02      0.330442D-02      0.110224D-01
   y         -0.625381D-02     -0.158956D-01     -0.530220D-01
   z          0.714330D-02      0.181565D-01      0.605634D-01

 Dipole polarizability, Alpha (input orientation).
 (esu units = cm**3 , SI units = C**2 m**2 J**-1)
 Alpha(0;0):
               (au)            (10**-24 esu)      (10**-40 SI)
   iso        0.162439D+02      0.240710D+01      0.267826D+01
   aniso      0.146241D+01      0.216707D+00      0.241119D+00
   xx         0.158004D+02      0.234138D+01      0.260513D+01
   yx        -0.258525D+00     -0.383095D-01     -0.426251D-01
   yy         0.165072D+02      0.244612D+01      0.272168D+01
   zx        -0.226649D+00     -0.335858D-01     -0.373693D-01
   zy         0.667385D+00      0.988962D-01      0.110037D+00
   zz         0.164242D+02      0.243382D+01      0.270798D+01

 First dipole hyperpolarizability, Beta (input orientation).
 ||, _|_  parallel and perpendicular components, (z) with respect to z axis,
 vector components x,y,z.  Values do not include the 1/n! factor of 1/2.
 (esu units = statvolt**-1 cm**4 , SI units = C**3 m**3 J**-2)
 Beta(0;0,0):
               (au)            (10**-30 esu)      (10**-50 SI)
   || (z)     0.896319D+00      0.774349D-02      0.287392D-02
   _|_(z)     0.298773D+00      0.258116D-02      0.957974D-03
   x          0.815636D+00      0.704646D-02      0.261522D-02
   y         -0.392354D+01     -0.338963D-01     -0.125803D-01
   z          0.448159D+01      0.387175D-01      0.143696D-01
   ||         0.120240D+01      0.103878D-01      0.385533D-02
   xxx       -0.128668D+01     -0.111159D-01     -0.412557D-02
   xxy        0.154287D+01      0.133292D-01      0.494699D-02
   yxy        0.285804D+01      0.246912D-01      0.916391D-02
   yyy       -0.512662D+01     -0.442900D-01     -0.164378D-01
   xxz       -0.265523D+01     -0.229392D-01     -0.851364D-02
   yxz       -0.354569D+00     -0.306320D-02     -0.113687D-02
   yyz       -0.147831D+01     -0.127715D-01     -0.474001D-02
   zxz       -0.129948D+01     -0.112265D-01     -0.416660D-02
   zyz        0.227591D+01      0.196621D-01      0.729738D-02
   zzz        0.562741D+01      0.486165D-01      0.180435D-01

 ----------------------------------------------------------------------

 Dipole orientation:
     6         -1.44365265         -1.01336878         -1.19252392
     1         -1.92278620          0.58437673          0.00216174
     1          0.12772648         -0.46892198         -2.39403043
     1         -3.05532304         -1.42345810         -2.39403043
     6         -0.74787489         -3.33354820          0.42499740
     6         -0.05209713         -5.65372763         -1.19252392
     1          0.83647153         -2.85843279          1.64684107
     1         -2.33222131         -3.80866362          1.64684107
     1          1.55957326         -5.24363830         -2.39403043
     1         -1.62347625         -6.19817443         -2.39403043
     1          0.42703642         -7.25147314          0.00216174

 Electric dipole moment (dipole orientation):
 (Debye = 10**-18 statcoulomb cm , SI units = C m)
                  (au)            (Debye)         (10**-30 SI)
   Tot        0.958264D-02      0.243567D-01      0.812450D-01
   x          0.000000D+00      0.000000D+00      0.000000D+00
   y          0.000000D+00      0.000000D+00      0.000000D+00
   z          0.958264D-02      0.243567D-01      0.812450D-01

 Dipole polarizability, Alpha (dipole orientation).
 (esu units = cm**3 , SI units = C**2 m**2 J**-1)
 Alpha(0;0):
               (au)            (10**-24 esu)      (10**-40 SI)
   iso        0.162439D+02      0.240710D+01      0.267826D+01
   aniso      0.146241D+01      0.216707D+00      0.241119D+00
   xx         0.158394D+02      0.234716D+01      0.261157D+01
   yx        -0.413322D+00     -0.612480D-01     -0.681476D-01
   yy         0.170938D+02      0.253303D+01      0.281838D+01
   zx         0.000000D+00      0.000000D+00      0.000000D+00
   zy         0.000000D+00      0.000000D+00      0.000000D+00
   zz         0.157987D+02      0.234112D+01      0.260485D+01

 First dipole hyperpolarizability, Beta (dipole orientation).
 ||, _|_  parallel and perpendicular components, (z) with respect to z axis,
 vector components x,y,z.  Values do not include the 1/n! factor of 1/2.
 (esu units = statvolt**-1 cm**4 , SI units = C**3 m**3 J**-2)
 Beta(0;0,0):
               (au)            (10**-30 esu)      (10**-50 SI)
   || (z)     0.120240D+01      0.103878D-01      0.385533D-02
   _|_(z)     0.400800D+00      0.346260D-02      0.128511D-02
   x          0.000000D+00      0.000000D+00      0.000000D+00
   y          0.000000D+00      0.000000D+00      0.000000D+00
   z          0.601200D+01      0.519390D-01      0.192766D-01
   ||         0.120240D+01      0.103878D-01      0.385533D-02
   xxx        0.000000D+00      0.000000D+00      0.000000D+00
   xxy        0.000000D+00      0.000000D+00      0.000000D+00
   yxy        0.000000D+00      0.000000D+00      0.000000D+00
   yyy        0.000000D+00      0.000000D+00      0.000000D+00
   xxz       -0.297515D+01     -0.257029D-01     -0.953939D-02
   yxz       -0.260598D+01     -0.225136D-01     -0.835570D-02
   yyz        0.493340D+01      0.426208D-01      0.158183D-01
   zxz        0.000000D+00      0.000000D+00      0.000000D+00
   zyz        0.000000D+00      0.000000D+00      0.000000D+00
   zzz        0.457409D-01      0.395166D-03      0.146662D-03

 ----------------------------------------------------------------------
 Unable to Open any file for archive entry.
 1\1\GINC-LOCALHOST\Freq\RHF\STO-3G\C3H8\USER\21-Mar-2026\0\\#N Geom=Al
 lCheck Guess=TCheck SCRF=Check GenChk RHF/STO-3G Freq\\Propane-HF-STO-
 3G\\0,1\C,-0.8687084131,-0.032312165,-0.7167401341\H,-0.990923373,0.18
 14203314,0.3407093286\H,-0.117583515,0.6426162929,-1.1154873438\H,-1.8
 098413852,0.1753102201,-1.2166181665\C,-0.4505562581,-1.5004376568,-0.
 9299028154\C,-0.2646558408,-1.851338479,-2.419195151\H,0.4794755272,-1
 .6898032045,-0.3975839009\H,-1.2051496669,-2.1550015632,-0.4982585882\
 H,0.5039588641,-1.2290783156,-2.8672354367\H,-1.188299006,-1.696384388
 4,-2.9683662593\H,0.0290980147,-2.8902423515,-2.534107547\\Version=ES6
 4L-G16RevC.02\State=1-A1\HF=-116.8864211\RMSD=1.172e-09\RMSF=1.798e-04
 \ZeroPoint=0.1241955\Thermal=0.1284941\ETot=-116.7579269\HTot=-116.756
 9828\GTot=-116.7871608\Dipole=0.0013001,-0.0062538,0.0071433\DipoleDer
 iv=-0.0045374,-0.0121275,-0.0013986,-0.0146825,0.0418382,0.0155332,0.0
 104074,-0.0272198,-0.0563423,0.0343405,0.0167172,0.0177752,0.0184739,-
 0.0165567,-0.047705,0.0096578,-0.0183092,-0.0369846,-0.006395,-0.01909
 87,0.0252181,-0.0236236,-0.0322269,0.0123556,0.0251908,0.0153809,0.024
 7178,-0.0250664,0.0200619,-0.032924,0.0248926,-0.0065917,-0.0004924,-0
 .0343095,0.0015987,0.017754,0.0486493,-0.0282337,-0.0202369,-0.0282337
 ,0.1300219,0.0548228,-0.020237,0.0548228,0.1249502,-0.0111118,0.011029
 4,0.0016101,0.0135843,-0.0533984,-0.0173954,-0.0101959,0.0253576,0.045
 4687,-0.0327105,0.0262361,-0.0261018,0.0325764,-0.0172027,-0.0108253,-
 0.0328763,-0.0130749,-0.0358468,-0.0099753,-0.0189672,0.0302634,-0.025
 3075,-0.0474033,0.0009053,0.0370378,0.0031549,-0.0283815,-0.002009,-0.
 0340574,0.0238804,-0.0344446,0.0056319,0.0096571,0.0291561,0.0083747,-
 0.017527,-0.0240329,0.0141316,-0.0257473,0.014213,0.0340549,-0.000776,
 -0.0296102,-0.00461,-0.0239261,0.0328487,0.0243083,0.0076616,0.0225516
 ,-0.0381672,-0.0160799,0.015779,-0.0454757,-0.0138823\Polar=15.8004003
 ,-0.2585253,16.5072342,-0.2266485,0.6673846,16.4241997\PolarDeriv=1.00
 90342,-1.2827415,-1.6125447,1.3430583,0.0262456,0.53484,-0.9146227,-1.
 53153,2.039496,0.0308422,1.1158617,-0.8237685,1.3760453,0.1307227,0.79
 80865,0.6172245,-1.1090005,-2.4163898,-0.8356978,0.9357632,0.2079019,1
 .9353297,-0.1724828,-0.2932839,0.2278685,-0.1102016,1.1759487,-0.16882
 75,2.4065927,0.6611826,-0.0866399,-0.1642195,0.3559717,-0.6264897,1.43
 05187,5.6014552,2.643891,1.8322195,0.7692933,-0.9425627,-0.0413079,0.0
 273171,0.2367741,1.9605232,3.5263086,0.0603852,-0.9247454,0.1590504,-0
 .3294795,-0.0601038,-0.3562139,1.2239297,1.6998275,-0.9121141,-4.40335
 49,1.2736662,-0.1463164,-1.1621087,0.0862903,-0.2113046,0.519544,-1.90
 32098,1.0548051,-0.018627,-1.153051,0.0829991,-0.4471261,0.0875828,-0.
 3340746,-1.9624703,0.8369843,-1.3067342,-0.9371844,1.2515112,1.7126939
 ,-1.9805138,-0.2053583,-0.7379618,1.0504701,1.6930671,-2.4346828,-0.18
 59522,-1.2998704,1.2035931,-1.7269259,-0.3011698,-0.731136,-0.8679951,
 1.7224772,2.6643725,0.5267089,-0.7414384,-1.2523538,1.8740827,0.363631
 3,0.6894678,-0.8348673,-1.2981068,2.1797008,0.339913,0.7520341,-1.1415
 787,1.5037353,0.3535621,0.4219197,0.751134,-1.4442226,-2.2594923,4.248
 8185,-1.0212382,0.0451685,1.8228688,-0.1141623,0.62037,-0.4355062,1.75
 06411,-0.7026256,-0.0201296,1.477167,-0.2045719,0.5600357,-0.0181857,0
 .2403515,2.3151976,-0.8291466,2.3779304,-2.8675727,-1.7323917,-0.69490
 34,1.5389008,0.2434541,-0.290347,-0.3078848,-1.9856006,-3.0215954,0.14
 66915,1.39756,-0.4342233,0.5022056,0.160956,0.2905134,-1.5548669,-1.86
 46005,1.8616645,3.1578233,1.2477658,0.3413524,-1.7090175,-0.1646989,0.
 3707422,0.326858,1.754282,1.8057343,-0.1827269,-1.2286519,0.4964088,-0
 .5824559,-0.0705565,-0.0074677,1.7594131,1.4657444,-2.2181463,-3.72791
 91,0.2963832,0.0997765,-1.8447916,-0.1272745,-0.7034169,0.1766401,-1.4
 511232,-0.0197242,-0.1050292,-1.3912656,0.2073002,-0.4257776,-0.208816
 4,-0.1101896,-2.2468182,0.3496855,-2.7622302,1.185453,-2.0594993,0.529
 932,-0.875246,0.1056633,-0.0064232,-0.0452735,1.1212585,-5.6033651,0.1
 034606,-1.1516314,-0.206392,-0.3436165,0.0902282,-0.5677608,0.5917413,
 -2.2582677,-0.6303155\HyperPolar=-1.2866829,1.5428669,2.8580402,-5.126
 6205,-2.6552345,-0.3545686,-1.478314,-1.2994785,2.2759068,5.6274128\Qu
 adrupole=0.1698439,-0.0857974,-0.0840466,0.0838687,0.0450702,-0.102672
 8\PG=C02V [C2(C1),SGV(C2H2),SGV'(H2),X(H4)]\NImag=0\\0.85232261,0.0361
 2130,0.73587208,0.00508708,-0.01883924,0.86452980,-0.08570657,0.006083
 32,0.04158484,0.07522784,0.00626368,-0.08869766,-0.07174543,-0.0093680
 5,0.08754761,0.04075141,-0.06872730,-0.44587364,-0.04427418,0.07565191
 ,0.46127758,-0.26678458,-0.16449000,0.09777989,0.00026633,-0.00025295,
 -0.00467716,0.27018350,-0.16704361,-0.22040295,0.08830178,0.01001812,0
 .00799142,-0.00648841,0.17451480,0.22840509,0.09785642,0.08720413,-0.1
 3371053,0.03213040,0.03011335,-0.00800053,-0.10606385,-0.09269983,0.12
 645544,-0.36912841,0.05793226,-0.15378983,0.01036876,-0.00188193,0.009
 34169,-0.01827674,0.01083326,-0.01747162,0.37911082,0.06034515,-0.0883
 8629,0.03411032,-0.00915879,0.00147565,-0.00392994,-0.02502355,0.00783
 903,-0.01689987,-0.06559863,0.08748727,-0.15321610,0.03285316,-0.16338
 336,-0.04130155,0.00957153,-0.01158718,0.01970123,-0.00449200,0.010600
 05,0.16484518,-0.03403703,0.15844595,-0.13960241,0.04994965,0.00604377
 ,-0.00144513,0.00396939,-0.00087010,0.01396449,-0.03148302,-0.00676547
 ,-0.00488418,0.04016042,0.00914987,0.87409524,0.05002937,-0.30170340,-
 0.02271660,0.00116366,-0.00521206,0.00275908,0.01232033,-0.02290665,-0
 .00586763,-0.00084948,-0.00532222,-0.00194870,0.03946519,0.75380197,0.
 00567543,-0.02138273,-0.12161143,0.01209465,-0.04419023,0.00140944,-0.
 00731845,0.01659952,0.00328673,-0.00320513,0.02232791,0.00455098,0.021
 20935,-0.04831832,0.75462685,-0.00073043,0.00312147,0.01344084,0.00021
 131,0.00234100,-0.00006634,0.00028674,-0.00061618,-0.00076880,0.000501
 64,-0.00073045,0.00072109,-0.12760053,0.00301166,0.02210353,0.86085961
 ,0.00564364,-0.00922248,-0.04750224,0.00240694,-0.00791430,0.00023942,
 -0.00009789,0.00254400,-0.00025213,-0.00109436,0.00222089,0.00009619,0
 .00309137,-0.12784528,-0.04065149,0.00273403,0.85953838,0.00178640,-0.
 00529794,-0.00447689,-0.00037105,0.00134286,0.00085756,-0.00054740,0.0
 0117281,0.00091215,-0.00021368,0.00125459,0.00102037,0.02173519,-0.039
 31763,-0.30747145,0.01651049,-0.03159643,0.73232649,-0.00521445,-0.001
 26050,-0.00346174,0.00046998,-0.00070131,0.00010825,0.00100828,-0.0003
 3350,0.00018500,0.00110772,0.00107521,0.00029471,-0.35889430,0.0508696
 7,-0.15571375,0.01089371,-0.00156940,0.00826950,0.36837609,0.04082101,
 -0.00650034,0.02230075,-0.00101300,0.00229783,0.00026020,-0.00072878,0
 .00268715,0.00017329,0.00095252,-0.00808045,-0.00216847,0.05283790,-0.
 08777497,0.03429931,-0.01020192,0.00200433,-0.00593729,-0.05886733,0.0
 8730160,0.00873290,-0.00270212,0.00474288,0.00026934,0.00055458,0.0007
 3715,-0.00014992,-0.00006992,-0.00006371,0.00015914,-0.00241568,0.0004
 2305,-0.15781675,0.03360096,-0.16511691,-0.03966445,0.00719745,-0.0198
 6996,0.16594685,-0.03088445,0.16982394,0.01341988,0.01320898,-0.007139
 07,0.00028598,-0.00058428,-0.00029507,-0.00063715,0.00370808,0.0008596
 2,0.00098050,-0.00068193,-0.00015255,-0.26612681,-0.15747808,0.0998151
 6,0.00017116,-0.00052694,-0.00182004,-0.01918672,-0.02470270,0.0195997
 7,0.26891151,-0.03173438,-0.02396136,0.01664179,-0.00024700,0.00255571
 ,0.00019764,0.00380673,-0.00643217,-0.00181311,-0.00030595,0.00270982,
 0.00010581,-0.15944631,-0.21100377,0.09064478,0.01096743,0.00895563,-0
 .00728141,0.01033567,0.00709732,-0.00395615,0.16663183,0.21942657,-0.0
 0610967,-0.00624360,0.00356957,-0.00057446,0.00033160,0.00066327,0.001
 10623,-0.00196801,0.00051964,0.00027154,0.00002610,-0.00005859,0.10191
 816,0.09134313,-0.13465560,0.03288989,0.02747211,-0.01609871,-0.017837
 76,-0.01638820,0.01114377,-0.11028408,-0.09204639,0.13716355,0.0001183
 0,-0.00024887,-0.00068278,0.00010552,-0.00005527,-0.00009632,0.0000356
 9,0.00013345,0.00007034,0.00001099,-0.00006288,0.00001431,0.00030491,-
 0.00015634,-0.00143614,-0.27432208,-0.15670932,0.10822533,0.00079581,0
 .00044609,-0.00004446,0.00121321,-0.00014932,-0.00027496,0.27676969,0.
 00046686,0.00126475,-0.00004233,0.00000213,-0.00000287,0.00005516,-0.0
 0007419,0.00005644,-0.00002622,0.00003329,-0.00012245,0.00001893,0.011
 52162,0.00903222,-0.00638629,-0.15613666,-0.20832559,0.09007903,0.0000
 0771,0.00004837,0.00045404,0.00004625,-0.00027171,-0.00319275,0.168093
 35,0.20735396,-0.00067234,0.00131256,0.00235985,-0.00029028,0.00022080
 ,0.00017241,0.00003396,-0.00050186,0.00010010,-0.00004804,-0.00020956,
 -0.00009088,0.03233596,0.02747935,-0.01499256,0.11026538,0.09187955,-0
 .13825039,-0.00033332,0.00022612,0.00278753,-0.00013190,-0.00338204,-0
 .00749119,-0.11791124,-0.09482318,0.14092039,0.00048476,-0.00037299,0.
 00038709,0.00003398,0.00004977,0.00004033,-0.00005204,0.00013086,-0.00
 001366,0.00004768,-0.00007491,-0.00005499,0.01146252,-0.00167529,0.007
 41620,-0.36083237,0.04704433,-0.16257002,0.00026263,0.00100106,0.00277
 446,0.00082535,-0.00002382,-0.00041500,-0.01836493,0.01059213,-0.01810
 265,0.37049111,-0.00093434,0.00081560,0.00016332,0.00001701,0.00003570
 ,0.00009496,0.00001194,-0.00007004,0.00001097,0.00007982,0.00004051,-0
 .00005182,-0.01055981,0.00166430,-0.00544552,0.04661239,-0.08947563,0.
 02884475,0.00078146,0.00032148,-0.00229105,0.00039526,0.00002338,0.000
 37439,-0.02409266,0.00656159,-0.01687475,-0.05122428,0.07908091,-0.000
 33672,0.00139177,0.00244253,0.00012042,0.00034167,0.00020538,0.0001538
 0,-0.00014121,-0.00008027,0.00022587,-0.00046152,0.00010404,-0.0392639
 0,0.00743261,-0.01878225,-0.16526033,0.02939904,-0.17059006,0.00274244
 ,-0.00250388,-0.00713378,-0.00003696,0.00027939,0.00278299,0.02009626,
 -0.00425357,0.01196567,0.17397150,-0.02887491,0.17547202,0.00082131,-0
 .00004462,0.00074990,0.00018199,0.00021996,0.00003749,0.00000548,0.000
 13774,-0.00001838,0.00016123,-0.00024963,-0.00000120,-0.00127379,0.003
 29933,-0.00064083,-0.10943875,0.09907759,0.00899528,0.00038125,-0.0005
 4485,0.00019312,0.00014309,0.00016511,-0.00068988,0.01333289,-0.034552
 51,-0.00514553,-0.00435869,0.03891320,0.00758761,0.10004401,0.00002132
 ,0.00092204,-0.00067212,0.00009566,-0.00007704,-0.00011273,0.00001356,
 0.00028868,0.00005706,-0.00010081,0.00013825,0.00005240,0.00049359,-0.
 00273014,0.00250305,0.09889722,-0.43247997,-0.03326335,-0.00033767,0.0
 0059767,0.00051234,-0.00001647,0.00090058,0.00029163,0.01280178,-0.015
 59472,-0.00532699,-0.00544687,0.00100219,-0.00260941,-0.10642130,0.447
 03244,0.00044519,0.00043132,-0.00858877,0.00061185,-0.00219265,0.00013
 855,-0.00001832,0.00028714,-0.00001910,-0.00011513,0.00023468,-0.00002
 441,0.01232392,-0.04444626,-0.00124381,0.00982871,-0.03628147,-0.07835
 915,-0.00020017,0.00062262,0.00252604,-0.00041488,0.00060969,0.0024612
 9,-0.00796036,0.01811718,0.00251905,-0.00343325,0.02404965,0.00361372,
 -0.01106756,0.03856811,0.07697658\\-0.00009438,0.00029484,0.00021689,-
 0.00000028,0.00005431,-0.00024620,-0.00022158,-0.00018262,0.00009874,0
 .00027129,-0.00004651,0.00012820,0.00002143,-0.00010307,0.00011773,0.0
 0008256,-0.00023800,-0.00028181,-0.00033852,0.00000442,-0.00012483,0.0
 0030003,0.00018075,-0.00008667,-0.00022714,-0.00016588,0.00011441,0.00
 026573,-0.00002978,0.00014386,-0.00005914,0.00023155,-0.00008032\\\@
 The archive entry for this job was punched.


 THE BEST WAY TO CONVINCE A FOOL THAT HE IS WRONG 
 IS TO LET HIM HAVE HIS OWN WAY.

                                         JOSH BILLINGS
 Job cpu time:       0 days  0 hours  0 minutes 24.7 seconds.
 Elapsed time:       0 days  0 hours  0 minutes  1.8 seconds.
 File lengths (MBytes):  RWF=      6 Int=      0 D2E=      0 Chk=      1 Scr=      1
 Normal termination of Gaussian 16 at Sat Mar 21 10:17:46 2026.
