 Entering Gaussian System, Link 0=g16
 Input=Propane-HF-6-31G(d).gjf
 Output=Propane-HF-6-31G(d).log
 Initial command:
 /home/user/gaussian16_I/g16/l1.exe "/home/user/gaussian16_I/temp/Gau-3565121.inp" -scrdir="/home/user/gaussian16_I/temp/"
 Entering Link 1 = /home/user/gaussian16_I/g16/l1.exe PID=   3565122.
  
 Copyright (c) 1988-2021, Gaussian, Inc.  All Rights Reserved.
  
 This is part of the Gaussian(R) 16 program.  It is based on
 the Gaussian(R) 09 system (copyright 2009, Gaussian, Inc.),
 the Gaussian(R) 03 system (copyright 2003, Gaussian, Inc.),
 the Gaussian(R) 98 system (copyright 1998, Gaussian, Inc.),
 the Gaussian(R) 94 system (copyright 1995, Gaussian, Inc.),
 the Gaussian 92(TM) system (copyright 1992, Gaussian, Inc.),
 the Gaussian 90(TM) system (copyright 1990, Gaussian, Inc.),
 the Gaussian 88(TM) system (copyright 1988, Gaussian, Inc.),
 the Gaussian 86(TM) system (copyright 1986, Carnegie Mellon
 University), and the Gaussian 82(TM) system (copyright 1983,
 Carnegie Mellon University). Gaussian is a federally registered
 trademark of Gaussian, Inc.
  
 This software contains proprietary and confidential information,
 including trade secrets, belonging to Gaussian, Inc.
  
 This software is provided under written license and may be
 used, copied, transmitted, or stored only in accord with that
 written license.
  
 The following legend is applicable only to US Government
 contracts under FAR:
  
                    RESTRICTED RIGHTS LEGEND
  
 Use, reproduction and disclosure by the US Government is
 subject to restrictions as set forth in subparagraphs (a)
 and (c) of the Commercial Computer Software - Restricted
 Rights clause in FAR 52.227-19.
  
 Gaussian, Inc.
 340 Quinnipiac St., Bldg. 40, Wallingford CT 06492
  
  
 ---------------------------------------------------------------
 Warning -- This program may not be used in any manner that
 competes with the business of Gaussian, Inc. or will provide
 assistance to any competitor of Gaussian, Inc.  The licensee
 of this program is prohibited from giving any competitor of
 Gaussian, Inc. access to this program.  By using this program,
 the user acknowledges that Gaussian, Inc. is engaged in the
 business of creating and licensing software in the field of
 computational chemistry and represents and warrants to the
 licensee that it is not a competitor of Gaussian, Inc. and that
 it will not use this program in any manner prohibited above.
 ---------------------------------------------------------------
  

 Cite this work as:
 Gaussian 16, Revision C.02,
 M. J. Frisch, G. W. Trucks, H. B. Schlegel, G. E. Scuseria, 
 M. A. Robb, J. R. Cheeseman, G. Scalmani, V. Barone, 
 G. A. Petersson, H. Nakatsuji, X. Li, M. Caricato, A. V. Marenich, 
 J. Bloino, B. G. Janesko, R. Gomperts, B. Mennucci, H. P. Hratchian, 
 J. V. Ortiz, A. F. Izmaylov, J. L. Sonnenberg, D. Williams-Young, 
 F. Ding, F. Lipparini, F. Egidi, J. Goings, B. Peng, A. Petrone, 
 T. Henderson, D. Ranasinghe, V. G. Zakrzewski, J. Gao, N. Rega, 
 G. Zheng, W. Liang, M. Hada, M. Ehara, K. Toyota, R. Fukuda, 
 J. Hasegawa, M. Ishida, T. Nakajima, Y. Honda, O. Kitao, H. Nakai, 
 T. Vreven, K. Throssell, J. A. Montgomery, Jr., J. E. Peralta, 
 F. Ogliaro, M. J. Bearpark, J. J. Heyd, E. N. Brothers, K. N. Kudin, 
 V. N. Staroverov, T. A. Keith, R. Kobayashi, J. Normand, 
 K. Raghavachari, A. P. Rendell, J. C. Burant, S. S. Iyengar, 
 J. Tomasi, M. Cossi, J. M. Millam, M. Klene, C. Adamo, R. Cammi, 
 J. W. Ochterski, R. L. Martin, K. Morokuma, O. Farkas, 
 J. B. Foresman, and D. J. Fox, Gaussian, Inc., Wallingford CT, 2019.
 
 ******************************************
 Gaussian 16:  ES64L-G16RevC.02  7-Dec-2021
                21-Mar-2026 
 ******************************************
 %mem=10GB
 %CPU=0-23
 SetSPE:  set environment variable "OMP_PROC_BIND" = "true"
 SetSPE:  set environment variable "OMP_PLACES" = "{0},{1},{2},{3},{4},{5},{6},{7},{8},{9},{10},{11},{12},{13},{14},{15},{16},{17},{18},{19},{20},{21},{22},{23}"
 Will use up to   24 processors via shared memory.
 %chk=Propane-HF-6-31G(d).chk
 ------------------------------------------------
 # opt freq hf/6-31g(d) pop=nbo geom=connectivity
 ------------------------------------------------
 1/18=20,19=15,38=1,57=2/1,3;
 2/9=110,12=2,17=6,18=5,40=1/2;
 3/5=1,6=6,7=1,11=9,25=1,30=1,71=1/1,2,3;
 4//1;
 5/5=2,38=5/2;
 6/7=2,8=2,9=2,10=2,28=1,40=1/1,7;
 7//1,2,3,16;
 1/18=20,19=15/3(2);
 2/9=110/2;
 99//99;
 2/9=110/2;
 3/5=1,6=6,7=1,11=9,25=1,30=1,71=1/1,2,3;
 4/5=5,16=3,69=1/1;
 5/5=2,38=5/2;
 7//1,2,3,16;
 1/18=20,19=15/3(-5);
 2/9=110/2;
 6/7=2,8=2,9=2,10=2,19=2,28=1,40=1/1,7;
 99/9=1/99;
 -------------------
 Propane-HF-6-31G(D)
 -------------------
 Symbolic Z-matrix:
 Charge =  0 Multiplicity = 1
 C                    -0.86401  -0.04457  -0.73872 
 H                    -0.98605   0.17217   0.30197 
 H                    -0.10708   0.59076  -1.14898 
 H                    -1.78856   0.12643  -1.24947 
 C                    -0.44711  -1.51703  -0.91095 
 C                    -0.27146  -1.82897  -2.40876 
 H                     0.47744  -1.68803  -0.4002 
 H                    -1.20404  -2.15236  -0.50069 
 H                     0.48547  -1.19364  -2.81903 
 H                    -1.19601  -1.65797  -2.91952 
 H                     0.01821  -2.85204  -2.52844 
 

 GradGradGradGradGradGradGradGradGradGradGradGradGradGradGradGradGradGrad
 Berny optimization.
 Initialization pass.
                           ----------------------------
                           !    Initial Parameters    !
                           ! (Angstroms and Degrees)  !
 --------------------------                            --------------------------
 ! Name  Definition              Value          Derivative Info.                !
 --------------------------------------------------------------------------------
 ! R1    R(1,2)                  1.07           estimate D2E/DX2                !
 ! R2    R(1,3)                  1.07           estimate D2E/DX2                !
 ! R3    R(1,4)                  1.07           estimate D2E/DX2                !
 ! R4    R(1,5)                  1.54           estimate D2E/DX2                !
 ! R5    R(5,6)                  1.54           estimate D2E/DX2                !
 ! R6    R(5,7)                  1.07           estimate D2E/DX2                !
 ! R7    R(5,8)                  1.07           estimate D2E/DX2                !
 ! R8    R(6,9)                  1.07           estimate D2E/DX2                !
 ! R9    R(6,10)                 1.07           estimate D2E/DX2                !
 ! R10   R(6,11)                 1.07           estimate D2E/DX2                !
 ! A1    A(2,1,3)              109.4712         estimate D2E/DX2                !
 ! A2    A(2,1,4)              109.4712         estimate D2E/DX2                !
 ! A3    A(2,1,5)              109.4712         estimate D2E/DX2                !
 ! A4    A(3,1,4)              109.4712         estimate D2E/DX2                !
 ! A5    A(3,1,5)              109.4712         estimate D2E/DX2                !
 ! A6    A(4,1,5)              109.4712         estimate D2E/DX2                !
 ! A7    A(1,5,6)              109.4712         estimate D2E/DX2                !
 ! A8    A(1,5,7)              109.4712         estimate D2E/DX2                !
 ! A9    A(1,5,8)              109.4712         estimate D2E/DX2                !
 ! A10   A(6,5,7)              109.4712         estimate D2E/DX2                !
 ! A11   A(6,5,8)              109.4712         estimate D2E/DX2                !
 ! A12   A(7,5,8)              109.4712         estimate D2E/DX2                !
 ! A13   A(5,6,9)              109.4712         estimate D2E/DX2                !
 ! A14   A(5,6,10)             109.4712         estimate D2E/DX2                !
 ! A15   A(5,6,11)             109.4712         estimate D2E/DX2                !
 ! A16   A(9,6,10)             109.4712         estimate D2E/DX2                !
 ! A17   A(9,6,11)             109.4712         estimate D2E/DX2                !
 ! A18   A(10,6,11)            109.4712         estimate D2E/DX2                !
 ! D1    D(2,1,5,6)            180.0            estimate D2E/DX2                !
 ! D2    D(2,1,5,7)            -60.0            estimate D2E/DX2                !
 ! D3    D(2,1,5,8)             60.0            estimate D2E/DX2                !
 ! D4    D(3,1,5,6)            -60.0            estimate D2E/DX2                !
 ! D5    D(3,1,5,7)             60.0            estimate D2E/DX2                !
 ! D6    D(3,1,5,8)            180.0            estimate D2E/DX2                !
 ! D7    D(4,1,5,6)             60.0            estimate D2E/DX2                !
 ! D8    D(4,1,5,7)           -180.0            estimate D2E/DX2                !
 ! D9    D(4,1,5,8)            -60.0            estimate D2E/DX2                !
 ! D10   D(1,5,6,9)             60.0            estimate D2E/DX2                !
 ! D11   D(1,5,6,10)           -60.0            estimate D2E/DX2                !
 ! D12   D(1,5,6,11)           180.0            estimate D2E/DX2                !
 ! D13   D(7,5,6,9)            -60.0            estimate D2E/DX2                !
 ! D14   D(7,5,6,10)           180.0            estimate D2E/DX2                !
 ! D15   D(7,5,6,11)            60.0            estimate D2E/DX2                !
 ! D16   D(8,5,6,9)            180.0            estimate D2E/DX2                !
 ! D17   D(8,5,6,10)            60.0            estimate D2E/DX2                !
 ! D18   D(8,5,6,11)           -60.0            estimate D2E/DX2                !
 --------------------------------------------------------------------------------
 Trust Radius=3.00D-01 FncErr=1.00D-07 GrdErr=1.00D-07 EigMax=2.50D+02 EigMin=1.00D-04
 Number of steps in this run=     56 maximum allowed number of steps=    100.
 GradGradGradGradGradGradGradGradGradGradGradGradGradGradGradGradGradGrad

                          Input orientation:                          
 ---------------------------------------------------------------------
 Center     Atomic      Atomic             Coordinates (Angstroms)
 Number     Number       Type             X           Y           Z
 ---------------------------------------------------------------------
      1          6           0       -0.864010   -0.044571   -0.738716
      2          1           0       -0.986054    0.172170    0.301970
      3          1           0       -0.107082    0.590758   -1.148981
      4          1           0       -1.788560    0.126429   -1.249467
      5          6           0       -0.447108   -1.517027   -0.910954
      6          6           0       -0.271456   -1.828972   -2.408765
      7          1           0        0.477442   -1.688027   -0.400203
      8          1           0       -1.204036   -2.152356   -0.500690
      9          1           0        0.485472   -1.193642   -2.819029
     10          1           0       -1.196006   -1.657971   -2.919516
     11          1           0        0.018210   -2.852042   -2.528436
 ---------------------------------------------------------------------
                    Distance matrix (angstroms):
                    1          2          3          4          5
     1  C    0.000000
     2  H    1.070000   0.000000
     3  H    1.070000   1.747303   0.000000
     4  H    1.070000   1.747303   1.747303   0.000000
     5  C    1.540000   2.148263   2.148263   2.148263   0.000000
     6  C    2.514809   3.444314   2.732978   2.732978   1.540000
     7  H    2.148263   2.468846   2.468846   3.024610   1.070000
     8  H    2.148263   2.468846   3.024610   2.468846   1.070000
     9  H    2.732978   3.710993   2.514809   3.062243   2.148263
    10  H    2.732978   3.710993   3.062243   2.514809   2.148263
    11  H    3.444314   4.262112   3.710993   3.710993   2.148263
                    6          7          8          9         10
     6  C    0.000000
     7  H    2.148263   0.000000
     8  H    2.148263   1.747303   0.000000
     9  H    1.070000   2.468846   3.024610   0.000000
    10  H    1.070000   3.024610   2.468846   1.747303   0.000000
    11  H    1.070000   2.468846   2.468846   1.747303   1.747303
                   11
    11  H    0.000000
 Stoichiometry    C3H8
 Framework group  C2V[C2(C),SGV(C2H2),SGV'(H2),X(H4)]
 Deg. of freedom     9
 Full point group                 C2V     NOp   4
 Largest Abelian subgroup         C2V     NOp   4
 Largest concise Abelian subgroup C2V     NOp   4
                         Standard orientation:                         
 ---------------------------------------------------------------------
 Center     Atomic      Atomic             Coordinates (Angstroms)
 Number     Number       Type             X           Y           Z
 ---------------------------------------------------------------------
      1          6           0       -0.000000    1.257405   -0.273575
      2          1           0       -0.000000    2.131056    0.344190
      3          1           0        0.873651    1.257405   -0.891340
      4          1           0       -0.873651    1.257405   -0.891340
      5          6           0        0.000000    0.000000    0.615544
      6          6           0       -0.000000   -1.257405   -0.273575
      7          1           0        0.873651    0.000000    1.233309
      8          1           0       -0.873651    0.000000    1.233309
      9          1           0        0.873651   -1.257405   -0.891340
     10          1           0       -0.873651   -1.257405   -0.891340
     11          1           0       -0.000000   -2.131056    0.344190
 ---------------------------------------------------------------------
 Rotational constants (GHZ):          28.9413801           8.7001315           7.6203163
 Standard basis: 6-31G(d) (6D, 7F)
 There are    25 symmetry adapted cartesian basis functions of A1  symmetry.
 There are     7 symmetry adapted cartesian basis functions of A2  symmetry.
 There are    11 symmetry adapted cartesian basis functions of B1  symmetry.
 There are    18 symmetry adapted cartesian basis functions of B2  symmetry.
 There are    25 symmetry adapted basis functions of A1  symmetry.
 There are     7 symmetry adapted basis functions of A2  symmetry.
 There are    11 symmetry adapted basis functions of B1  symmetry.
 There are    18 symmetry adapted basis functions of B2  symmetry.
    61 basis functions,   116 primitive gaussians,    61 cartesian basis functions
    13 alpha electrons       13 beta electrons
       nuclear repulsion energy        83.3207430581 Hartrees.
 NAtoms=   11 NActive=   11 NUniq=    5 SFac= 4.00D+00 NAtFMM=   60 NAOKFM=F Big=F
 Integral buffers will be    131072 words long.
 Raffenetti 1 integral format.
 Two-electron integral symmetry is turned on.
 One-electron integrals computed using PRISM.
 NBasis=    61 RedAO= T EigKep=  5.96D-03  NBF=    25     7    11    18
 NBsUse=    61 1.00D-06 EigRej= -1.00D+00 NBFU=    25     7    11    18
 ExpMin= 1.61D-01 ExpMax= 3.05D+03 ExpMxC= 4.57D+02 IAcc=3 IRadAn=         5 AccDes= 0.00D+00
 Harris functional with IExCor=  205 and IRadAn=       5 diagonalized for initial guess.
 HarFok:  IExCor=  205 AccDes= 0.00D+00 IRadAn=         5 IDoV= 1 UseB2=F ITyADJ=14
 ICtDFT=  3500011 ScaDFX=  1.000000  1.000000  1.000000  1.000000
 FoFCou: FMM=F IPFlag=           0 FMFlag=      100000 FMFlg1=           0
         NFxFlg=           0 DoJE=T BraDBF=F KetDBF=T FulRan=T
         wScrn=  0.000000 ICntrl=       500 IOpCl=  0 I1Cent=   200000004 NGrid=           0
         NMat0=    1 NMatS0=      1 NMatT0=    0 NMatD0=    1 NMtDS0=    0 NMtDT0=    0
 Petite list used in FoFCou.
 Initial guess orbital symmetries:
       Occupied  (A1) (B2) (A1) (A1) (B2) (A1) (B1) (A1) (B2) (A2)
                 (B2) (A1) (B1)
       Virtual   (A1) (B2) (B1) (A1) (A1) (B2) (A1) (B1) (A2) (B2)
                 (A1) (B2) (A1) (B1) (A2) (A1) (B2) (B1) (B2) (B1)
                 (A1) (B2) (A1) (A2) (B1) (A1) (B2) (A1) (A2) (A1)
                 (B2) (A1) (B2) (B2) (B1) (A1) (A2) (A1) (B1) (B2)
                 (B1) (A2) (A1) (A1) (B2) (A1) (B2) (A1)
 The electronic state of the initial guess is 1-A1.
 Keep R1 ints in memory in symmetry-blocked form, NReq=6798889.
 Requested convergence on RMS density matrix=1.00D-08 within 128 cycles.
 Requested convergence on MAX density matrix=1.00D-06.
 Requested convergence on             energy=1.00D-06.
 No special actions if energy rises.
 SCF Done:  E(RHF) =  -118.260748527     A.U. after   10 cycles
            NFock= 10  Conv=0.81D-08     -V/T= 1.9989

 **********************************************************************

            Population analysis using the SCF Density.

 **********************************************************************

 Orbital symmetries:
       Occupied  (A1) (B2) (A1) (A1) (B2) (A1) (B1) (A1) (B2) (A2)
                 (B1) (A1) (B2)
       Virtual   (A1) (B2) (B1) (A1) (A1) (B1) (B2) (A2) (A1) (B2)
                 (A1) (B2) (B1) (A1) (A2) (A1) (B1) (B2) (B2) (B1)
                 (B2) (A1) (A2) (A1) (A1) (B1) (A1) (B2) (B2) (A1)
                 (A2) (A1) (B2) (B1) (B2) (A1) (A2) (A1) (B1) (B2)
                 (B1) (A2) (A1) (A1) (B2) (A1) (B2) (A1)
 The electronic state is 1-A1.
 Alpha  occ. eigenvalues --  -11.21029 -11.20103 -11.20100  -1.05457  -0.92762
 Alpha  occ. eigenvalues --   -0.80526  -0.63340  -0.59971  -0.55242  -0.53856
 Alpha  occ. eigenvalues --   -0.48019  -0.47645  -0.46315
 Alpha virt. eigenvalues --    0.23503   0.30102   0.30310   0.30356   0.32252
 Alpha virt. eigenvalues --    0.34342   0.36137   0.36296   0.38957   0.43307
 Alpha virt. eigenvalues --    0.71635   0.71675   0.74896   0.75234   0.77417
 Alpha virt. eigenvalues --    0.93309   0.96998   0.97277   1.00500   1.16657
 Alpha virt. eigenvalues --    1.18785   1.19810   1.21649   1.22301   1.25056
 Alpha virt. eigenvalues --    1.25421   1.27930   1.28146   1.66468   1.73398
 Alpha virt. eigenvalues --    1.73774   1.81867   2.05618   2.22537   2.22839
 Alpha virt. eigenvalues --    2.31330   2.37075   2.45998   2.60527   2.63273
 Alpha virt. eigenvalues --    2.69850   2.72967   2.77234   2.90008   3.03777
 Alpha virt. eigenvalues --    4.58668   4.72266   4.89823
          Condensed to atoms (all electrons):
               1          2          3          4          5          6
     1  C    5.101459   0.395946   0.394015   0.394015   0.346676  -0.068411
     2  H    0.395946   0.535114  -0.026743  -0.026743  -0.038382   0.005103
     3  H    0.394015  -0.026743   0.542950  -0.028705  -0.039507  -0.004008
     4  H    0.394015  -0.026743  -0.028705   0.542950  -0.039507  -0.004008
     5  C    0.346676  -0.038382  -0.039507  -0.039507   5.046142   0.346676
     6  C   -0.068411   0.005103  -0.004008  -0.004008   0.346676   5.101459
     7  H   -0.041558  -0.002457  -0.002968   0.004491   0.403220  -0.041558
     8  H   -0.041558  -0.002457   0.004491  -0.002968   0.403220  -0.041558
     9  H   -0.004008  -0.000067   0.003057   0.000104  -0.039507   0.394015
    10  H   -0.004008  -0.000067   0.000104   0.003057  -0.039507   0.394015
    11  H    0.005103  -0.000123  -0.000067  -0.000067  -0.038382   0.395946
               7          8          9         10         11
     1  C   -0.041558  -0.041558  -0.004008  -0.004008   0.005103
     2  H   -0.002457  -0.002457  -0.000067  -0.000067  -0.000123
     3  H   -0.002968   0.004491   0.003057   0.000104  -0.000067
     4  H    0.004491  -0.002968   0.000104   0.003057  -0.000067
     5  C    0.403220   0.403220  -0.039507  -0.039507  -0.038382
     6  C   -0.041558  -0.041558   0.394015   0.394015   0.395946
     7  H    0.553889  -0.029724  -0.002968   0.004491  -0.002457
     8  H   -0.029724   0.553889   0.004491  -0.002968  -0.002457
     9  H   -0.002968   0.004491   0.542950  -0.028705  -0.026743
    10  H    0.004491  -0.002968  -0.028705   0.542950  -0.026743
    11  H   -0.002457  -0.002457  -0.026743  -0.026743   0.535114
 Mulliken charges:
               1
     1  C   -0.477671
     2  H    0.160877
     3  H    0.157383
     4  H    0.157383
     5  C   -0.311140
     6  C   -0.477671
     7  H    0.157599
     8  H    0.157599
     9  H    0.157383
    10  H    0.157383
    11  H    0.160877
 Sum of Mulliken charges =   0.00000
 Mulliken charges with hydrogens summed into heavy atoms:
               1
     1  C   -0.002029
     5  C    0.004057
     6  C   -0.002029
 Electronic spatial extent (au):  <R**2>=            222.2555
 Charge=             -0.0000 electrons
 Dipole moment (field-independent basis, Debye):
    X=              0.0000    Y=             -0.0000    Z=              0.0784  Tot=              0.0784
 Quadrupole moment (field-independent basis, Debye-Ang):
   XX=            -21.2287   YY=            -22.4829   ZZ=            -21.8519
   XY=              0.0000   XZ=             -0.0000   YZ=              0.0000
 Traceless Quadrupole moment (field-independent basis, Debye-Ang):
   XX=              0.6258   YY=             -0.6284   ZZ=              0.0026
   XY=              0.0000   XZ=             -0.0000   YZ=              0.0000
 Octapole moment (field-independent basis, Debye-Ang**2):
  XXX=              0.0000  YYY=             -0.0000  ZZZ=              0.1387  XYY=              0.0000
  XXY=             -0.0000  XXZ=             -0.4110  XZZ=              0.0000  YZZ=             -0.0000
  YYZ=              1.6731  XYZ=             -0.0000
 Hexadecapole moment (field-independent basis, Debye-Ang**3):
 XXXX=            -41.3132 YYYY=           -196.0650 ZZZZ=            -70.0909 XXXY=             -0.0000
 XXXZ=             -0.0000 YYYX=              0.0000 YYYZ=             -0.0000 ZZZX=              0.0000
 ZZZY=             -0.0000 XXYY=            -40.2349 XXZZ=            -16.7122 YYZZ=            -43.8429
 XXYZ=             -0.0000 YYXZ=             -0.0000 ZZXY=              0.0000
 N-N= 8.332074305807D+01 E-N=-4.412662999547D+02  KE= 1.183906264074D+02
 Symmetry A1   KE= 7.328971067547D+01
 Symmetry A2   KE= 2.026389428879D+00
 Symmetry B1   KE= 3.861938128982D+00
 Symmetry B2   KE= 3.921258817403D+01
 ******************************Gaussian NBO Version 3.1******************************
             N A T U R A L   A T O M I C   O R B I T A L   A N D
          N A T U R A L   B O N D   O R B I T A L   A N A L Y S I S
 ******************************Gaussian NBO Version 3.1******************************
       /RESON  / : Allow strongly delocalized NBO set

 Analyzing the SCF density

 Job title: Propane-HF-6-31G(D)                                             

 Storage needed:     11598 in NPA,     15203 in NBO (1342176565 available)


 NATURAL POPULATIONS:  Natural atomic orbital occupancies 
                                                          
   NAO  Atom  No  lang   Type(AO)    Occupancy      Energy
 ----------------------------------------------------------
     1    C    1  S      Cor( 1S)     1.99950     -11.05887
     2    C    1  S      Val( 2S)     1.09117      -0.25748
     3    C    1  S      Ryd( 3S)     0.00044       1.51033
     4    C    1  S      Ryd( 4S)     0.00001       4.65254
     5    C    1  px     Val( 2p)     1.22187      -0.04803
     6    C    1  px     Ryd( 3p)     0.00132       0.84648
     7    C    1  py     Val( 2p)     1.12859      -0.03698
     8    C    1  py     Ryd( 3p)     0.00205       0.84795
     9    C    1  pz     Val( 2p)     1.17370      -0.04095
    10    C    1  pz     Ryd( 3p)     0.00133       0.83431
    11    C    1  dxy    Ryd( 3d)     0.00006       2.11087
    12    C    1  dxz    Ryd( 3d)     0.00214       2.56358
    13    C    1  dyz    Ryd( 3d)     0.00179       2.57921
    14    C    1  dx2y2  Ryd( 3d)     0.00193       2.57409
    15    C    1  dz2    Ryd( 3d)     0.00009       2.09190
 
    16    H    2  S      Val( 1S)     0.78797       0.19741
    17    H    2  S      Ryd( 2S)     0.00073       0.81357
 
    18    H    3  S      Val( 1S)     0.79250       0.18962
    19    H    3  S      Ryd( 2S)     0.00098       0.82778
 
    20    H    4  S      Val( 1S)     0.79250       0.18962
    21    H    4  S      Ryd( 2S)     0.00098       0.82778
 
    22    C    5  S      Cor( 1S)     1.99943     -11.06750
    23    C    5  S      Val( 2S)     1.03740      -0.23463
    24    C    5  S      Ryd( 3S)     0.00054       1.59851
    25    C    5  S      Ryd( 4S)     0.00001       4.70720
    26    C    5  px     Val( 2p)     1.22081      -0.03929
    27    C    5  px     Ryd( 3p)     0.00282       0.97157
    28    C    5  py     Val( 2p)     1.02010      -0.01907
    29    C    5  py     Ryd( 3p)     0.00127       0.81285
    30    C    5  pz     Val( 2p)     1.12336      -0.03208
    31    C    5  pz     Ryd( 3p)     0.00090       0.80995
    32    C    5  dxy    Ryd( 3d)     0.00017       2.14072
    33    C    5  dxz    Ryd( 3d)     0.00236       2.58586
    34    C    5  dyz    Ryd( 3d)     0.00159       2.61705
    35    C    5  dx2y2  Ryd( 3d)     0.00196       2.58466
    36    C    5  dz2    Ryd( 3d)     0.00014       2.15838
 
    37    C    6  S      Cor( 1S)     1.99950     -11.05887
    38    C    6  S      Val( 2S)     1.09117      -0.25748
    39    C    6  S      Ryd( 3S)     0.00044       1.51033
    40    C    6  S      Ryd( 4S)     0.00001       4.65254
    41    C    6  px     Val( 2p)     1.22187      -0.04803
    42    C    6  px     Ryd( 3p)     0.00132       0.84648
    43    C    6  py     Val( 2p)     1.12859      -0.03698
    44    C    6  py     Ryd( 3p)     0.00205       0.84795
    45    C    6  pz     Val( 2p)     1.17370      -0.04095
    46    C    6  pz     Ryd( 3p)     0.00133       0.83431
    47    C    6  dxy    Ryd( 3d)     0.00006       2.11087
    48    C    6  dxz    Ryd( 3d)     0.00214       2.56358
    49    C    6  dyz    Ryd( 3d)     0.00179       2.57921
    50    C    6  dx2y2  Ryd( 3d)     0.00193       2.57409
    51    C    6  dz2    Ryd( 3d)     0.00009       2.09190
 
    52    H    7  S      Val( 1S)     0.79049       0.20218
    53    H    7  S      Ryd( 2S)     0.00142       0.81195
 
    54    H    8  S      Val( 1S)     0.79049       0.20218
    55    H    8  S      Ryd( 2S)     0.00142       0.81195
 
    56    H    9  S      Val( 1S)     0.79250       0.18962
    57    H    9  S      Ryd( 2S)     0.00098       0.82778
 
    58    H   10  S      Val( 1S)     0.79250       0.18962
    59    H   10  S      Ryd( 2S)     0.00098       0.82778
 
    60    H   11  S      Val( 1S)     0.78797       0.19741
    61    H   11  S      Ryd( 2S)     0.00073       0.81357


 Summary of Natural Population Analysis:                  
                                                          
                                       Natural Population 
                Natural  -----------------------------------------------
    Atom  No    Charge         Core      Valence    Rydberg      Total
 -----------------------------------------------------------------------
      C    1   -0.62600      1.99950     4.61533    0.01116     6.62600
      H    2    0.21130      0.00000     0.78797    0.00073     0.78870
      H    3    0.20652      0.00000     0.79250    0.00098     0.79348
      H    4    0.20652      0.00000     0.79250    0.00098     0.79348
      C    5   -0.41287      1.99943     4.40168    0.01177     6.41287
      C    6   -0.62600      1.99950     4.61533    0.01116     6.62600
      H    7    0.20809      0.00000     0.79049    0.00142     0.79191
      H    8    0.20809      0.00000     0.79049    0.00142     0.79191
      H    9    0.20652      0.00000     0.79250    0.00098     0.79348
      H   10    0.20652      0.00000     0.79250    0.00098     0.79348
      H   11    0.21130      0.00000     0.78797    0.00073     0.78870
 =======================================================================
   * Total *    0.00000      5.99843    19.95927    0.04230    26.00000

                                 Natural Population      
 --------------------------------------------------------
   Core                       5.99843 ( 99.9739% of   6)
   Valence                   19.95927 ( 99.7963% of  20)
   Natural Minimal Basis     25.95770 ( 99.8373% of  26)
   Natural Rydberg Basis      0.04230 (  0.1627% of  26)
 --------------------------------------------------------

    Atom  No          Natural Electron Configuration
 ----------------------------------------------------------------------------
      C    1      [core]2S( 1.09)2p( 3.52)3d( 0.01)
      H    2            1S( 0.79)
      H    3            1S( 0.79)
      H    4            1S( 0.79)
      C    5      [core]2S( 1.04)2p( 3.36)3d( 0.01)
      C    6      [core]2S( 1.09)2p( 3.52)3d( 0.01)
      H    7            1S( 0.79)
      H    8            1S( 0.79)
      H    9            1S( 0.79)
      H   10            1S( 0.79)
      H   11            1S( 0.79)


 NATURAL BOND ORBITAL ANALYSIS:

                       Occupancies       Lewis Structure    Low   High
           Occ.    -------------------  -----------------   occ   occ
  Cycle   Thresh.   Lewis   Non-Lewis     CR  BD  3C  LP    (L)   (NL)   Dev
 =============================================================================
   1(1)    1.90    25.91017   0.08983      3  10   0   0     0      0    0.02
 -----------------------------------------------------------------------------

 Structure accepted: No low occupancy Lewis orbitals

 --------------------------------------------------------
   Core                      5.99843 ( 99.974% of   6)
   Valence Lewis            19.91173 ( 99.559% of  20)
  ==================       ============================
   Total Lewis              25.91017 ( 99.654% of  26)
  -----------------------------------------------------
   Valence non-Lewis         0.06700 (  0.258% of  26)
   Rydberg non-Lewis         0.02283 (  0.088% of  26)
  ==================       ============================
   Total non-Lewis           0.08983 (  0.346% of  26)
 --------------------------------------------------------


       (Occupancy)   Bond orbital/ Coefficients/ Hybrids
 ---------------------------------------------------------------------------------
     1. (1.99215) BD ( 1) C   1 - H   2  
                ( 60.58%)   0.7783* C   1 s( 24.41%)p 3.09( 75.46%)d 0.01(  0.12%)
                                            0.0000  0.4941 -0.0003 -0.0004  0.0000
                                           -0.0000  0.7165  0.0030  0.4910 -0.0134
                                           -0.0000 -0.0000  0.0292 -0.0199 -0.0001
                ( 39.42%)   0.6279* H   2 s(100.00%)
                                            1.0000  0.0002
     2. (1.99268) BD ( 1) C   1 - H   3  
                ( 60.41%)   0.7772* C   1 s( 24.41%)p 3.09( 75.46%)d 0.01(  0.13%)
                                            0.0000  0.4941  0.0024 -0.0004  0.7065
                                           -0.0039  0.0059  0.0159 -0.5051 -0.0041
                                           -0.0004 -0.0288  0.0007  0.0206  0.0000
                ( 39.59%)   0.6292* H   3 s(100.00%)
                                            1.0000  0.0008
     3. (1.99268) BD ( 1) C   1 - H   4  
                ( 60.41%)   0.7772* C   1 s( 24.41%)p 3.09( 75.46%)d 0.01(  0.13%)
                                           -0.0000 -0.4941 -0.0024  0.0004  0.7065
                                           -0.0039 -0.0059 -0.0159  0.5051  0.0041
                                           -0.0004 -0.0288 -0.0007 -0.0206 -0.0000
                ( 39.59%)   0.6292* H   4 s(100.00%)
                                           -1.0000 -0.0008
     4. (1.99225) BD ( 1) C   1 - C   5  
                ( 50.08%)   0.7077* C   1 s( 26.74%)p 2.74( 73.16%)d 0.00(  0.10%)
                                            0.0003  0.5170 -0.0060  0.0014  0.0000
                                           -0.0000 -0.6962  0.0030  0.4968  0.0110
                                           -0.0000 -0.0000 -0.0258 -0.0179  0.0000
                ( 49.92%)   0.7065* C   5 s( 25.79%)p 2.87( 74.11%)d 0.00(  0.11%)
                                            0.0002  0.5078 -0.0077  0.0007 -0.0000
                                            0.0000  0.7065  0.0127 -0.4917  0.0083
                                            0.0000 -0.0000 -0.0272 -0.0181  0.0005
     5. (1.99225) BD ( 1) C   5 - C   6  
                ( 49.92%)   0.7065* C   5 s( 25.79%)p 2.87( 74.11%)d 0.00(  0.11%)
                                            0.0002  0.5078 -0.0077  0.0007 -0.0000
                                            0.0000 -0.7065 -0.0127 -0.4917  0.0083
                                            0.0000 -0.0000  0.0272 -0.0181  0.0005
                ( 50.08%)   0.7077* C   6 s( 26.74%)p 2.74( 73.16%)d 0.00(  0.10%)
                                            0.0003  0.5170 -0.0060  0.0014 -0.0000
                                            0.0000  0.6962 -0.0030  0.4968  0.0110
                                           -0.0000  0.0000  0.0258 -0.0179  0.0000
     6. (1.98611) BD ( 1) C   5 - H   7  
                ( 60.52%)   0.7780* C   5 s( 24.21%)p 3.13( 75.66%)d 0.01(  0.13%)
                                           -0.0000  0.4920  0.0064 -0.0006  0.7063
                                           -0.0146 -0.0000  0.0000  0.5073  0.0080
                                            0.0000  0.0295 -0.0000  0.0216 -0.0005
                ( 39.48%)   0.6283* H   7 s(100.00%)
                                            1.0000  0.0019
     7. (1.98611) BD ( 1) C   5 - H   8  
                ( 60.52%)   0.7780* C   5 s( 24.21%)p 3.13( 75.66%)d 0.01(  0.13%)
                                            0.0000 -0.4920 -0.0064  0.0006  0.7063
                                           -0.0146  0.0000 -0.0000 -0.5073 -0.0080
                                            0.0000  0.0295  0.0000 -0.0216  0.0005
                ( 39.48%)   0.6283* H   8 s(100.00%)
                                           -1.0000 -0.0019
     8. (1.99268) BD ( 1) C   6 - H   9  
                ( 60.41%)   0.7772* C   6 s( 24.41%)p 3.09( 75.46%)d 0.01(  0.13%)
                                            0.0000  0.4941  0.0024 -0.0004  0.7065
                                           -0.0039 -0.0059 -0.0159 -0.5051 -0.0041
                                            0.0004 -0.0288 -0.0007  0.0206  0.0000
                ( 39.59%)   0.6292* H   9 s(100.00%)
                                            1.0000  0.0008
     9. (1.99268) BD ( 1) C   6 - H  10  
                ( 60.41%)   0.7772* C   6 s( 24.41%)p 3.09( 75.46%)d 0.01(  0.13%)
                                           -0.0000 -0.4941 -0.0024  0.0004  0.7065
                                           -0.0039  0.0059  0.0159  0.5051  0.0041
                                            0.0004 -0.0288  0.0007 -0.0206 -0.0000
                ( 39.59%)   0.6292* H  10 s(100.00%)
                                           -1.0000 -0.0008
    10. (1.99215) BD ( 1) C   6 - H  11  
                ( 60.58%)   0.7783* C   6 s( 24.41%)p 3.09( 75.46%)d 0.01(  0.12%)
                                            0.0000  0.4941 -0.0003 -0.0004 -0.0000
                                            0.0000 -0.7165 -0.0030  0.4910 -0.0134
                                           -0.0000  0.0000 -0.0292 -0.0199 -0.0001
                ( 39.42%)   0.6279* H  11 s(100.00%)
                                            1.0000  0.0002
    11. (1.99950) CR ( 1) C   1           s(100.00%)p 0.00(  0.00%)
                                            1.0000 -0.0001  0.0000 -0.0000 -0.0000
                                            0.0000  0.0002 -0.0000 -0.0001 -0.0000
                                            0.0000  0.0000  0.0000  0.0000  0.0000
    12. (1.99942) CR ( 1) C   5           s(100.00%)p 0.00(  0.00%)
                                            1.0000 -0.0001  0.0000 -0.0000 -0.0000
                                            0.0000  0.0000 -0.0000  0.0002 -0.0000
                                            0.0000 -0.0000  0.0000  0.0000 -0.0000
    13. (1.99950) CR ( 1) C   6           s(100.00%)p 0.00(  0.00%)
                                            1.0000 -0.0001  0.0000 -0.0000  0.0000
                                           -0.0000 -0.0002  0.0000 -0.0001 -0.0000
                                            0.0000 -0.0000 -0.0000  0.0000  0.0000
    14. (0.00262) RY*( 1) C   1           s(  7.18%)p11.78( 84.66%)d 1.14(  8.16%)
                                            0.0000 -0.0106  0.2678 -0.0044 -0.0000
                                            0.0000  0.0148  0.7255  0.0167  0.5655
                                            0.0000  0.0000 -0.1524  0.1820  0.1589
    15. (0.00154) RY*( 2) C   1           s(  0.00%)p 1.00( 84.75%)d 0.18( 15.25%)
                                            0.0000  0.0000  0.0000 -0.0000  0.0187
                                            0.9204  0.0000  0.0000 -0.0000 -0.0000
                                           -0.1972  0.3371  0.0000  0.0000  0.0000
    16. (0.00030) RY*( 3) C   1           s( 53.02%)p 0.67( 35.55%)d 0.22( 11.43%)
                                           -0.0000 -0.0069  0.7278  0.0220 -0.0000
                                            0.0000 -0.0158  0.2718 -0.0005 -0.5305
                                            0.0000  0.0000  0.0830 -0.2449 -0.2177
    17. (0.00014) RY*( 4) C   1           s( 28.07%)p 2.20( 61.77%)d 0.36( 10.16%)
                                            0.0000  0.0145  0.5147  0.1246  0.0000
                                           -0.0000  0.0139 -0.5672 -0.0164  0.5436
                                           -0.0000 -0.0000 -0.1706 -0.2585 -0.0753
    18. (0.00000) RY*( 5) C   1           s( 99.01%)p 0.01(  0.76%)d 0.00(  0.23%)
    19. (0.00000) RY*( 6) C   1           s(  0.00%)p 1.00(  4.39%)d21.79( 95.61%)
    20. (0.00000) RY*( 7) C   1           s(  0.00%)p 1.00( 11.03%)d 8.07( 88.97%)
    21. (0.00000) RY*( 8) C   1           s(  0.51%)p10.80(  5.48%)d99.99( 94.01%)
    22. (0.00001) RY*( 9) C   1           s(  9.68%)p 0.80(  7.77%)d 8.53( 82.55%)
    23. (0.00001) RY*(10) C   1           s(  2.56%)p 1.68(  4.29%)d36.39( 93.15%)
    24. (0.00073) RY*( 1) H   2           s(100.00%)
                                           -0.0002  1.0000
    25. (0.00098) RY*( 1) H   3           s(100.00%)
                                           -0.0008  1.0000
    26. (0.00098) RY*( 1) H   4           s(100.00%)
                                           -0.0008  1.0000
    27. (0.00279) RY*( 1) C   5           s(  0.00%)p 1.00( 87.53%)d 0.14( 12.47%)
                                           -0.0000 -0.0000  0.0000 -0.0000  0.0341
                                            0.9350 -0.0000  0.0000  0.0000  0.0000
                                            0.0000 -0.3531 -0.0000 -0.0000 -0.0000
    28. (0.00102) RY*( 2) C   5           s( 15.16%)p 3.73( 56.52%)d 1.87( 28.32%)
                                           -0.0000  0.0116  0.3886  0.0211  0.0000
                                            0.0000  0.0000  0.0000 -0.0210 -0.7515
                                           -0.0000  0.0000 -0.0000  0.4004  0.3505
    29. (0.00096) RY*( 3) C   5           s(  0.00%)p 1.00( 95.84%)d 0.04(  4.16%)
                                           -0.0000 -0.0000  0.0000  0.0000 -0.0000
                                            0.0000 -0.0098  0.9790  0.0000 -0.0000
                                            0.0000 -0.0000  0.2039  0.0000 -0.0000
    30. (0.00021) RY*( 4) C   5           s( 84.44%)p 0.10(  8.49%)d 0.08(  7.07%)
                                           -0.0000 -0.0028  0.9168  0.0620 -0.0000
                                            0.0000  0.0000  0.0000 -0.0038  0.2913
                                            0.0000 -0.0000 -0.0000 -0.2304 -0.1327
    31. (0.00017) RY*( 5) C   5           s(  0.00%)p 0.00(  0.00%)d 1.00(100.00%)
                                            0.0000  0.0000  0.0000  0.0000  0.0000
                                            0.0000  0.0000  0.0000  0.0000  0.0000
                                            1.0000  0.0000  0.0000  0.0000  0.0000
    32. (0.00011) RY*( 6) C   5           s(  0.00%)p 1.00(  4.30%)d22.24( 95.70%)
                                            0.0000  0.0000  0.0000 -0.0000  0.0000
                                           -0.0000  0.0413 -0.2033 -0.0000  0.0000
                                            0.0000  0.0000  0.9782 -0.0000  0.0000
    33. (0.00010) RY*( 7) C   5           s(  4.80%)p 6.66( 32.00%)d13.15( 63.20%)
    34. (0.00000) RY*( 8) C   5           s( 95.47%)p 0.01(  1.43%)d 0.03(  3.10%)
    35. (0.00000) RY*( 9) C   5           s(  0.00%)p 1.00( 12.64%)d 6.91( 87.36%)
    36. (0.00000) RY*(10) C   5           s(  0.13%)p13.10(  1.71%)d99.99( 98.16%)
    37. (0.00262) RY*( 1) C   6           s(  7.18%)p11.78( 84.66%)d 1.14(  8.16%)
                                            0.0000 -0.0106  0.2678 -0.0044  0.0000
                                           -0.0000 -0.0148 -0.7255  0.0167  0.5655
                                            0.0000 -0.0000  0.1524  0.1820  0.1589
    38. (0.00154) RY*( 2) C   6           s(  0.00%)p 1.00( 84.75%)d 0.18( 15.25%)
                                           -0.0000 -0.0000 -0.0000  0.0000  0.0187
                                            0.9204  0.0000  0.0000  0.0000  0.0000
                                            0.1972  0.3371  0.0000 -0.0000 -0.0000
    39. (0.00030) RY*( 3) C   6           s( 53.02%)p 0.67( 35.55%)d 0.22( 11.43%)
                                           -0.0000 -0.0069  0.7278  0.0220  0.0000
                                           -0.0000  0.0158 -0.2718 -0.0005 -0.5305
                                            0.0000 -0.0000 -0.0830 -0.2449 -0.2177
    40. (0.00014) RY*( 4) C   6           s( 28.07%)p 2.20( 61.77%)d 0.36( 10.16%)
                                            0.0000  0.0145  0.5147  0.1246 -0.0000
                                            0.0000 -0.0139  0.5672 -0.0164  0.5436
                                           -0.0000  0.0000  0.1706 -0.2585 -0.0753
    41. (0.00000) RY*( 5) C   6           s( 99.01%)p 0.01(  0.76%)d 0.00(  0.23%)
    42. (0.00000) RY*( 6) C   6           s(  0.00%)p 1.00(  4.39%)d21.79( 95.61%)
    43. (0.00000) RY*( 7) C   6           s(  0.00%)p 1.00( 11.03%)d 8.07( 88.97%)
    44. (0.00000) RY*( 8) C   6           s(  0.51%)p10.80(  5.48%)d99.99( 94.01%)
    45. (0.00001) RY*( 9) C   6           s(  9.68%)p 0.80(  7.77%)d 8.53( 82.55%)
    46. (0.00001) RY*(10) C   6           s(  2.56%)p 1.68(  4.29%)d36.39( 93.15%)
    47. (0.00142) RY*( 1) H   7           s(100.00%)
                                           -0.0019  1.0000
    48. (0.00142) RY*( 1) H   8           s(100.00%)
                                           -0.0019  1.0000
    49. (0.00098) RY*( 1) H   9           s(100.00%)
                                           -0.0008  1.0000
    50. (0.00098) RY*( 1) H  10           s(100.00%)
                                           -0.0008  1.0000
    51. (0.00073) RY*( 1) H  11           s(100.00%)
                                           -0.0002  1.0000
    52. (0.00433) BD*( 1) C   1 - H   2  
                ( 39.42%)   0.6279* C   1 s( 24.41%)p 3.09( 75.46%)d 0.01(  0.12%)
                                           -0.0000 -0.4941  0.0003  0.0004 -0.0000
                                            0.0000 -0.7165 -0.0030 -0.4910  0.0134
                                            0.0000  0.0000 -0.0292  0.0199  0.0001
                ( 60.58%)  -0.7783* H   2 s(100.00%)
                                           -1.0000 -0.0002
    53. (0.00590) BD*( 1) C   1 - H   3  
                ( 39.59%)   0.6292* C   1 s( 24.41%)p 3.09( 75.46%)d 0.01(  0.13%)
                                           -0.0000 -0.4941 -0.0024  0.0004 -0.7065
                                            0.0039 -0.0059 -0.0159  0.5051  0.0041
                                            0.0004  0.0288 -0.0007 -0.0206 -0.0000
                ( 60.41%)  -0.7772* H   3 s(100.00%)
                                           -1.0000 -0.0008
    54. (0.00590) BD*( 1) C   1 - H   4  
                ( 39.59%)   0.6292* C   1 s( 24.41%)p 3.09( 75.46%)d 0.01(  0.13%)
                                            0.0000  0.4941  0.0024 -0.0004 -0.7065
                                            0.0039  0.0059  0.0159 -0.5051 -0.0041
                                            0.0004  0.0288  0.0007  0.0206  0.0000
                ( 60.41%)  -0.7772* H   4 s(100.00%)
                                            1.0000  0.0008
    55. (0.00678) BD*( 1) C   1 - C   5  
                ( 49.92%)   0.7065* C   1 s( 26.74%)p 2.74( 73.16%)d 0.00(  0.10%)
                                           -0.0003 -0.5170  0.0060 -0.0014 -0.0000
                                            0.0000  0.6962 -0.0030 -0.4968 -0.0110
                                            0.0000  0.0000  0.0258  0.0179 -0.0000
                ( 50.08%)  -0.7077* C   5 s( 25.79%)p 2.87( 74.11%)d 0.00(  0.11%)
                                           -0.0002 -0.5078  0.0077 -0.0007  0.0000
                                           -0.0000 -0.7065 -0.0127  0.4917 -0.0083
                                           -0.0000  0.0000  0.0272  0.0181 -0.0005
    56. (0.00678) BD*( 1) C   5 - C   6  
                ( 50.08%)   0.7077* C   5 s( 25.79%)p 2.87( 74.11%)d 0.00(  0.11%)
                                            0.0002  0.5078 -0.0077  0.0007 -0.0000
                                            0.0000 -0.7065 -0.0127 -0.4917  0.0083
                                            0.0000 -0.0000  0.0272 -0.0181  0.0005
                ( 49.92%)  -0.7065* C   6 s( 26.74%)p 2.74( 73.16%)d 0.00(  0.10%)
                                            0.0003  0.5170 -0.0060  0.0014 -0.0000
                                            0.0000  0.6962 -0.0030  0.4968  0.0110
                                           -0.0000  0.0000  0.0258 -0.0179  0.0000
    57. (0.01059) BD*( 1) C   5 - H   7  
                ( 39.48%)   0.6283* C   5 s( 24.21%)p 3.13( 75.66%)d 0.01(  0.13%)
                                            0.0000 -0.4920 -0.0064  0.0006 -0.7063
                                            0.0146  0.0000 -0.0000 -0.5073 -0.0080
                                           -0.0000 -0.0295  0.0000 -0.0216  0.0005
                ( 60.52%)  -0.7780* H   7 s(100.00%)
                                           -1.0000 -0.0019
    58. (0.01059) BD*( 1) C   5 - H   8  
                ( 39.48%)   0.6283* C   5 s( 24.21%)p 3.13( 75.66%)d 0.01(  0.13%)
                                           -0.0000  0.4920  0.0064 -0.0006 -0.7063
                                            0.0146 -0.0000  0.0000  0.5073  0.0080
                                           -0.0000 -0.0295 -0.0000  0.0216 -0.0005
                ( 60.52%)  -0.7780* H   8 s(100.00%)
                                            1.0000  0.0019
    59. (0.00590) BD*( 1) C   6 - H   9  
                ( 39.59%)   0.6292* C   6 s( 24.41%)p 3.09( 75.46%)d 0.01(  0.13%)
                                           -0.0000 -0.4941 -0.0024  0.0004 -0.7065
                                            0.0039  0.0059  0.0159  0.5051  0.0041
                                           -0.0004  0.0288  0.0007 -0.0206 -0.0000
                ( 60.41%)  -0.7772* H   9 s(100.00%)
                                           -1.0000 -0.0008
    60. (0.00590) BD*( 1) C   6 - H  10  
                ( 39.59%)   0.6292* C   6 s( 24.41%)p 3.09( 75.46%)d 0.01(  0.13%)
                                            0.0000  0.4941  0.0024 -0.0004 -0.7065
                                            0.0039 -0.0059 -0.0159 -0.5051 -0.0041
                                           -0.0004  0.0288 -0.0007  0.0206  0.0000
                ( 60.41%)  -0.7772* H  10 s(100.00%)
                                            1.0000  0.0008
    61. (0.00433) BD*( 1) C   6 - H  11  
                ( 39.42%)   0.6279* C   6 s( 24.41%)p 3.09( 75.46%)d 0.01(  0.12%)
                                           -0.0000 -0.4941  0.0003  0.0004  0.0000
                                           -0.0000  0.7165  0.0030 -0.4910  0.0134
                                            0.0000 -0.0000  0.0292  0.0199  0.0001
                ( 60.58%)  -0.7783* H  11 s(100.00%)
                                           -1.0000 -0.0002


 NHO Directionality and "Bond Bending" (deviations from line of nuclear centers)

         [Thresholds for printing:  angular deviation  >  1.0 degree]
                                    hybrid p-character > 25.0%
                                    orbital occupancy  >  0.10e

                                Line of Centers        Hybrid 1              Hybrid 2
                                ---------------  -------------------   ------------------
                NBO               Theta   Phi    Theta   Phi    Dev    Theta   Phi    Dev
 ========================================================================================
     1. BD (   1) C   1 - H   2    54.7   90.0    56.4   90.0   1.7      --     --    --
     2. BD (   1) C   1 - H   3   125.3    0.0   125.9    1.8   1.6      --     --    --
     3. BD (   1) C   1 - H   4   125.3  180.0   125.9  178.2   1.6      --     --    --
     4. BD (   1) C   1 - C   5    54.7  270.0     --     --    --     123.9   90.0   1.4
     5. BD (   1) C   5 - C   6   125.3  270.0   123.9  270.0   1.4      --     --    --
     6. BD (   1) C   5 - H   7    54.7    0.0    53.3    0.0   1.4      --     --    --
     7. BD (   1) C   5 - H   8    54.7  180.0    53.3  180.0   1.4      --     --    --
     8. BD (   1) C   6 - H   9   125.3    0.0   125.9  358.2   1.6      --     --    --
     9. BD (   1) C   6 - H  10   125.3  180.0   125.9  181.8   1.6      --     --    --
    10. BD (   1) C   6 - H  11    54.7  270.0    56.4  270.0   1.7      --     --    --


 Second Order Perturbation Theory Analysis of Fock Matrix in NBO Basis

     Threshold for printing:   0.50 kcal/mol
                                                                              E(2)  E(j)-E(i) F(i,j)
         Donor NBO (i)                     Acceptor NBO (j)                 kcal/mol   a.u.    a.u. 
 ===================================================================================================

 within unit  1
   1. BD (   1) C   1 - H   2        / 28. RY*(   2) C   5                    0.61    2.05    0.032
   1. BD (   1) C   1 - H   2        / 56. BD*(   1) C   5 - C   6            3.59    1.32    0.061
   2. BD (   1) C   1 - H   3        / 27. RY*(   1) C   5                    0.73    1.93    0.033
   2. BD (   1) C   1 - H   3        / 58. BD*(   1) C   5 - H   8            3.29    1.45    0.062
   3. BD (   1) C   1 - H   4        / 27. RY*(   1) C   5                    0.73    1.93    0.033
   3. BD (   1) C   1 - H   4        / 57. BD*(   1) C   5 - H   7            3.29    1.45    0.062
   4. BD (   1) C   1 - C   5        / 37. RY*(   1) C   6                    1.60    1.89    0.049
   4. BD (   1) C   1 - C   5        / 52. BD*(   1) C   1 - H   2            0.65    1.53    0.028
   4. BD (   1) C   1 - C   5        / 53. BD*(   1) C   1 - H   3            0.55    1.52    0.026
   4. BD (   1) C   1 - C   5        / 54. BD*(   1) C   1 - H   4            0.55    1.52    0.026
   4. BD (   1) C   1 - C   5        / 56. BD*(   1) C   5 - C   6            0.53    1.40    0.024
   4. BD (   1) C   1 - C   5        / 57. BD*(   1) C   5 - H   7            0.56    1.54    0.026
   4. BD (   1) C   1 - C   5        / 58. BD*(   1) C   5 - H   8            0.56    1.54    0.026
   4. BD (   1) C   1 - C   5        / 61. BD*(   1) C   6 - H  11            2.26    1.53    0.053
   5. BD (   1) C   5 - C   6        / 14. RY*(   1) C   1                    1.60    1.89    0.049
   5. BD (   1) C   5 - C   6        / 52. BD*(   1) C   1 - H   2            2.26    1.53    0.053
   5. BD (   1) C   5 - C   6        / 55. BD*(   1) C   1 - C   5            0.53    1.40    0.024
   5. BD (   1) C   5 - C   6        / 57. BD*(   1) C   5 - H   7            0.56    1.54    0.026
   5. BD (   1) C   5 - C   6        / 58. BD*(   1) C   5 - H   8            0.56    1.54    0.026
   5. BD (   1) C   5 - C   6        / 59. BD*(   1) C   6 - H   9            0.55    1.52    0.026
   5. BD (   1) C   5 - C   6        / 60. BD*(   1) C   6 - H  10            0.55    1.52    0.026
   5. BD (   1) C   5 - C   6        / 61. BD*(   1) C   6 - H  11            0.65    1.53    0.028
   6. BD (   1) C   5 - H   7        / 15. RY*(   2) C   1                    0.81    1.79    0.034
   6. BD (   1) C   5 - H   7        / 38. RY*(   2) C   6                    0.81    1.79    0.034
   6. BD (   1) C   5 - H   7        / 54. BD*(   1) C   1 - H   4            3.27    1.43    0.061
   6. BD (   1) C   5 - H   7        / 60. BD*(   1) C   6 - H  10            3.27    1.43    0.061
   7. BD (   1) C   5 - H   8        / 15. RY*(   2) C   1                    0.81    1.79    0.034
   7. BD (   1) C   5 - H   8        / 38. RY*(   2) C   6                    0.81    1.79    0.034
   7. BD (   1) C   5 - H   8        / 53. BD*(   1) C   1 - H   3            3.27    1.43    0.061
   7. BD (   1) C   5 - H   8        / 59. BD*(   1) C   6 - H   9            3.27    1.43    0.061
   8. BD (   1) C   6 - H   9        / 27. RY*(   1) C   5                    0.73    1.93    0.033
   8. BD (   1) C   6 - H   9        / 58. BD*(   1) C   5 - H   8            3.29    1.45    0.062
   9. BD (   1) C   6 - H  10        / 27. RY*(   1) C   5                    0.73    1.93    0.033
   9. BD (   1) C   6 - H  10        / 57. BD*(   1) C   5 - H   7            3.29    1.45    0.062
  10. BD (   1) C   6 - H  11        / 28. RY*(   2) C   5                    0.61    2.05    0.032
  10. BD (   1) C   6 - H  11        / 55. BD*(   1) C   1 - C   5            3.59    1.32    0.061
  11. CR (   1) C   1                / 29. RY*(   3) C   5                    0.82   11.95    0.089
  12. CR (   1) C   5                / 16. RY*(   3) C   1                    0.64   12.45    0.080
  12. CR (   1) C   5                / 39. RY*(   3) C   6                    0.64   12.45    0.080
  13. CR (   1) C   6                / 29. RY*(   3) C   5                    0.82   11.95    0.089


 Natural Bond Orbitals (Summary):

                                                            Principal Delocalizations
           NBO                        Occupancy    Energy   (geminal,vicinal,remote)
 ====================================================================================
 Molecular unit  1  (C3H8)
     1. BD (   1) C   1 - H   2          1.99215    -0.67202  56(v),28(v)
     2. BD (   1) C   1 - H   3          1.99268    -0.67385  58(v),27(v)
     3. BD (   1) C   1 - H   4          1.99268    -0.67385  57(v),27(v)
     4. BD (   1) C   1 - C   5          1.99225    -0.75737  61(v),37(v),52(g),57(g)
                                                    58(g),53(g),54(g),56(g)
     5. BD (   1) C   5 - C   6          1.99225    -0.75737  52(v),14(v),61(g),57(g)
                                                    58(g),59(g),60(g),55(g)
     6. BD (   1) C   5 - H   7          1.98611    -0.66835  54(v),60(v),15(v),38(v)
     7. BD (   1) C   5 - H   8          1.98611    -0.66835  53(v),59(v),15(v),38(v)
     8. BD (   1) C   6 - H   9          1.99268    -0.67385  58(v),27(v)
     9. BD (   1) C   6 - H  10          1.99268    -0.67385  57(v),27(v)
    10. BD (   1) C   6 - H  11          1.99215    -0.67202  55(v),28(v)
    11. CR (   1) C   1                  1.99950   -11.05862  29(v)
    12. CR (   1) C   5                  1.99942   -11.06729  16(v),39(v)
    13. CR (   1) C   6                  1.99950   -11.05862  29(v)
    14. RY*(   1) C   1                  0.00262     1.12907   
    15. RY*(   2) C   1                  0.00154     1.11840   
    16. RY*(   3) C   1                  0.00030     1.38058   
    17. RY*(   4) C   1                  0.00014     1.21269   
    18. RY*(   5) C   1                  0.00000     4.54699   
    19. RY*(   6) C   1                  0.00000     2.08246   
    20. RY*(   7) C   1                  0.00000     2.31262   
    21. RY*(   8) C   1                  0.00000     2.45617   
    22. RY*(   9) C   1                  0.00001     2.29425   
    23. RY*(  10) C   1                  0.00001     2.05363   
    24. RY*(   1) H   2                  0.00073     0.81341   
    25. RY*(   1) H   3                  0.00098     0.82722   
    26. RY*(   1) H   4                  0.00098     0.82722   
    27. RY*(   1) C   5                  0.00279     1.25277   
    28. RY*(   2) C   5                  0.00102     1.37909   
    29. RY*(   3) C   5                  0.00096     0.89522   
    30. RY*(   4) C   5                  0.00021     1.66198   
    31. RY*(   5) C   5                  0.00017     2.14072   
    32. RY*(   6) C   5                  0.00011     2.52332   
    33. RY*(   7) C   5                  0.00010     2.03146   
    34. RY*(   8) C   5                  0.00000     4.54002   
    35. RY*(   9) C   5                  0.00000     2.29803   
    36. RY*(  10) C   5                  0.00000     2.23848   
    37. RY*(   1) C   6                  0.00262     1.12907   
    38. RY*(   2) C   6                  0.00154     1.11840   
    39. RY*(   3) C   6                  0.00030     1.38058   
    40. RY*(   4) C   6                  0.00014     1.21269   
    41. RY*(   5) C   6                  0.00000     4.54699   
    42. RY*(   6) C   6                  0.00000     2.08246   
    43. RY*(   7) C   6                  0.00000     2.31262   
    44. RY*(   8) C   6                  0.00000     2.45617   
    45. RY*(   9) C   6                  0.00001     2.29425   
    46. RY*(  10) C   6                  0.00001     2.05363   
    47. RY*(   1) H   7                  0.00142     0.81060   
    48. RY*(   1) H   8                  0.00142     0.81060   
    49. RY*(   1) H   9                  0.00098     0.82722   
    50. RY*(   1) H  10                  0.00098     0.82722   
    51. RY*(   1) H  11                  0.00073     0.81341   
    52. BD*(   1) C   1 - H   2          0.00433     0.77070   
    53. BD*(   1) C   1 - H   3          0.00590     0.76202   
    54. BD*(   1) C   1 - H   4          0.00590     0.76202   
    55. BD*(   1) C   1 - C   5          0.00678     0.64487   
    56. BD*(   1) C   5 - C   6          0.00678     0.64487   
    57. BD*(   1) C   5 - H   7          0.01059     0.77818   
    58. BD*(   1) C   5 - H   8          0.01059     0.77818   
    59. BD*(   1) C   6 - H   9          0.00590     0.76202   
    60. BD*(   1) C   6 - H  10          0.00590     0.76202   
    61. BD*(   1) C   6 - H  11          0.00433     0.77070   
       -------------------------------
              Total Lewis   25.91017  ( 99.6545%)
        Valence non-Lewis    0.06700  (  0.2577%)
        Rydberg non-Lewis    0.02283  (  0.0878%)
       -------------------------------
            Total unit  1   26.00000  (100.0000%)
           Charge unit  1    0.00000
 Calling FoFJK, ICntrl=      2127 FMM=F ISym2X=1 I1Cent= 0 IOpClX= 0 NMat=1 NMatS=1 NMatT=0.
 ***** Axes restored to original set *****
 -------------------------------------------------------------------
 Center     Atomic                   Forces (Hartrees/Bohr)
 Number     Number              X              Y              Z
 -------------------------------------------------------------------
      1        6           0.006536861   -0.024497067    0.003812623
      2        1          -0.002678345    0.007516885    0.010083614
      3        1           0.005930727    0.009872969   -0.003346523
      4        1          -0.009733070    0.005547513   -0.004282606
      5        6          -0.004236226    0.020377956   -0.023276351
      6        6          -0.001187149   -0.001237208    0.025581887
      7        1           0.008305203   -0.004548865    0.007807128
      8        1          -0.005614854   -0.008392799    0.006975253
      9        1           0.007526208    0.005068383   -0.007843210
     10        1          -0.008137589    0.000742927   -0.008779292
     11        1           0.003288233   -0.010450695   -0.006732523
 -------------------------------------------------------------------
 Cartesian Forces:  Max     0.025581887 RMS     0.010294286

 GradGradGradGradGradGradGradGradGradGradGradGradGradGradGradGradGradGrad
 Berny optimization.
 FormGI is forming the generalized inverse of G from B-inverse, IUseBI=4.
 Internal  Forces:  Max     0.011635489 RMS     0.005646633
 Search for a local minimum.
 Step number   1 out of a maximum of   56
 All quantities printed in internal units (Hartrees-Bohrs-Radians)
 Mixed Optimization -- RFO/linear search
 Second derivative matrix not updated -- first step.
 ITU=  0
     Eigenvalues ---    0.00237   0.00237   0.03840   0.04896   0.05720
     Eigenvalues ---    0.05720   0.05720   0.05720   0.07655   0.11701
     Eigenvalues ---    0.16000   0.16000   0.16000   0.16000   0.16000
     Eigenvalues ---    0.16000   0.21948   0.28519   0.28519   0.37230
     Eigenvalues ---    0.37230   0.37230   0.37230   0.37230   0.37230
     Eigenvalues ---    0.37230   0.37230
 RFO step:  Lambda=-5.55508589D-03 EMin= 2.36824221D-03
 Linear search not attempted -- first point.
 Iteration  1 RMS(Cart)=  0.03984749 RMS(Int)=  0.00071278
 Iteration  2 RMS(Cart)=  0.00055041 RMS(Int)=  0.00026563
 Iteration  3 RMS(Cart)=  0.00000035 RMS(Int)=  0.00026563
 ClnCor:  largest displacement from symmetrization is 5.56D-09 for atom     4.
 Variable       Old X    -DE/DX   Delta X   Delta X   Delta X     New X
                                 (Linear)    (Quad)   (Total)
    R1        2.02201   0.01164   0.00000   0.03079   0.03079   2.05280
    R2        2.02201   0.01134   0.00000   0.03001   0.03001   2.05202
    R3        2.02201   0.01134   0.00000   0.03001   0.03001   2.05202
    R4        2.91018  -0.00081   0.00000  -0.00277  -0.00277   2.90741
    R5        2.91018  -0.00081   0.00000  -0.00277  -0.00277   2.90741
    R6        2.02201   0.01163   0.00000   0.03078   0.03078   2.05279
    R7        2.02201   0.01163   0.00000   0.03078   0.03078   2.05279
    R8        2.02201   0.01134   0.00000   0.03001   0.03001   2.05202
    R9        2.02201   0.01134   0.00000   0.03001   0.03001   2.05202
   R10        2.02201   0.01164   0.00000   0.03079   0.03079   2.05280
    A1        1.91063  -0.00475   0.00000  -0.02729  -0.02777   1.88286
    A2        1.91063  -0.00475   0.00000  -0.02729  -0.02777   1.88286
    A3        1.91063   0.00631   0.00000   0.03957   0.03907   1.94970
    A4        1.91063  -0.00392   0.00000  -0.02652  -0.02665   1.88398
    A5        1.91063   0.00356   0.00000   0.02076   0.02044   1.93107
    A6        1.91063   0.00356   0.00000   0.02076   0.02044   1.93107
    A7        1.91063   0.00990   0.00000   0.05681   0.05624   1.96687
    A8        1.91063  -0.00234   0.00000  -0.00330  -0.00377   1.90686
    A9        1.91063  -0.00234   0.00000  -0.00330  -0.00377   1.90686
   A10        1.91063  -0.00234   0.00000  -0.00330  -0.00377   1.90686
   A11        1.91063  -0.00234   0.00000  -0.00330  -0.00377   1.90686
   A12        1.91063  -0.00054   0.00000  -0.04360  -0.04378   1.86685
   A13        1.91063   0.00356   0.00000   0.02076   0.02044   1.93107
   A14        1.91063   0.00356   0.00000   0.02076   0.02044   1.93107
   A15        1.91063   0.00631   0.00000   0.03957   0.03907   1.94970
   A16        1.91063  -0.00392   0.00000  -0.02652  -0.02665   1.88398
   A17        1.91063  -0.00475   0.00000  -0.02729  -0.02777   1.88286
   A18        1.91063  -0.00475   0.00000  -0.02729  -0.02777   1.88286
    D1        3.14159   0.00000   0.00000   0.00000   0.00000   3.14159
    D2       -1.04720   0.00176   0.00000   0.02872   0.02877  -1.01843
    D3        1.04720  -0.00176   0.00000  -0.02872  -0.02877   1.01843
    D4       -1.04720   0.00022   0.00000   0.00352   0.00361  -1.04358
    D5        1.04720   0.00199   0.00000   0.03225   0.03238   1.07958
    D6        3.14159  -0.00154   0.00000  -0.02520  -0.02516   3.11644
    D7        1.04720  -0.00022   0.00000  -0.00352  -0.00361   1.04358
    D8       -3.14159   0.00154   0.00000   0.02520   0.02516  -3.11644
    D9       -1.04720  -0.00199   0.00000  -0.03225  -0.03238  -1.07958
   D10        1.04720  -0.00022   0.00000  -0.00352  -0.00361   1.04358
   D11       -1.04720   0.00022   0.00000   0.00352   0.00361  -1.04358
   D12        3.14159  -0.00000   0.00000  -0.00000   0.00000   3.14159
   D13       -1.04720  -0.00199   0.00000  -0.03225  -0.03238  -1.07958
   D14        3.14159  -0.00154   0.00000  -0.02520  -0.02516   3.11644
   D15        1.04720  -0.00176   0.00000  -0.02872  -0.02877   1.01843
   D16       -3.14159   0.00154   0.00000   0.02520   0.02516  -3.11644
   D17        1.04720   0.00199   0.00000   0.03225   0.03238   1.07958
   D18       -1.04720   0.00176   0.00000   0.02872   0.02877  -1.01843
         Item               Value     Threshold  Converged?
 Maximum Force            0.011635     0.000450     NO 
 RMS     Force            0.005647     0.000300     NO 
 Maximum Displacement     0.090593     0.001800     NO 
 RMS     Displacement     0.039524     0.001200     NO 
 Predicted change in Energy=-2.872053D-03
 GradGradGradGradGradGradGradGradGradGradGradGradGradGradGradGradGradGrad

                          Input orientation:                          
 ---------------------------------------------------------------------
 Center     Atomic      Atomic             Coordinates (Angstroms)
 Number     Number       Type             X           Y           Z
 ---------------------------------------------------------------------
      1          6           0       -0.867859   -0.035925   -0.714263
      2          1           0       -0.994689    0.195314    0.339530
      3          1           0       -0.117598    0.638698   -1.115678
      4          1           0       -1.807804    0.171959   -1.216686
      5          6           0       -0.450425   -1.501068   -0.929182
      6          6           0       -0.264334   -1.853363   -2.415232
      7          1           0        0.477395   -1.690949   -0.397097
      8          1           0       -1.202845   -2.154937   -0.497510
      9          1           0        0.502576   -1.228877   -2.863570
     10          1           0       -1.187630   -1.695616   -2.964578
     11          1           0        0.030027   -2.890486   -2.548518
 ---------------------------------------------------------------------
                    Distance matrix (angstroms):
                    1          2          3          4          5
     1  C    0.000000
     2  H    1.086295   0.000000
     3  H    1.085883   1.755992   0.000000
     4  H    1.085883   1.755992   1.756372   0.000000
     5  C    1.538534   2.187136   2.173512   2.173512   0.000000
     6  C    2.561371   3.509873   2.814382   2.814382   1.538534
     7  H    2.156249   2.503526   2.509508   3.060112   1.086287
     8  H    2.156249   2.503526   3.060112   2.509508   1.086287
     9  H    2.814382   3.811820   2.632029   3.164241   2.173512
    10  H    2.814382   3.811820   3.164241   2.632029   2.173512
    11  H    3.509873   4.348911   3.811820   3.811820   2.187136
                    6          7          8          9         10
     6  C    0.000000
     7  H    2.156249   0.000000
     8  H    2.156249   1.746016   0.000000
     9  H    1.085883   2.509508   3.060112   0.000000
    10  H    1.085883   3.060112   2.509508   1.756372   0.000000
    11  H    1.086295   2.503526   2.503526   1.755992   1.755992
                   11
    11  H    0.000000
 Stoichiometry    C3H8
 Framework group  C2V[C2(C),SGV(C2H2),SGV'(H2),X(H4)]
 Deg. of freedom     9
 Full point group                 C2V     NOp   4
 Largest Abelian subgroup         C2V     NOp   4
 Largest concise Abelian subgroup C2V     NOp   4
                         Standard orientation:                         
 ---------------------------------------------------------------------
 Center     Atomic      Atomic             Coordinates (Angstroms)
 Number     Number       Type             X           Y           Z
 ---------------------------------------------------------------------
      1          6           0       -0.000000    1.280685   -0.261449
      2          1           0       -0.000000    2.174455    0.355975
      3          1           0        0.878186    1.316015   -0.899165
      4          1           0       -0.878186    1.316015   -0.899165
      5          6           0       -0.000000   -0.000000    0.591154
      6          6           0       -0.000000   -1.280685   -0.261449
      7          1           0        0.873008   -0.000000    1.237588
      8          1           0       -0.873008    0.000000    1.237588
      9          1           0        0.878186   -1.316015   -0.899165
     10          1           0       -0.878186   -1.316015   -0.899165
     11          1           0       -0.000000   -2.174455    0.355975
 ---------------------------------------------------------------------
 Rotational constants (GHZ):          29.5933227           8.3504441           7.3985023
 Standard basis: 6-31G(d) (6D, 7F)
 There are    25 symmetry adapted cartesian basis functions of A1  symmetry.
 There are     7 symmetry adapted cartesian basis functions of A2  symmetry.
 There are    11 symmetry adapted cartesian basis functions of B1  symmetry.
 There are    18 symmetry adapted cartesian basis functions of B2  symmetry.
 There are    25 symmetry adapted basis functions of A1  symmetry.
 There are     7 symmetry adapted basis functions of A2  symmetry.
 There are    11 symmetry adapted basis functions of B1  symmetry.
 There are    18 symmetry adapted basis functions of B2  symmetry.
    61 basis functions,   116 primitive gaussians,    61 cartesian basis functions
    13 alpha electrons       13 beta electrons
       nuclear repulsion energy        82.4528074329 Hartrees.
 NAtoms=   11 NActive=   11 NUniq=    5 SFac= 4.00D+00 NAtFMM=   60 NAOKFM=F Big=F
 Integral buffers will be    131072 words long.
 Raffenetti 1 integral format.
 Two-electron integral symmetry is turned on.
 One-electron integrals computed using PRISM.
 NBasis=    61 RedAO= T EigKep=  6.27D-03  NBF=    25     7    11    18
 NBsUse=    61 1.00D-06 EigRej= -1.00D+00 NBFU=    25     7    11    18
 Initial guess from the checkpoint file:  "Propane-HF-6-31G(d).chk"
 B after Tr=    -0.000000   -0.000000   -0.000000
         Rot=    1.000000   -0.000000    0.000000    0.000000 Ang=   0.00 deg.
 Initial guess orbital symmetries:
       Occupied  (A1) (B2) (A1) (A1) (B2) (A1) (B1) (A1) (B2) (A2)
                 (B1) (A1) (B2)
       Virtual   (A1) (B2) (B1) (A1) (A1) (B1) (B2) (A2) (A1) (B2)
                 (A1) (B2) (B1) (A1) (A2) (A1) (B1) (B2) (B2) (B1)
                 (B2) (A1) (A2) (A1) (A1) (B1) (A1) (B2) (B2) (A1)
                 (A2) (A1) (B2) (B1) (B2) (A1) (A2) (A1) (B1) (B2)
                 (B1) (A2) (A1) (A1) (B2) (A1) (B2) (A1)
 ExpMin= 1.61D-01 ExpMax= 3.05D+03 ExpMxC= 4.57D+02 IAcc=3 IRadAn=         5 AccDes= 0.00D+00
 Harris functional with IExCor=  205 and IRadAn=       5 diagonalized for initial guess.
 HarFok:  IExCor=  205 AccDes= 0.00D+00 IRadAn=         5 IDoV= 1 UseB2=F ITyADJ=14
 ICtDFT=  3500011 ScaDFX=  1.000000  1.000000  1.000000  1.000000
 FoFCou: FMM=F IPFlag=           0 FMFlag=      100000 FMFlg1=           0
         NFxFlg=           0 DoJE=T BraDBF=F KetDBF=T FulRan=T
         wScrn=  0.000000 ICntrl=       500 IOpCl=  0 I1Cent=   200000004 NGrid=           0
         NMat0=    1 NMatS0=      1 NMatT0=    0 NMatD0=    1 NMtDS0=    0 NMtDT0=    0
 Petite list used in FoFCou.
 Keep R1 ints in memory in symmetry-blocked form, NReq=6798759.
 Requested convergence on RMS density matrix=1.00D-08 within 128 cycles.
 Requested convergence on MAX density matrix=1.00D-06.
 Requested convergence on             energy=1.00D-06.
 No special actions if energy rises.
 SCF Done:  E(RHF) =  -118.263497284     A.U. after    9 cycles
            NFock=  9  Conv=0.54D-08     -V/T= 2.0006
 Calling FoFJK, ICntrl=      2127 FMM=F ISym2X=1 I1Cent= 0 IOpClX= 0 NMat=1 NMatS=1 NMatT=0.
 ***** Axes restored to original set *****
 -------------------------------------------------------------------
 Center     Atomic                   Forces (Hartrees/Bohr)
 Number     Number              X              Y              Z
 -------------------------------------------------------------------
      1        6           0.001708123   -0.005800849   -0.001778014
      2        1           0.000268130   -0.000874483   -0.000445897
      3        1          -0.000238394    0.000746686   -0.000061876
      4        1          -0.000171904    0.000765047   -0.000057903
      5        6          -0.000753096    0.003622698   -0.004137961
      6        6          -0.000977665    0.002287055    0.005791581
      7        1          -0.000118182   -0.000681508    0.000686240
      8        1           0.000373315   -0.000545784    0.000715612
      9        1           0.000018390   -0.000026585   -0.000785592
     10        1           0.000084880   -0.000008224   -0.000781619
     11        1          -0.000193596    0.000515947    0.000855428
 -------------------------------------------------------------------
 Cartesian Forces:  Max     0.005800849 RMS     0.001880634

 GradGradGradGradGradGradGradGradGradGradGradGradGradGradGradGradGradGrad
 Berny optimization.
 Using GEDIIS/GDIIS optimizer.
 FormGI is forming the generalized inverse of G from B-inverse, IUseBI=4.
 Internal  Forces:  Max     0.005669552 RMS     0.001319653
 Search for a local minimum.
 Step number   2 out of a maximum of   56
 All quantities printed in internal units (Hartrees-Bohrs-Radians)
 Mixed Optimization -- RFO/linear search
 Update second derivatives using D2CorX and points    1    2
 DE= -2.75D-03 DEPred=-2.87D-03 R= 9.57D-01
 TightC=F SS=  1.41D+00  RLast= 1.79D-01 DXNew= 5.0454D-01 5.3552D-01
 Trust test= 9.57D-01 RLast= 1.79D-01 DXMaxT set to 5.05D-01
 ITU=  1  0
 Use linear search instead of GDIIS.
     Eigenvalues ---    0.00237   0.00237   0.03441   0.04718   0.05377
     Eigenvalues ---    0.05377   0.05496   0.05525   0.08265   0.12168
     Eigenvalues ---    0.14977   0.16000   0.16000   0.16000   0.16000
     Eigenvalues ---    0.16709   0.22339   0.27793   0.28519   0.37049
     Eigenvalues ---    0.37230   0.37230   0.37230   0.37230   0.37230
     Eigenvalues ---    0.37230   0.39838
 RFO step:  Lambda=-3.27938259D-04 EMin= 2.36824221D-03
 Quartic linear search produced a step of  0.00650.
 Iteration  1 RMS(Cart)=  0.00755892 RMS(Int)=  0.00003185
 Iteration  2 RMS(Cart)=  0.00002670 RMS(Int)=  0.00001790
 Iteration  3 RMS(Cart)=  0.00000000 RMS(Int)=  0.00001790
 ClnCor:  largest displacement from symmetrization is 8.79D-09 for atom    11.
 Variable       Old X    -DE/DX   Delta X   Delta X   Delta X     New X
                                 (Linear)    (Quad)   (Total)
    R1        2.05280  -0.00065   0.00020  -0.00018   0.00002   2.05283
    R2        2.05202   0.00032   0.00020   0.00241   0.00260   2.05463
    R3        2.05202   0.00032   0.00020   0.00241   0.00260   2.05463
    R4        2.90741  -0.00567  -0.00002  -0.02012  -0.02014   2.88727
    R5        2.90741  -0.00567  -0.00002  -0.02012  -0.02014   2.88727
    R6        2.05279   0.00035   0.00020   0.00254   0.00274   2.05552
    R7        2.05279   0.00035   0.00020   0.00254   0.00274   2.05552
    R8        2.05202   0.00032   0.00020   0.00241   0.00260   2.05463
    R9        2.05202   0.00032   0.00020   0.00241   0.00260   2.05463
   R10        2.05280  -0.00065   0.00020  -0.00018   0.00002   2.05283
    A1        1.88286   0.00011  -0.00018  -0.00188  -0.00205   1.88082
    A2        1.88286   0.00011  -0.00018  -0.00188  -0.00205   1.88082
    A3        1.94970  -0.00150   0.00025  -0.00857  -0.00829   1.94141
    A4        1.88398  -0.00085  -0.00017  -0.00445  -0.00468   1.87930
    A5        1.93107   0.00105   0.00013   0.00820   0.00831   1.93938
    A6        1.93107   0.00105   0.00013   0.00820   0.00831   1.93938
    A7        1.96687  -0.00138   0.00037  -0.00193  -0.00157   1.96530
    A8        1.90686   0.00053  -0.00002   0.00301   0.00298   1.90984
    A9        1.90686   0.00053  -0.00002   0.00301   0.00298   1.90984
   A10        1.90686   0.00053  -0.00002   0.00301   0.00298   1.90984
   A11        1.90686   0.00053  -0.00002   0.00301   0.00298   1.90984
   A12        1.86685  -0.00070  -0.00028  -0.01061  -0.01089   1.85596
   A13        1.93107   0.00105   0.00013   0.00820   0.00831   1.93938
   A14        1.93107   0.00105   0.00013   0.00820   0.00831   1.93938
   A15        1.94970  -0.00150   0.00025  -0.00857  -0.00829   1.94141
   A16        1.88398  -0.00085  -0.00017  -0.00445  -0.00468   1.87930
   A17        1.88286   0.00011  -0.00018  -0.00188  -0.00205   1.88082
   A18        1.88286   0.00011  -0.00018  -0.00188  -0.00205   1.88082
    D1       -3.14159  -0.00000   0.00000   0.00000  -0.00000   3.14159
    D2       -1.01843   0.00012   0.00019   0.00467   0.00486  -1.01357
    D3        1.01843  -0.00012  -0.00019  -0.00467  -0.00486   1.01357
    D4       -1.04358  -0.00015   0.00002  -0.00253  -0.00252  -1.04611
    D5        1.07958  -0.00003   0.00021   0.00214   0.00233   1.08191
    D6        3.11644  -0.00027  -0.00016  -0.00720  -0.00738   3.10906
    D7        1.04358   0.00015  -0.00002   0.00253   0.00252   1.04611
    D8       -3.11644   0.00027   0.00016   0.00720   0.00738  -3.10906
    D9       -1.07958   0.00003  -0.00021  -0.00214  -0.00233  -1.08191
   D10        1.04358   0.00015  -0.00002   0.00253   0.00252   1.04611
   D11       -1.04358  -0.00015   0.00002  -0.00253  -0.00252  -1.04611
   D12       -3.14159  -0.00000   0.00000   0.00000  -0.00000   3.14159
   D13       -1.07958   0.00003  -0.00021  -0.00214  -0.00233  -1.08191
   D14        3.11644  -0.00027  -0.00016  -0.00720  -0.00738   3.10906
   D15        1.01843  -0.00012  -0.00019  -0.00467  -0.00486   1.01357
   D16       -3.11644   0.00027   0.00016   0.00720   0.00738  -3.10906
   D17        1.07958  -0.00003   0.00021   0.00214   0.00233   1.08191
   D18       -1.01843   0.00012   0.00019   0.00467   0.00486  -1.01357
         Item               Value     Threshold  Converged?
 Maximum Force            0.005670     0.000450     NO 
 RMS     Force            0.001320     0.000300     NO 
 Maximum Displacement     0.027223     0.001800     NO 
 RMS     Displacement     0.007558     0.001200     NO 
 Predicted change in Energy=-1.643196D-04
 GradGradGradGradGradGradGradGradGradGradGradGradGradGradGradGradGradGrad

                          Input orientation:                          
 ---------------------------------------------------------------------
 Center     Atomic      Atomic             Coordinates (Angstroms)
 Number     Number       Type             X           Y           Z
 ---------------------------------------------------------------------
      1          6           0       -0.865618   -0.042659   -0.720637
      2          1           0       -0.990444    0.180908    0.335063
      3          1           0       -0.118092    0.639554   -1.118038
      4          1           0       -1.807559    0.173019   -1.219002
      5          6           0       -0.451098   -1.497832   -0.932879
      6          6           0       -0.266588   -1.846561   -2.408937
      7          1           0        0.475199   -1.692007   -0.396746
      8          1           0       -1.200471   -2.154733   -0.496886
      9          1           0        0.501684   -1.226824   -2.864810
     10          1           0       -1.187782   -1.693359   -2.965774
     11          1           0        0.027585   -2.884757   -2.534141
 ---------------------------------------------------------------------
                    Distance matrix (angstroms):
                    1          2          3          4          5
     1  C    0.000000
     2  H    1.086308   0.000000
     3  H    1.087261   1.755806   0.000000
     4  H    1.087261   1.755806   1.755604   0.000000
     5  C    1.527875   2.171805   2.171082   2.171082   0.000000
     6  C    2.542293   3.487711   2.805216   2.805216   1.527875
     7  H    2.150127   2.488266   2.511660   3.060296   1.087735
     8  H    2.150127   2.488266   3.060296   2.511660   1.087735
     9  H    2.805216   3.800966   2.630343   3.162412   2.171082
    10  H    2.805216   3.800966   3.162412   2.630343   2.171082
    11  H    3.487711   4.320534   3.800966   3.800966   2.171805
                    6          7          8          9         10
     6  C    0.000000
     7  H    2.150127   0.000000
     8  H    2.150127   1.741267   0.000000
     9  H    1.087261   2.511660   3.060296   0.000000
    10  H    1.087261   3.060296   2.511660   1.755604   0.000000
    11  H    1.086308   2.488266   2.488266   1.755806   1.755806
                   11
    11  H    0.000000
 Stoichiometry    C3H8
 Framework group  C2V[C2(C),SGV(C2H2),SGV'(H2),X(H4)]
 Deg. of freedom     9
 Full point group                 C2V     NOp   4
 Largest Abelian subgroup         C2V     NOp   4
 Largest concise Abelian subgroup C2V     NOp   4
                         Standard orientation:                         
 ---------------------------------------------------------------------
 Center     Atomic      Atomic             Coordinates (Angstroms)
 Number     Number       Type             X           Y           Z
 ---------------------------------------------------------------------
      1          6           0       -0.000000    1.271147   -0.260528
      2          1           0       -0.000000    2.160267    0.363596
      3          1           0        0.877802    1.315171   -0.900576
      4          1           0       -0.877802    1.315171   -0.900576
      5          6           0       -0.000000    0.000000    0.587169
      6          6           0        0.000000   -1.271147   -0.260528
      7          1           0        0.870634   -0.000000    1.239216
      8          1           0       -0.870634    0.000000    1.239216
      9          1           0        0.877802   -1.315171   -0.900576
     10          1           0       -0.877802   -1.315171   -0.900576
     11          1           0        0.000000   -2.160267    0.363596
 ---------------------------------------------------------------------
 Rotational constants (GHZ):          29.6790013           8.4521364           7.4812277
 Standard basis: 6-31G(d) (6D, 7F)
 There are    25 symmetry adapted cartesian basis functions of A1  symmetry.
 There are     7 symmetry adapted cartesian basis functions of A2  symmetry.
 There are    11 symmetry adapted cartesian basis functions of B1  symmetry.
 There are    18 symmetry adapted cartesian basis functions of B2  symmetry.
 There are    25 symmetry adapted basis functions of A1  symmetry.
 There are     7 symmetry adapted basis functions of A2  symmetry.
 There are    11 symmetry adapted basis functions of B1  symmetry.
 There are    18 symmetry adapted basis functions of B2  symmetry.
    61 basis functions,   116 primitive gaussians,    61 cartesian basis functions
    13 alpha electrons       13 beta electrons
       nuclear repulsion energy        82.7372144986 Hartrees.
 NAtoms=   11 NActive=   11 NUniq=    5 SFac= 4.00D+00 NAtFMM=   60 NAOKFM=F Big=F
 Integral buffers will be    131072 words long.
 Raffenetti 1 integral format.
 Two-electron integral symmetry is turned on.
 One-electron integrals computed using PRISM.
 NBasis=    61 RedAO= T EigKep=  6.11D-03  NBF=    25     7    11    18
 NBsUse=    61 1.00D-06 EigRej= -1.00D+00 NBFU=    25     7    11    18
 Initial guess from the checkpoint file:  "Propane-HF-6-31G(d).chk"
 B after Tr=     0.000000    0.000000    0.000000
         Rot=    1.000000   -0.000000   -0.000000   -0.000000 Ang=   0.00 deg.
 Initial guess orbital symmetries:
       Occupied  (A1) (B2) (A1) (A1) (B2) (A1) (B1) (A1) (B2) (A2)
                 (B2) (A1) (B1)
       Virtual   (A1) (B2) (A1) (B1) (A1) (B1) (A2) (B2) (A1) (B2)
                 (A1) (B2) (B1) (A1) (A2) (A1) (B2) (B1) (B2) (B1)
                 (B2) (A1) (A2) (A1) (B1) (A1) (A1) (B2) (B2) (A2)
                 (A1) (A1) (B2) (B1) (B2) (A1) (A2) (A1) (B1) (B2)
                 (B1) (A2) (A1) (A1) (B2) (A1) (B2) (A1)
 ExpMin= 1.61D-01 ExpMax= 3.05D+03 ExpMxC= 4.57D+02 IAcc=3 IRadAn=         5 AccDes= 0.00D+00
 Harris functional with IExCor=  205 and IRadAn=       5 diagonalized for initial guess.
 HarFok:  IExCor=  205 AccDes= 0.00D+00 IRadAn=         5 IDoV= 1 UseB2=F ITyADJ=14
 ICtDFT=  3500011 ScaDFX=  1.000000  1.000000  1.000000  1.000000
 FoFCou: FMM=F IPFlag=           0 FMFlag=      100000 FMFlg1=           0
         NFxFlg=           0 DoJE=T BraDBF=F KetDBF=T FulRan=T
         wScrn=  0.000000 ICntrl=       500 IOpCl=  0 I1Cent=   200000004 NGrid=           0
         NMat0=    1 NMatS0=      1 NMatT0=    0 NMatD0=    1 NMtDS0=    0 NMtDT0=    0
 Petite list used in FoFCou.
 Keep R1 ints in memory in symmetry-blocked form, NReq=6798889.
 Requested convergence on RMS density matrix=1.00D-08 within 128 cycles.
 Requested convergence on MAX density matrix=1.00D-06.
 Requested convergence on             energy=1.00D-06.
 No special actions if energy rises.
 SCF Done:  E(RHF) =  -118.263645312     A.U. after    8 cycles
            NFock=  8  Conv=0.75D-08     -V/T= 2.0004
 Calling FoFJK, ICntrl=      2127 FMM=F ISym2X=1 I1Cent= 0 IOpClX= 0 NMat=1 NMatS=1 NMatT=0.
 ***** Axes restored to original set *****
 -------------------------------------------------------------------
 Center     Atomic                   Forces (Hartrees/Bohr)
 Number     Number              X              Y              Z
 -------------------------------------------------------------------
      1        6          -0.000187256    0.000520147    0.000729915
      2        1          -0.000025165    0.000181932   -0.000419573
      3        1          -0.000402510   -0.000356926    0.000156495
      4        1           0.000508229   -0.000105431    0.000210921
      5        6          -0.000031058    0.000149404   -0.000170654
      6        6           0.000235892   -0.000754107   -0.000462679
      7        1          -0.000345555    0.000056285   -0.000182747
      8        1           0.000285905    0.000230659   -0.000145010
      9        1          -0.000428189   -0.000279596    0.000228869
     10        1           0.000482550   -0.000028101    0.000283295
     11        1          -0.000092843    0.000385734   -0.000228832
 -------------------------------------------------------------------
 Cartesian Forces:  Max     0.000754107 RMS     0.000335582

 GradGradGradGradGradGradGradGradGradGradGradGradGradGradGradGradGradGrad
 Berny optimization.
 Using GEDIIS/GDIIS optimizer.
 FormGI is forming the generalized inverse of G from B-inverse, IUseBI=4.
 Internal  Forces:  Max     0.000813751 RMS     0.000277732
 Search for a local minimum.
 Step number   3 out of a maximum of   56
 All quantities printed in internal units (Hartrees-Bohrs-Radians)
 Mixed Optimization -- En-DIIS/RFO-DIIS
 Update second derivatives using D2CorX and points    1    2    3
 DE= -1.48D-04 DEPred=-1.64D-04 R= 9.01D-01
 TightC=F SS=  1.41D+00  RLast= 4.29D-02 DXNew= 8.4853D-01 1.2883D-01
 Trust test= 9.01D-01 RLast= 4.29D-02 DXMaxT set to 5.05D-01
 ITU=  1  1  0
 Use linear search instead of GDIIS.
     Eigenvalues ---    0.00237   0.00237   0.03424   0.04536   0.05399
     Eigenvalues ---    0.05399   0.05417   0.05506   0.08275   0.12175
     Eigenvalues ---    0.14672   0.16000   0.16000   0.16000   0.16000
     Eigenvalues ---    0.16953   0.21891   0.28519   0.32118   0.37180
     Eigenvalues ---    0.37230   0.37230   0.37230   0.37230   0.37230
     Eigenvalues ---    0.37501   0.39474
 RFO step:  Lambda=-9.30759081D-06 EMin= 2.36824221D-03
 Quartic linear search produced a step of -0.09324.
 Iteration  1 RMS(Cart)=  0.00169904 RMS(Int)=  0.00000181
 Iteration  2 RMS(Cart)=  0.00000168 RMS(Int)=  0.00000154
 Iteration  3 RMS(Cart)=  0.00000000 RMS(Int)=  0.00000154
 ClnCor:  largest displacement from symmetrization is 5.60D-10 for atom     4.
 Variable       Old X    -DE/DX   Delta X   Delta X   Delta X     New X
                                 (Linear)    (Quad)   (Total)
    R1        2.05283  -0.00037  -0.00000  -0.00103  -0.00104   2.05179
    R2        2.05463  -0.00056  -0.00024  -0.00118  -0.00142   2.05320
    R3        2.05463  -0.00056  -0.00024  -0.00118  -0.00142   2.05320
    R4        2.88727   0.00035   0.00188  -0.00133   0.00054   2.88781
    R5        2.88727   0.00035   0.00188  -0.00133   0.00054   2.88781
    R6        2.05552  -0.00039  -0.00026  -0.00077  -0.00102   2.05450
    R7        2.05552  -0.00039  -0.00026  -0.00077  -0.00102   2.05450
    R8        2.05463  -0.00056  -0.00024  -0.00118  -0.00142   2.05320
    R9        2.05463  -0.00056  -0.00024  -0.00118  -0.00142   2.05320
   R10        2.05283  -0.00037  -0.00000  -0.00103  -0.00104   2.05179
    A1        1.88082  -0.00013   0.00019  -0.00042  -0.00023   1.88058
    A2        1.88082  -0.00013   0.00019  -0.00042  -0.00023   1.88058
    A3        1.94141   0.00043   0.00077   0.00166   0.00244   1.94384
    A4        1.87930  -0.00001   0.00044  -0.00136  -0.00092   1.87839
    A5        1.93938  -0.00009  -0.00078   0.00020  -0.00057   1.93881
    A6        1.93938  -0.00009  -0.00078   0.00020  -0.00057   1.93881
    A7        1.96530   0.00081   0.00015   0.00334   0.00349   1.96879
    A8        1.90984  -0.00024  -0.00028  -0.00039  -0.00067   1.90917
    A9        1.90984  -0.00024  -0.00028  -0.00039  -0.00067   1.90917
   A10        1.90984  -0.00024  -0.00028  -0.00039  -0.00067   1.90917
   A11        1.90984  -0.00024  -0.00028  -0.00039  -0.00067   1.90917
   A12        1.85596   0.00011   0.00102  -0.00209  -0.00108   1.85488
   A13        1.93938  -0.00009  -0.00078   0.00020  -0.00057   1.93881
   A14        1.93938  -0.00009  -0.00078   0.00020  -0.00057   1.93881
   A15        1.94141   0.00043   0.00077   0.00166   0.00244   1.94384
   A16        1.87930  -0.00001   0.00044  -0.00136  -0.00092   1.87839
   A17        1.88082  -0.00013   0.00019  -0.00042  -0.00023   1.88058
   A18        1.88082  -0.00013   0.00019  -0.00042  -0.00023   1.88058
    D1        3.14159   0.00000   0.00000  -0.00000   0.00000   3.14159
    D2       -1.01357   0.00007  -0.00045   0.00148   0.00103  -1.01255
    D3        1.01357  -0.00007   0.00045  -0.00148  -0.00103   1.01255
    D4       -1.04611   0.00006   0.00024   0.00072   0.00096  -1.04515
    D5        1.08191   0.00013  -0.00022   0.00220   0.00198   1.08390
    D6        3.10906  -0.00000   0.00069  -0.00076  -0.00007   3.10899
    D7        1.04611  -0.00006  -0.00024  -0.00072  -0.00096   1.04515
    D8       -3.10906   0.00000  -0.00069   0.00076   0.00007  -3.10899
    D9       -1.08191  -0.00013   0.00022  -0.00220  -0.00198  -1.08390
   D10        1.04611  -0.00006  -0.00024  -0.00072  -0.00096   1.04515
   D11       -1.04611   0.00006   0.00024   0.00072   0.00096  -1.04515
   D12        3.14159  -0.00000   0.00000  -0.00000   0.00000   3.14159
   D13       -1.08191  -0.00013   0.00022  -0.00220  -0.00198  -1.08390
   D14        3.10906  -0.00000   0.00069  -0.00076  -0.00007   3.10899
   D15        1.01357  -0.00007   0.00045  -0.00148  -0.00103   1.01255
   D16       -3.10906   0.00000  -0.00069   0.00076   0.00007  -3.10899
   D17        1.08191   0.00013  -0.00022   0.00220   0.00198   1.08390
   D18       -1.01357   0.00007  -0.00045   0.00148   0.00103  -1.01255
         Item               Value     Threshold  Converged?
 Maximum Force            0.000814     0.000450     NO 
 RMS     Force            0.000278     0.000300     YES
 Maximum Displacement     0.003763     0.001800     NO 
 RMS     Displacement     0.001698     0.001200     NO 
 Predicted change in Energy=-6.252885D-06
 GradGradGradGradGradGradGradGradGradGradGradGradGradGradGradGradGradGrad

                          Input orientation:                          
 ---------------------------------------------------------------------
 Center     Atomic      Atomic             Coordinates (Angstroms)
 Number     Number       Type             X           Y           Z
 ---------------------------------------------------------------------
      1          6           0       -0.865930   -0.041889   -0.718984
      2          1           0       -0.990878    0.182271    0.336011
      3          1           0       -0.119282    0.640107   -1.116351
      4          1           0       -1.807015    0.174050   -1.217211
      5          6           0       -0.451284   -1.496936   -0.933903
      6          6           0       -0.266090   -1.848228   -2.409565
      7          1           0        0.474277   -1.691414   -0.397708
      8          1           0       -1.199882   -2.153722   -0.497757
      9          1           0        0.501340   -1.228815   -2.865504
     10          1           0       -1.186393   -1.694872   -2.966364
     11          1           0        0.027953   -2.885805   -2.535450
 ---------------------------------------------------------------------
                    Distance matrix (angstroms):
                    1          2          3          4          5
     1  C    0.000000
     2  H    1.085760   0.000000
     3  H    1.086509   1.754608   0.000000
     4  H    1.086509   1.754608   1.753803   0.000000
     5  C    1.528163   2.173380   2.170360   2.170360   0.000000
     6  C    2.545728   3.490907   2.808161   2.808161   1.528163
     7  H    2.149490   2.489120   2.510926   3.058731   1.087194
     8  H    2.149490   2.489120   3.058731   2.510926   1.087194
     9  H    2.808161   3.803627   2.633928   3.164396   2.170360
    10  H    2.808161   3.803627   3.164396   2.633928   2.170360
    11  H    3.490907   4.323933   3.803627   3.803627   2.173380
                    6          7          8          9         10
     6  C    0.000000
     7  H    2.149490   0.000000
     8  H    2.149490   1.739697   0.000000
     9  H    1.086509   2.510926   3.058731   0.000000
    10  H    1.086509   3.058731   2.510926   1.753803   0.000000
    11  H    1.085760   2.489120   2.489120   1.754608   1.754608
                   11
    11  H    0.000000
 Stoichiometry    C3H8
 Framework group  C2V[C2(C),SGV(C2H2),SGV'(H2),X(H4)]
 Deg. of freedom     9
 Full point group                 C2V     NOp   4
 Largest Abelian subgroup         C2V     NOp   4
 Largest concise Abelian subgroup C2V     NOp   4
                         Standard orientation:                         
 ---------------------------------------------------------------------
 Center     Atomic      Atomic             Coordinates (Angstroms)
 Number     Number       Type             X           Y           Z
 ---------------------------------------------------------------------
      1          6           0        0.000000    1.272864   -0.259841
      2          1           0       -0.000000    2.161967    0.363355
      3          1           0        0.876901    1.316964   -0.899841
      4          1           0       -0.876901    1.316964   -0.899841
      5          6           0       -0.000000    0.000000    0.585795
      6          6           0       -0.000000   -1.272864   -0.259841
      7          1           0        0.869849   -0.000000    1.237986
      8          1           0       -0.869849    0.000000    1.237986
      9          1           0        0.876901   -1.316964   -0.899841
     10          1           0       -0.876901   -1.316964   -0.899841
     11          1           0       -0.000000   -2.161967    0.363355
 ---------------------------------------------------------------------
 Rotational constants (GHZ):          29.7644216           8.4338613           7.4702859
 Standard basis: 6-31G(d) (6D, 7F)
 There are    25 symmetry adapted cartesian basis functions of A1  symmetry.
 There are     7 symmetry adapted cartesian basis functions of A2  symmetry.
 There are    11 symmetry adapted cartesian basis functions of B1  symmetry.
 There are    18 symmetry adapted cartesian basis functions of B2  symmetry.
 There are    25 symmetry adapted basis functions of A1  symmetry.
 There are     7 symmetry adapted basis functions of A2  symmetry.
 There are    11 symmetry adapted basis functions of B1  symmetry.
 There are    18 symmetry adapted basis functions of B2  symmetry.
    61 basis functions,   116 primitive gaussians,    61 cartesian basis functions
    13 alpha electrons       13 beta electrons
       nuclear repulsion energy        82.7322989368 Hartrees.
 NAtoms=   11 NActive=   11 NUniq=    5 SFac= 4.00D+00 NAtFMM=   60 NAOKFM=F Big=F
 Integral buffers will be    131072 words long.
 Raffenetti 1 integral format.
 Two-electron integral symmetry is turned on.
 One-electron integrals computed using PRISM.
 NBasis=    61 RedAO= T EigKep=  6.12D-03  NBF=    25     7    11    18
 NBsUse=    61 1.00D-06 EigRej= -1.00D+00 NBFU=    25     7    11    18
 Initial guess from the checkpoint file:  "Propane-HF-6-31G(d).chk"
 B after Tr=    -0.000000   -0.000000    0.000000
         Rot=    1.000000    0.000000   -0.000000    0.000000 Ang=   0.00 deg.
 Initial guess orbital symmetries:
       Occupied  (A1) (B2) (A1) (A1) (B2) (A1) (B1) (A1) (B2) (A2)
                 (A1) (B2) (B1)
       Virtual   (A1) (B2) (A1) (B1) (A1) (B1) (A2) (B2) (A1) (B2)
                 (A1) (B2) (B1) (A1) (A2) (A1) (B1) (B2) (B2) (B1)
                 (B2) (A1) (A2) (A1) (B1) (A1) (A1) (B2) (B2) (A2)
                 (A1) (A1) (B2) (B1) (B2) (A1) (A2) (A1) (B1) (B2)
                 (B1) (A2) (A1) (A1) (B2) (A1) (B2) (A1)
 Keep R1 ints in memory in symmetry-blocked form, NReq=6798889.
 Requested convergence on RMS density matrix=1.00D-08 within 128 cycles.
 Requested convergence on MAX density matrix=1.00D-06.
 Requested convergence on             energy=1.00D-06.
 No special actions if energy rises.
 SCF Done:  E(RHF) =  -118.263651108     A.U. after    7 cycles
            NFock=  7  Conv=0.74D-08     -V/T= 2.0003
 Calling FoFJK, ICntrl=      2127 FMM=F ISym2X=1 I1Cent= 0 IOpClX= 0 NMat=1 NMatS=1 NMatT=0.
 ***** Axes restored to original set *****
 -------------------------------------------------------------------
 Center     Atomic                   Forces (Hartrees/Bohr)
 Number     Number              X              Y              Z
 -------------------------------------------------------------------
      1        6          -0.000026815    0.000102368   -0.000024323
      2        1           0.000016893   -0.000056488   -0.000021651
      3        1           0.000010798    0.000014333   -0.000005383
      4        1          -0.000015937    0.000006951   -0.000006981
      5        6           0.000023768   -0.000114333    0.000130594
      6        6           0.000002781    0.000013246   -0.000107735
      7        1           0.000031475    0.000007472    0.000003185
      8        1          -0.000030996   -0.000009779   -0.000000549
      9        1           0.000012707    0.000008584   -0.000010764
     10        1          -0.000014028    0.000001201   -0.000012361
     11        1          -0.000010647    0.000026445    0.000055968
 -------------------------------------------------------------------
 Cartesian Forces:  Max     0.000130594 RMS     0.000044613

 GradGradGradGradGradGradGradGradGradGradGradGradGradGradGradGradGradGrad
 Berny optimization.
 Using GEDIIS/GDIIS optimizer.
 FormGI is forming the generalized inverse of G from B-inverse, IUseBI=4.
 Internal  Forces:  Max     0.000079924 RMS     0.000027280
 Search for a local minimum.
 Step number   4 out of a maximum of   56
 All quantities printed in internal units (Hartrees-Bohrs-Radians)
 Mixed Optimization -- En-DIIS/RFO-DIIS
 Swapping is turned off.
 Update second derivatives using D2CorX and points    1    2    3    4
 DE= -5.80D-06 DEPred=-6.25D-06 R= 9.27D-01
 TightC=F SS=  1.41D+00  RLast= 8.17D-03 DXNew= 8.4853D-01 2.4519D-02
 Trust test= 9.27D-01 RLast= 8.17D-03 DXMaxT set to 5.05D-01
 ITU=  1  1  1  0
     Eigenvalues ---    0.00237   0.00237   0.03404   0.04596   0.05383
     Eigenvalues ---    0.05383   0.05423   0.05611   0.08310   0.12201
     Eigenvalues ---    0.14795   0.16000   0.16000   0.16000   0.16000
     Eigenvalues ---    0.17533   0.22839   0.28519   0.31313   0.37119
     Eigenvalues ---    0.37230   0.37230   0.37230   0.37230   0.37230
     Eigenvalues ---    0.37857   0.39055
 En-DIIS/RFO-DIIS/Sim-DIIS IScMMF=       -3 using points:     4    3
 RFO step:  Lambda=-1.76698248D-07.
 DidBck=F Rises=F RFO-DIIS coefs:    0.89600    0.10400
 Iteration  1 RMS(Cart)=  0.00015187 RMS(Int)=  0.00000005
 Iteration  2 RMS(Cart)=  0.00000004 RMS(Int)=  0.00000004
 ClnCor:  largest displacement from symmetrization is 6.54D-11 for atom     4.
 Variable       Old X    -DE/DX   Delta X   Delta X   Delta X     New X
                                 (Linear)    (Quad)   (Total)
    R1        2.05179  -0.00003   0.00011  -0.00020  -0.00009   2.05170
    R2        2.05320   0.00002   0.00015  -0.00012   0.00003   2.05323
    R3        2.05320   0.00002   0.00015  -0.00012   0.00003   2.05323
    R4        2.88781   0.00006  -0.00006   0.00034   0.00029   2.88810
    R5        2.88781   0.00006  -0.00006   0.00034   0.00029   2.88810
    R6        2.05450   0.00003   0.00011  -0.00006   0.00005   2.05455
    R7        2.05450   0.00003   0.00011  -0.00006   0.00005   2.05455
    R8        2.05320   0.00002   0.00015  -0.00012   0.00003   2.05323
    R9        2.05320   0.00002   0.00015  -0.00012   0.00003   2.05323
   R10        2.05179  -0.00003   0.00011  -0.00020  -0.00009   2.05170
    A1        1.88058   0.00003   0.00002   0.00007   0.00010   1.88068
    A2        1.88058   0.00003   0.00002   0.00007   0.00010   1.88068
    A3        1.94384  -0.00008  -0.00025  -0.00021  -0.00047   1.94338
    A4        1.87839  -0.00001   0.00010   0.00000   0.00010   1.87848
    A5        1.93881   0.00002   0.00006   0.00004   0.00010   1.93891
    A6        1.93881   0.00002   0.00006   0.00004   0.00010   1.93891
    A7        1.96879  -0.00005  -0.00036   0.00012  -0.00024   1.96855
    A8        1.90917   0.00001   0.00007  -0.00006   0.00000   1.90918
    A9        1.90917   0.00001   0.00007  -0.00006   0.00000   1.90918
   A10        1.90917   0.00001   0.00007  -0.00006   0.00000   1.90918
   A11        1.90917   0.00001   0.00007  -0.00006   0.00000   1.90918
   A12        1.85488   0.00000   0.00011   0.00014   0.00025   1.85513
   A13        1.93881   0.00002   0.00006   0.00004   0.00010   1.93891
   A14        1.93881   0.00002   0.00006   0.00004   0.00010   1.93891
   A15        1.94384  -0.00008  -0.00025  -0.00021  -0.00047   1.94338
   A16        1.87839  -0.00001   0.00010   0.00000   0.00010   1.87848
   A17        1.88058   0.00003   0.00002   0.00007   0.00010   1.88068
   A18        1.88058   0.00003   0.00002   0.00007   0.00010   1.88068
    D1        3.14159   0.00000   0.00000   0.00000  -0.00000   3.14159
    D2       -1.01255  -0.00001  -0.00011  -0.00005  -0.00015  -1.01270
    D3        1.01255   0.00001   0.00011   0.00005   0.00015   1.01270
    D4       -1.04515  -0.00001  -0.00010  -0.00003  -0.00013  -1.04527
    D5        1.08390  -0.00002  -0.00021  -0.00007  -0.00028   1.08362
    D6        3.10899  -0.00000   0.00001   0.00002   0.00003   3.10902
    D7        1.04515   0.00001   0.00010   0.00003   0.00013   1.04527
    D8       -3.10899   0.00000  -0.00001  -0.00002  -0.00003  -3.10902
    D9       -1.08390   0.00002   0.00021   0.00007   0.00028  -1.08362
   D10        1.04515   0.00001   0.00010   0.00003   0.00013   1.04527
   D11       -1.04515  -0.00001  -0.00010  -0.00003  -0.00013  -1.04527
   D12        3.14159   0.00000   0.00000   0.00000   0.00000  -3.14159
   D13       -1.08390   0.00002   0.00021   0.00007   0.00028  -1.08362
   D14        3.10899  -0.00000   0.00001   0.00002   0.00003   3.10902
   D15        1.01255   0.00001   0.00011   0.00005   0.00015   1.01270
   D16       -3.10899   0.00000  -0.00001  -0.00002  -0.00003  -3.10902
   D17        1.08390  -0.00002  -0.00021  -0.00007  -0.00028   1.08362
   D18       -1.01255  -0.00001  -0.00011  -0.00005  -0.00015  -1.01270
         Item               Value     Threshold  Converged?
 Maximum Force            0.000080     0.000450     YES
 RMS     Force            0.000027     0.000300     YES
 Maximum Displacement     0.000525     0.001800     YES
 RMS     Displacement     0.000152     0.001200     YES
 Predicted change in Energy=-8.834984D-08
 Optimization completed.
    -- Stationary point found.
                           ----------------------------
                           !   Optimized Parameters   !
                           ! (Angstroms and Degrees)  !
 --------------------------                            --------------------------
 ! Name  Definition              Value          Derivative Info.                !
 --------------------------------------------------------------------------------
 ! R1    R(1,2)                  1.0858         -DE/DX =    0.0                 !
 ! R2    R(1,3)                  1.0865         -DE/DX =    0.0                 !
 ! R3    R(1,4)                  1.0865         -DE/DX =    0.0                 !
 ! R4    R(1,5)                  1.5282         -DE/DX =    0.0001              !
 ! R5    R(5,6)                  1.5282         -DE/DX =    0.0001              !
 ! R6    R(5,7)                  1.0872         -DE/DX =    0.0                 !
 ! R7    R(5,8)                  1.0872         -DE/DX =    0.0                 !
 ! R8    R(6,9)                  1.0865         -DE/DX =    0.0                 !
 ! R9    R(6,10)                 1.0865         -DE/DX =    0.0                 !
 ! R10   R(6,11)                 1.0858         -DE/DX =    0.0                 !
 ! A1    A(2,1,3)              107.7495         -DE/DX =    0.0                 !
 ! A2    A(2,1,4)              107.7495         -DE/DX =    0.0                 !
 ! A3    A(2,1,5)              111.374          -DE/DX =   -0.0001              !
 ! A4    A(3,1,4)              107.6236         -DE/DX =    0.0                 !
 ! A5    A(3,1,5)              111.0858         -DE/DX =    0.0                 !
 ! A6    A(4,1,5)              111.0858         -DE/DX =    0.0                 !
 ! A7    A(1,5,6)              112.8033         -DE/DX =   -0.0001              !
 ! A8    A(1,5,7)              109.3876         -DE/DX =    0.0                 !
 ! A9    A(1,5,8)              109.3876         -DE/DX =    0.0                 !
 ! A10   A(6,5,7)              109.3876         -DE/DX =    0.0                 !
 ! A11   A(6,5,8)              109.3876         -DE/DX =    0.0                 !
 ! A12   A(7,5,8)              106.2767         -DE/DX =    0.0                 !
 ! A13   A(5,6,9)              111.0858         -DE/DX =    0.0                 !
 ! A14   A(5,6,10)             111.0858         -DE/DX =    0.0                 !
 ! A15   A(5,6,11)             111.374          -DE/DX =   -0.0001              !
 ! A16   A(9,6,10)             107.6236         -DE/DX =    0.0                 !
 ! A17   A(9,6,11)             107.7495         -DE/DX =    0.0                 !
 ! A18   A(10,6,11)            107.7495         -DE/DX =    0.0                 !
 ! D1    D(2,1,5,6)            180.0            -DE/DX =    0.0                 !
 ! D2    D(2,1,5,7)            -58.0146         -DE/DX =    0.0                 !
 ! D3    D(2,1,5,8)             58.0146         -DE/DX =    0.0                 !
 ! D4    D(3,1,5,6)            -59.8827         -DE/DX =    0.0                 !
 ! D5    D(3,1,5,7)             62.1028         -DE/DX =    0.0                 !
 ! D6    D(3,1,5,8)            178.1319         -DE/DX =    0.0                 !
 ! D7    D(4,1,5,6)             59.8827         -DE/DX =    0.0                 !
 ! D8    D(4,1,5,7)           -178.1319         -DE/DX =    0.0                 !
 ! D9    D(4,1,5,8)            -62.1028         -DE/DX =    0.0                 !
 ! D10   D(1,5,6,9)             59.8827         -DE/DX =    0.0                 !
 ! D11   D(1,5,6,10)           -59.8827         -DE/DX =    0.0                 !
 ! D12   D(1,5,6,11)          -180.0            -DE/DX =    0.0                 !
 ! D13   D(7,5,6,9)            -62.1028         -DE/DX =    0.0                 !
 ! D14   D(7,5,6,10)           178.1319         -DE/DX =    0.0                 !
 ! D15   D(7,5,6,11)            58.0146         -DE/DX =    0.0                 !
 ! D16   D(8,5,6,9)           -178.1319         -DE/DX =    0.0                 !
 ! D17   D(8,5,6,10)            62.1028         -DE/DX =    0.0                 !
 ! D18   D(8,5,6,11)           -58.0146         -DE/DX =    0.0                 !
 --------------------------------------------------------------------------------
 GradGradGradGradGradGradGradGradGradGradGradGradGradGradGradGradGradGrad

                          Input orientation:                          
 ---------------------------------------------------------------------
 Center     Atomic      Atomic             Coordinates (Angstroms)
 Number     Number       Type             X           Y           Z
 ---------------------------------------------------------------------
      1          6           0       -0.865930   -0.041889   -0.718984
      2          1           0       -0.990878    0.182271    0.336011
      3          1           0       -0.119282    0.640107   -1.116351
      4          1           0       -1.807015    0.174050   -1.217211
      5          6           0       -0.451284   -1.496936   -0.933903
      6          6           0       -0.266090   -1.848228   -2.409565
      7          1           0        0.474277   -1.691414   -0.397708
      8          1           0       -1.199882   -2.153722   -0.497757
      9          1           0        0.501340   -1.228815   -2.865504
     10          1           0       -1.186393   -1.694872   -2.966364
     11          1           0        0.027953   -2.885805   -2.535450
 ---------------------------------------------------------------------
                    Distance matrix (angstroms):
                    1          2          3          4          5
     1  C    0.000000
     2  H    1.085760   0.000000
     3  H    1.086509   1.754608   0.000000
     4  H    1.086509   1.754608   1.753803   0.000000
     5  C    1.528163   2.173380   2.170360   2.170360   0.000000
     6  C    2.545728   3.490907   2.808161   2.808161   1.528163
     7  H    2.149490   2.489120   2.510926   3.058731   1.087194
     8  H    2.149490   2.489120   3.058731   2.510926   1.087194
     9  H    2.808161   3.803627   2.633928   3.164396   2.170360
    10  H    2.808161   3.803627   3.164396   2.633928   2.170360
    11  H    3.490907   4.323933   3.803627   3.803627   2.173380
                    6          7          8          9         10
     6  C    0.000000
     7  H    2.149490   0.000000
     8  H    2.149490   1.739697   0.000000
     9  H    1.086509   2.510926   3.058731   0.000000
    10  H    1.086509   3.058731   2.510926   1.753803   0.000000
    11  H    1.085760   2.489120   2.489120   1.754608   1.754608
                   11
    11  H    0.000000
 Stoichiometry    C3H8
 Framework group  C2V[C2(C),SGV(C2H2),SGV'(H2),X(H4)]
 Deg. of freedom     9
 Full point group                 C2V     NOp   4
 Largest Abelian subgroup         C2V     NOp   4
 Largest concise Abelian subgroup C2V     NOp   4
                         Standard orientation:                         
 ---------------------------------------------------------------------
 Center     Atomic      Atomic             Coordinates (Angstroms)
 Number     Number       Type             X           Y           Z
 ---------------------------------------------------------------------
      1          6           0       -0.000000    1.272864   -0.259841
      2          1           0       -0.000000    2.161967    0.363355
      3          1           0        0.876901    1.316964   -0.899841
      4          1           0       -0.876901    1.316964   -0.899841
      5          6           0       -0.000000    0.000000    0.585795
      6          6           0       -0.000000   -1.272864   -0.259841
      7          1           0        0.869849   -0.000000    1.237986
      8          1           0       -0.869849    0.000000    1.237986
      9          1           0        0.876901   -1.316964   -0.899841
     10          1           0       -0.876901   -1.316964   -0.899841
     11          1           0       -0.000000   -2.161967    0.363355
 ---------------------------------------------------------------------
 Rotational constants (GHZ):          29.7644216           8.4338613           7.4702859

 **********************************************************************

            Population analysis using the SCF Density.

 **********************************************************************

 Orbital symmetries:
       Occupied  (A1) (B2) (A1) (A1) (B2) (A1) (B1) (A1) (B2) (A2)
                 (A1) (B2) (B1)
       Virtual   (A1) (B2) (A1) (B1) (A1) (B1) (A2) (B2) (A1) (B2)
                 (A1) (B2) (B1) (A1) (A2) (A1) (B1) (B2) (B2) (B1)
                 (B2) (A1) (A2) (A1) (B1) (A1) (A1) (B2) (B2) (A2)
                 (A1) (A1) (B2) (B1) (B2) (A1) (A2) (A1) (B1) (B2)
                 (B1) (A2) (A1) (A1) (B2) (A1) (B2) (A1)
 The electronic state is 1-A1.
 Alpha  occ. eigenvalues --  -11.21576 -11.20759 -11.20756  -1.05293  -0.92667
 Alpha  occ. eigenvalues --   -0.80189  -0.62468  -0.59751  -0.55087  -0.53242
 Alpha  occ. eigenvalues --   -0.47550  -0.47478  -0.46885
 Alpha virt. eigenvalues --    0.23401   0.29591   0.29903   0.29968   0.31866
 Alpha virt. eigenvalues --    0.34267   0.35124   0.35499   0.39344   0.44283
 Alpha virt. eigenvalues --    0.71169   0.71435   0.74537   0.76169   0.78445
 Alpha virt. eigenvalues --    0.93873   0.97706   0.97874   1.01324   1.14983
 Alpha virt. eigenvalues --    1.16827   1.18019   1.19289   1.21255   1.23389
 Alpha virt. eigenvalues --    1.24453   1.25937   1.26471   1.63812   1.73833
 Alpha virt. eigenvalues --    1.75439   1.81853   2.03760   2.20812   2.24533
 Alpha virt. eigenvalues --    2.29481   2.35528   2.42301   2.58426   2.60934
 Alpha virt. eigenvalues --    2.68200   2.73917   2.76673   2.92503   3.02919
 Alpha virt. eigenvalues --    4.57515   4.71249   4.89256
          Condensed to atoms (all electrons):
               1          2          3          4          5          6
     1  C    5.103211   0.395005   0.391778   0.391778   0.340726  -0.060641
     2  H    0.395005   0.537794  -0.028182  -0.028182  -0.035742   0.004406
     3  H    0.391778  -0.028182   0.548201  -0.029971  -0.038345  -0.003190
     4  H    0.391778  -0.028182  -0.029971   0.548201  -0.038345  -0.003190
     5  C    0.340726  -0.035742  -0.038345  -0.038345   5.039715   0.340726
     6  C   -0.060641   0.004406  -0.003190  -0.003190   0.340726   5.103211
     7  H   -0.041836  -0.002560  -0.003123   0.004372   0.402702  -0.041836
     8  H   -0.041836  -0.002560   0.004372  -0.003123   0.402702  -0.041836
     9  H   -0.003190  -0.000070   0.002707   0.000073  -0.038345   0.391778
    10  H   -0.003190  -0.000070   0.000073   0.002707  -0.038345   0.391778
    11  H    0.004406  -0.000097  -0.000070  -0.000070  -0.035742   0.395005
               7          8          9         10         11
     1  C   -0.041836  -0.041836  -0.003190  -0.003190   0.004406
     2  H   -0.002560  -0.002560  -0.000070  -0.000070  -0.000097
     3  H   -0.003123   0.004372   0.002707   0.000073  -0.000070
     4  H    0.004372  -0.003123   0.000073   0.002707  -0.000070
     5  C    0.402702   0.402702  -0.038345  -0.038345  -0.035742
     6  C   -0.041836  -0.041836   0.391778   0.391778   0.395005
     7  H    0.561529  -0.033241  -0.003123   0.004372  -0.002560
     8  H   -0.033241   0.561529   0.004372  -0.003123  -0.002560
     9  H   -0.003123   0.004372   0.548201  -0.029971  -0.028182
    10  H    0.004372  -0.003123  -0.029971   0.548201  -0.028182
    11  H   -0.002560  -0.002560  -0.028182  -0.028182   0.537794
 Mulliken charges:
               1
     1  C   -0.476210
     2  H    0.160257
     3  H    0.155750
     4  H    0.155750
     5  C   -0.301707
     6  C   -0.476210
     7  H    0.155306
     8  H    0.155306
     9  H    0.155750
    10  H    0.155750
    11  H    0.160257
 Sum of Mulliken charges =  -0.00000
 Mulliken charges with hydrogens summed into heavy atoms:
               1
     1  C   -0.004452
     5  C    0.008904
     6  C   -0.004452
 Electronic spatial extent (au):  <R**2>=            226.5371
 Charge=             -0.0000 electrons
 Dipole moment (field-independent basis, Debye):
    X=             -0.0000    Y=              0.0000    Z=              0.0658  Tot=              0.0658
 Quadrupole moment (field-independent basis, Debye-Ang):
   XX=            -21.5109   YY=            -22.2917   ZZ=            -21.9173
   XY=             -0.0000   XZ=              0.0000   YZ=              0.0000
 Traceless Quadrupole moment (field-independent basis, Debye-Ang):
   XX=              0.3957   YY=             -0.3851   ZZ=             -0.0106
   XY=             -0.0000   XZ=              0.0000   YZ=              0.0000
 Octapole moment (field-independent basis, Debye-Ang**2):
  XXX=              0.0000  YYY=              0.0000  ZZZ=              0.1871  XYY=             -0.0000
  XXY=              0.0000  XXZ=             -0.4582  XZZ=              0.0000  YZZ=              0.0000
  YYZ=              1.3724  XYZ=             -0.0000
 Hexadecapole moment (field-independent basis, Debye-Ang**3):
 XXXX=            -42.2777 YYYY=           -201.8499 ZZZZ=            -69.3605 XXXY=             -0.0000
 XXXZ=              0.0000 YYYX=             -0.0000 YYYZ=             -0.0000 ZZZX=              0.0000
 ZZZY=              0.0000 XXYY=            -41.5933 XXZZ=            -16.7488 YYZZ=            -44.7726
 XXYZ=             -0.0000 YYXZ=             -0.0000 ZZXY=              0.0000
 N-N= 8.273229893684D+01 E-N=-4.399402565408D+02  KE= 1.182223427268D+02
 Symmetry A1   KE= 7.324399877533D+01
 Symmetry A2   KE= 1.991469820681D+00
 Symmetry B1   KE= 3.820597792395D+00
 Symmetry B2   KE= 3.916627633838D+01
 ******************************Gaussian NBO Version 3.1******************************
             N A T U R A L   A T O M I C   O R B I T A L   A N D
          N A T U R A L   B O N D   O R B I T A L   A N A L Y S I S
 ******************************Gaussian NBO Version 3.1******************************
       /RESON  / : Allow strongly delocalized NBO set

 Analyzing the SCF density

 Job title: Propane-HF-6-31G(D)                                             

 Storage needed:     11598 in NPA,     15203 in NBO (1342176565 available)


 NATURAL POPULATIONS:  Natural atomic orbital occupancies 
                                                          
   NAO  Atom  No  lang   Type(AO)    Occupancy      Energy
 ----------------------------------------------------------
     1    C    1  S      Cor( 1S)     1.99949     -11.06722
     2    C    1  S      Val( 2S)     1.09409      -0.26862
     3    C    1  S      Ryd( 3S)     0.00048       1.47708
     4    C    1  S      Ryd( 4S)     0.00001       4.66234
     5    C    1  px     Val( 2p)     1.22187      -0.05620
     6    C    1  px     Ryd( 3p)     0.00139       0.85346
     7    C    1  py     Val( 2p)     1.12760      -0.04095
     8    C    1  py     Ryd( 3p)     0.00190       0.83421
     9    C    1  pz     Val( 2p)     1.17937      -0.04780
    10    C    1  pz     Ryd( 3p)     0.00163       0.83890
    11    C    1  dxy    Ryd( 3d)     0.00008       2.10814
    12    C    1  dxz    Ryd( 3d)     0.00220       2.54356
    13    C    1  dyz    Ryd( 3d)     0.00177       2.56928
    14    C    1  dx2y2  Ryd( 3d)     0.00194       2.56166
    15    C    1  dz2    Ryd( 3d)     0.00008       2.09354
 
    16    H    2  S      Val( 1S)     0.78370       0.18502
    17    H    2  S      Ryd( 2S)     0.00068       0.82072
 
    18    H    3  S      Val( 1S)     0.78962       0.17786
    19    H    3  S      Ryd( 2S)     0.00096       0.83254
 
    20    H    4  S      Val( 1S)     0.78962       0.17786
    21    H    4  S      Ryd( 2S)     0.00096       0.83254
 
    22    C    5  S      Cor( 1S)     1.99939     -11.07189
    23    C    5  S      Val( 2S)     1.03489      -0.24221
    24    C    5  S      Ryd( 3S)     0.00078       1.57480
    25    C    5  S      Ryd( 4S)     0.00001       4.72002
    26    C    5  px     Val( 2p)     1.22024      -0.04997
    27    C    5  px     Ryd( 3p)     0.00323       0.97069
    28    C    5  py     Val( 2p)     1.02596      -0.02197
    29    C    5  py     Ryd( 3p)     0.00158       0.81444
    30    C    5  pz     Val( 2p)     1.13237      -0.03897
    31    C    5  pz     Ryd( 3p)     0.00091       0.82120
    32    C    5  dxy    Ryd( 3d)     0.00017       2.15116
    33    C    5  dxz    Ryd( 3d)     0.00243       2.56505
    34    C    5  dyz    Ryd( 3d)     0.00157       2.61531
    35    C    5  dx2y2  Ryd( 3d)     0.00195       2.58816
    36    C    5  dz2    Ryd( 3d)     0.00013       2.15498
 
    37    C    6  S      Cor( 1S)     1.99949     -11.06722
    38    C    6  S      Val( 2S)     1.09409      -0.26862
    39    C    6  S      Ryd( 3S)     0.00048       1.47708
    40    C    6  S      Ryd( 4S)     0.00001       4.66234
    41    C    6  px     Val( 2p)     1.22187      -0.05620
    42    C    6  px     Ryd( 3p)     0.00139       0.85346
    43    C    6  py     Val( 2p)     1.12760      -0.04095
    44    C    6  py     Ryd( 3p)     0.00190       0.83421
    45    C    6  pz     Val( 2p)     1.17937      -0.04780
    46    C    6  pz     Ryd( 3p)     0.00163       0.83890
    47    C    6  dxy    Ryd( 3d)     0.00008       2.10814
    48    C    6  dxz    Ryd( 3d)     0.00220       2.54356
    49    C    6  dyz    Ryd( 3d)     0.00177       2.56928
    50    C    6  dx2y2  Ryd( 3d)     0.00194       2.56166
    51    C    6  dz2    Ryd( 3d)     0.00008       2.09354
 
    52    H    7  S      Val( 1S)     0.78637       0.18763
    53    H    7  S      Ryd( 2S)     0.00142       0.82729
 
    54    H    8  S      Val( 1S)     0.78637       0.18763
    55    H    8  S      Ryd( 2S)     0.00142       0.82729
 
    56    H    9  S      Val( 1S)     0.78962       0.17786
    57    H    9  S      Ryd( 2S)     0.00096       0.83254
 
    58    H   10  S      Val( 1S)     0.78962       0.17786
    59    H   10  S      Ryd( 2S)     0.00096       0.83254
 
    60    H   11  S      Val( 1S)     0.78370       0.18502
    61    H   11  S      Ryd( 2S)     0.00068       0.82072


 Summary of Natural Population Analysis:                  
                                                          
                                       Natural Population 
                Natural  -----------------------------------------------
    Atom  No    Charge         Core      Valence    Rydberg      Total
 -----------------------------------------------------------------------
      C    1   -0.63388      1.99949     4.62292    0.01147     6.63388
      H    2    0.21562      0.00000     0.78370    0.00068     0.78438
      H    3    0.20943      0.00000     0.78962    0.00096     0.79057
      H    4    0.20943      0.00000     0.78962    0.00096     0.79057
      C    5   -0.42561      1.99939     4.41345    0.01277     6.42561
      C    6   -0.63388      1.99949     4.62292    0.01147     6.63388
      H    7    0.21221      0.00000     0.78637    0.00142     0.78779
      H    8    0.21221      0.00000     0.78637    0.00142     0.78779
      H    9    0.20943      0.00000     0.78962    0.00096     0.79057
      H   10    0.20943      0.00000     0.78962    0.00096     0.79057
      H   11    0.21562      0.00000     0.78370    0.00068     0.78438
 =======================================================================
   * Total *   -0.00000      5.99837    19.95791    0.04372    26.00000

                                 Natural Population      
 --------------------------------------------------------
   Core                       5.99837 ( 99.9728% of   6)
   Valence                   19.95791 ( 99.7896% of  20)
   Natural Minimal Basis     25.95628 ( 99.8318% of  26)
   Natural Rydberg Basis      0.04372 (  0.1682% of  26)
 --------------------------------------------------------

    Atom  No          Natural Electron Configuration
 ----------------------------------------------------------------------------
      C    1      [core]2S( 1.09)2p( 3.53)3d( 0.01)
      H    2            1S( 0.78)
      H    3            1S( 0.79)
      H    4            1S( 0.79)
      C    5      [core]2S( 1.03)2p( 3.38)3p( 0.01)3d( 0.01)
      C    6      [core]2S( 1.09)2p( 3.53)3d( 0.01)
      H    7            1S( 0.79)
      H    8            1S( 0.79)
      H    9            1S( 0.79)
      H   10            1S( 0.79)
      H   11            1S( 0.78)


 NATURAL BOND ORBITAL ANALYSIS:

                       Occupancies       Lewis Structure    Low   High
           Occ.    -------------------  -----------------   occ   occ
  Cycle   Thresh.   Lewis   Non-Lewis     CR  BD  3C  LP    (L)   (NL)   Dev
 =============================================================================
   1(1)    1.90    25.90473   0.09527      3  10   0   0     0      0    0.02
 -----------------------------------------------------------------------------

 Structure accepted: No low occupancy Lewis orbitals

 --------------------------------------------------------
   Core                      5.99837 ( 99.973% of   6)
   Valence Lewis            19.90637 ( 99.532% of  20)
  ==================       ============================
   Total Lewis              25.90473 ( 99.634% of  26)
  -----------------------------------------------------
   Valence non-Lewis         0.07173 (  0.276% of  26)
   Rydberg non-Lewis         0.02354 (  0.091% of  26)
  ==================       ============================
   Total non-Lewis           0.09527 (  0.366% of  26)
 --------------------------------------------------------


       (Occupancy)   Bond orbital/ Coefficients/ Hybrids
 ---------------------------------------------------------------------------------
     1. (1.99177) BD ( 1) C   1 - H   2  
                ( 60.78%)   0.7796* C   1 s( 24.09%)p 3.15( 75.78%)d 0.01(  0.13%)
                                            0.0000  0.4908  0.0015 -0.0005  0.0000
                                           -0.0000  0.7078  0.0024  0.5067 -0.0144
                                            0.0000 -0.0000  0.0292 -0.0200  0.0002
                ( 39.22%)   0.6263* H   2 s(100.00%)
                                            1.0000  0.0002
     2. (1.99230) BD ( 1) C   1 - H   3  
                ( 60.57%)   0.7782* C   1 s( 23.78%)p 3.20( 76.10%)d 0.01(  0.13%)
                                           -0.0000  0.4876  0.0038 -0.0005  0.7065
                                           -0.0057  0.0279  0.0149 -0.5107 -0.0026
                                            0.0014 -0.0291 -0.0008  0.0202  0.0006
                ( 39.43%)   0.6280* H   3 s(100.00%)
                                            1.0000  0.0009
     3. (1.99230) BD ( 1) C   1 - H   4  
                ( 60.57%)   0.7782* C   1 s( 23.78%)p 3.20( 76.10%)d 0.01(  0.13%)
                                            0.0000 -0.4876 -0.0038  0.0005  0.7065
                                           -0.0057 -0.0279 -0.0149  0.5107  0.0026
                                            0.0014 -0.0291  0.0008 -0.0202 -0.0006
                ( 39.43%)   0.6280* H   4 s(100.00%)
                                           -1.0000 -0.0009
     4. (1.99252) BD ( 1) C   1 - C   5  
                ( 49.96%)   0.7068* C   1 s( 28.35%)p 2.52( 71.55%)d 0.00(  0.10%)
                                            0.0002  0.5323 -0.0108  0.0017  0.0000
                                           -0.0000 -0.7039 -0.0030  0.4688  0.0138
                                            0.0000 -0.0000 -0.0254 -0.0192 -0.0017
                ( 50.04%)   0.7074* C   5 s( 26.93%)p 2.71( 72.96%)d 0.00(  0.11%)
                                            0.0001  0.5189 -0.0112  0.0007 -0.0000
                                            0.0000  0.7064  0.0155 -0.4799  0.0053
                                            0.0000 -0.0000 -0.0268 -0.0190 -0.0004
     5. (1.99252) BD ( 1) C   5 - C   6  
                ( 50.04%)   0.7074* C   5 s( 26.93%)p 2.71( 72.96%)d 0.00(  0.11%)
                                            0.0001  0.5189 -0.0112  0.0007 -0.0000
                                            0.0000 -0.7064 -0.0155 -0.4799  0.0053
                                            0.0000 -0.0000  0.0268 -0.0190 -0.0004
                ( 49.96%)   0.7068* C   6 s( 28.35%)p 2.52( 71.55%)d 0.00(  0.10%)
                                            0.0002  0.5323 -0.0108  0.0017 -0.0000
                                            0.0000  0.7039  0.0030  0.4688  0.0138
                                            0.0000  0.0000  0.0254 -0.0192 -0.0017
     6. (1.98429) BD ( 1) C   5 - H   7  
                ( 60.72%)   0.7792* C   5 s( 23.08%)p 3.33( 76.78%)d 0.01(  0.13%)
                                           -0.0001  0.4803  0.0099 -0.0006  0.7063
                                           -0.0167  0.0000  0.0000  0.5184  0.0045
                                            0.0000  0.0300 -0.0000  0.0209  0.0006
                ( 39.28%)   0.6267* H   7 s(100.00%)
                                            1.0000  0.0020
     7. (1.98429) BD ( 1) C   5 - H   8  
                ( 60.72%)   0.7792* C   5 s( 23.08%)p 3.33( 76.78%)d 0.01(  0.13%)
                                            0.0001 -0.4803 -0.0099  0.0006  0.7063
                                           -0.0167 -0.0000 -0.0000 -0.5184 -0.0045
                                            0.0000  0.0300  0.0000 -0.0209 -0.0006
                ( 39.28%)   0.6267* H   8 s(100.00%)
                                           -1.0000 -0.0020
     8. (1.99230) BD ( 1) C   6 - H   9  
                ( 60.57%)   0.7782* C   6 s( 23.78%)p 3.20( 76.10%)d 0.01(  0.13%)
                                           -0.0000  0.4876  0.0038 -0.0005  0.7065
                                           -0.0057 -0.0279 -0.0149 -0.5107 -0.0026
                                           -0.0014 -0.0291  0.0008  0.0202  0.0006
                ( 39.43%)   0.6280* H   9 s(100.00%)
                                            1.0000  0.0009
     9. (1.99230) BD ( 1) C   6 - H  10  
                ( 60.57%)   0.7782* C   6 s( 23.78%)p 3.20( 76.10%)d 0.01(  0.13%)
                                            0.0000 -0.4876 -0.0038  0.0005  0.7065
                                           -0.0057  0.0279  0.0149  0.5107  0.0026
                                           -0.0014 -0.0291 -0.0008 -0.0202 -0.0006
                ( 39.43%)   0.6280* H  10 s(100.00%)
                                           -1.0000 -0.0009
    10. (1.99177) BD ( 1) C   6 - H  11  
                ( 60.78%)   0.7796* C   6 s( 24.09%)p 3.15( 75.78%)d 0.01(  0.13%)
                                            0.0000  0.4908  0.0015 -0.0005 -0.0000
                                            0.0000 -0.7078 -0.0024  0.5067 -0.0144
                                            0.0000  0.0000 -0.0292 -0.0200  0.0002
                ( 39.22%)   0.6263* H  11 s(100.00%)
                                            1.0000  0.0002
    11. (1.99949) CR ( 1) C   1           s(100.00%)p 0.00(  0.00%)
                                            1.0000 -0.0001  0.0000 -0.0000 -0.0000
                                            0.0000  0.0002  0.0000 -0.0001 -0.0000
                                           -0.0000  0.0000  0.0000  0.0000  0.0000
    12. (1.99939) CR ( 1) C   5           s(100.00%)p 0.00(  0.00%)
                                            1.0000 -0.0001  0.0000 -0.0000 -0.0000
                                            0.0000 -0.0000 -0.0000  0.0002 -0.0000
                                            0.0000 -0.0000  0.0000  0.0000  0.0000
    13. (1.99949) CR ( 1) C   6           s(100.00%)p 0.00(  0.00%)
                                            1.0000 -0.0001  0.0000 -0.0000  0.0000
                                           -0.0000 -0.0002 -0.0000 -0.0001 -0.0000
                                           -0.0000 -0.0000 -0.0000  0.0000  0.0000
    14. (0.00267) RY*( 1) C   1           s(  4.65%)p18.87( 87.67%)d 1.65(  7.68%)
                                            0.0000 -0.0080  0.2153  0.0063 -0.0000
                                            0.0000  0.0132  0.6925  0.0191  0.6298
                                           -0.0000  0.0000 -0.1540  0.1762  0.1486
    15. (0.00161) RY*( 2) C   1           s(  0.00%)p 1.00( 83.63%)d 0.20( 16.37%)
                                           -0.0000  0.0000  0.0000 -0.0000  0.0220
                                            0.9142  0.0000  0.0000 -0.0000 -0.0000
                                           -0.2124  0.3444 -0.0000  0.0000  0.0000
    16. (0.00030) RY*( 3) C   1           s( 42.44%)p 1.19( 50.51%)d 0.17(  7.05%)
                                           -0.0000 -0.0065  0.6510  0.0228 -0.0000
                                            0.0000 -0.0224  0.4210  0.0052 -0.5722
                                           -0.0000  0.0000  0.0913 -0.1790 -0.1735
    17. (0.00017) RY*( 4) C   1           s( 40.02%)p 1.16( 46.23%)d 0.34( 13.75%)
                                            0.0000  0.0090  0.6143  0.1510  0.0000
                                           -0.0000  0.0117 -0.5157 -0.0162  0.4427
                                            0.0000 -0.0000 -0.1372 -0.3174 -0.1338
    18. (0.00000) RY*( 5) C   1           s( 99.07%)p 0.01(  0.91%)d 0.00(  0.02%)
    19. (0.00000) RY*( 6) C   1           s(  0.00%)p 1.00(  5.12%)d18.53( 94.88%)
    20. (0.00000) RY*( 7) C   1           s(  0.00%)p 1.00( 11.42%)d 7.75( 88.58%)
    21. (0.00000) RY*( 8) C   1           s(  0.37%)p13.13(  4.85%)d99.99( 94.79%)
    22. (0.00001) RY*( 9) C   1           s( 13.46%)p 0.70(  9.38%)d 5.73( 77.17%)
    23. (0.00000) RY*(10) C   1           s(  0.00%)p 1.00(  0.75%)d99.99( 99.24%)
    24. (0.00068) RY*( 1) H   2           s(100.00%)
                                           -0.0002  1.0000
    25. (0.00096) RY*( 1) H   3           s(100.00%)
                                           -0.0009  1.0000
    26. (0.00096) RY*( 1) H   4           s(100.00%)
                                           -0.0009  1.0000
    27. (0.00309) RY*( 1) C   5           s(  0.00%)p 1.00( 88.61%)d 0.13( 11.39%)
                                            0.0000 -0.0000  0.0000 -0.0000  0.0365
                                            0.9406 -0.0000 -0.0000 -0.0000 -0.0000
                                            0.0000 -0.3374  0.0000  0.0000  0.0000
    28. (0.00120) RY*( 2) C   5           s( 10.65%)p 6.12( 65.18%)d 2.27( 24.16%)
                                           -0.0000  0.0084  0.3250  0.0287  0.0000
                                           -0.0000  0.0000  0.0000 -0.0224 -0.8070
                                           -0.0000  0.0000 -0.0000  0.3741  0.3188
    29. (0.00110) RY*( 3) C   5           s(  0.00%)p 1.00( 96.89%)d 0.03(  3.11%)
                                           -0.0000 -0.0000  0.0000 -0.0000 -0.0000
                                            0.0000 -0.0149  0.9842  0.0000 -0.0000
                                            0.0000 -0.0000  0.1764  0.0000  0.0000
    30. (0.00019) RY*( 4) C   5           s( 89.18%)p 0.09(  8.20%)d 0.03(  2.62%)
                                           -0.0000 -0.0007  0.9392  0.0985  0.0000
                                           -0.0000  0.0000  0.0000 -0.0137  0.2860
                                            0.0000  0.0000 -0.0000 -0.1435 -0.0749
    31. (0.00017) RY*( 5) C   5           s(  0.00%)p 0.00(  0.00%)d 1.00(100.00%)
                                            0.0000  0.0000  0.0000  0.0000  0.0000
                                            0.0000  0.0000  0.0000  0.0000  0.0000
                                            1.0000  0.0000  0.0000  0.0000  0.0000
    32. (0.00013) RY*( 6) C   5           s(  0.00%)p 1.00(  3.25%)d29.73( 96.75%)
                                            0.0000  0.0000 -0.0000  0.0000  0.0000
                                           -0.0000  0.0411 -0.1756 -0.0000  0.0000
                                            0.0000  0.0000  0.9836 -0.0000 -0.0000
    33. (0.00010) RY*( 7) C   5           s(  6.67%)p 3.56( 23.76%)d10.44( 69.58%)
    34. (0.00000) RY*( 8) C   5           s( 93.33%)p 0.02(  1.57%)d 0.05(  5.10%)
    35. (0.00000) RY*( 9) C   5           s(  0.00%)p 1.00( 11.57%)d 7.65( 88.43%)
    36. (0.00000) RY*(10) C   5           s(  0.13%)p11.38(  1.49%)d99.99( 98.38%)
    37. (0.00267) RY*( 1) C   6           s(  4.65%)p18.87( 87.67%)d 1.65(  7.68%)
                                            0.0000 -0.0080  0.2153  0.0063  0.0000
                                           -0.0000 -0.0132 -0.6925  0.0191  0.6298
                                           -0.0000 -0.0000  0.1540  0.1762  0.1486
    38. (0.00161) RY*( 2) C   6           s(  0.00%)p 1.00( 83.63%)d 0.20( 16.37%)
                                            0.0000 -0.0000 -0.0000  0.0000  0.0220
                                            0.9142  0.0000  0.0000  0.0000  0.0000
                                            0.2124  0.3444 -0.0000 -0.0000 -0.0000
    39. (0.00030) RY*( 3) C   6           s( 42.44%)p 1.19( 50.51%)d 0.17(  7.05%)
                                           -0.0000 -0.0065  0.6510  0.0228  0.0000
                                           -0.0000  0.0224 -0.4210  0.0052 -0.5722
                                           -0.0000 -0.0000 -0.0913 -0.1790 -0.1735
    40. (0.00017) RY*( 4) C   6           s( 40.02%)p 1.16( 46.23%)d 0.34( 13.75%)
                                            0.0000  0.0090  0.6143  0.1510 -0.0000
                                            0.0000 -0.0117  0.5157 -0.0162  0.4427
                                            0.0000  0.0000  0.1372 -0.3174 -0.1338
    41. (0.00000) RY*( 5) C   6           s( 99.07%)p 0.01(  0.91%)d 0.00(  0.02%)
    42. (0.00000) RY*( 6) C   6           s(  0.00%)p 1.00(  5.12%)d18.53( 94.88%)
    43. (0.00000) RY*( 7) C   6           s(  0.00%)p 1.00( 11.42%)d 7.75( 88.58%)
    44. (0.00000) RY*( 8) C   6           s(  0.37%)p13.13(  4.85%)d99.99( 94.79%)
    45. (0.00001) RY*( 9) C   6           s( 13.46%)p 0.70(  9.38%)d 5.73( 77.17%)
    46. (0.00000) RY*(10) C   6           s(  0.00%)p 1.00(  0.75%)d99.99( 99.24%)
    47. (0.00142) RY*( 1) H   7           s(100.00%)
                                           -0.0020  1.0000
    48. (0.00142) RY*( 1) H   8           s(100.00%)
                                           -0.0020  1.0000
    49. (0.00096) RY*( 1) H   9           s(100.00%)
                                           -0.0009  1.0000
    50. (0.00096) RY*( 1) H  10           s(100.00%)
                                           -0.0009  1.0000
    51. (0.00068) RY*( 1) H  11           s(100.00%)
                                           -0.0002  1.0000
    52. (0.00414) BD*( 1) C   1 - H   2  
                ( 39.22%)   0.6263* C   1 s( 24.09%)p 3.15( 75.78%)d 0.01(  0.13%)
                                           -0.0000 -0.4908 -0.0015  0.0005 -0.0000
                                            0.0000 -0.7078 -0.0024 -0.5067  0.0144
                                           -0.0000  0.0000 -0.0292  0.0200 -0.0002
                ( 60.78%)  -0.7796* H   2 s(100.00%)
                                           -1.0000 -0.0002
    53. (0.00654) BD*( 1) C   1 - H   3  
                ( 39.43%)   0.6280* C   1 s( 23.78%)p 3.20( 76.10%)d 0.01(  0.13%)
                                            0.0000 -0.4876 -0.0038  0.0005 -0.7065
                                            0.0057 -0.0279 -0.0149  0.5107  0.0026
                                           -0.0014  0.0291  0.0008 -0.0202 -0.0006
                ( 60.57%)  -0.7782* H   3 s(100.00%)
                                           -1.0000 -0.0009
    54. (0.00654) BD*( 1) C   1 - H   4  
                ( 39.43%)   0.6280* C   1 s( 23.78%)p 3.20( 76.10%)d 0.01(  0.13%)
                                           -0.0000  0.4876  0.0038 -0.0005 -0.7065
                                            0.0057  0.0279  0.0149 -0.5107 -0.0026
                                           -0.0014  0.0291 -0.0008  0.0202  0.0006
                ( 60.57%)  -0.7782* H   4 s(100.00%)
                                            1.0000  0.0009
    55. (0.00718) BD*( 1) C   1 - C   5  
                ( 50.04%)   0.7074* C   1 s( 28.35%)p 2.52( 71.55%)d 0.00(  0.10%)
                                            0.0002  0.5323 -0.0108  0.0017  0.0000
                                           -0.0000 -0.7039 -0.0030  0.4688  0.0138
                                            0.0000 -0.0000 -0.0254 -0.0192 -0.0017
                ( 49.96%)  -0.7068* C   5 s( 26.93%)p 2.71( 72.96%)d 0.00(  0.11%)
                                            0.0001  0.5189 -0.0112  0.0007 -0.0000
                                            0.0000  0.7064  0.0155 -0.4799  0.0053
                                            0.0000 -0.0000 -0.0268 -0.0190 -0.0004
    56. (0.00718) BD*( 1) C   5 - C   6  
                ( 49.96%)   0.7068* C   5 s( 26.93%)p 2.71( 72.96%)d 0.00(  0.11%)
                                           -0.0001 -0.5189  0.0112 -0.0007  0.0000
                                           -0.0000  0.7064  0.0155  0.4799 -0.0053
                                           -0.0000  0.0000 -0.0268  0.0190  0.0004
                ( 50.04%)  -0.7074* C   6 s( 28.35%)p 2.52( 71.55%)d 0.00(  0.10%)
                                           -0.0002 -0.5323  0.0108 -0.0017  0.0000
                                           -0.0000 -0.7039 -0.0030 -0.4688 -0.0138
                                           -0.0000 -0.0000 -0.0254  0.0192  0.0017
    57. (0.01147) BD*( 1) C   5 - H   7  
                ( 39.28%)   0.6267* C   5 s( 23.08%)p 3.33( 76.78%)d 0.01(  0.13%)
                                            0.0001 -0.4803 -0.0099  0.0006 -0.7063
                                            0.0167 -0.0000 -0.0000 -0.5184 -0.0045
                                           -0.0000 -0.0300  0.0000 -0.0209 -0.0006
                ( 60.72%)  -0.7792* H   7 s(100.00%)
                                           -1.0000 -0.0020
    58. (0.01147) BD*( 1) C   5 - H   8  
                ( 39.28%)   0.6267* C   5 s( 23.08%)p 3.33( 76.78%)d 0.01(  0.13%)
                                           -0.0001  0.4803  0.0099 -0.0006 -0.7063
                                            0.0167  0.0000  0.0000  0.5184  0.0045
                                           -0.0000 -0.0300 -0.0000  0.0209  0.0006
                ( 60.72%)  -0.7792* H   8 s(100.00%)
                                            1.0000  0.0020
    59. (0.00654) BD*( 1) C   6 - H   9  
                ( 39.43%)   0.6280* C   6 s( 23.78%)p 3.20( 76.10%)d 0.01(  0.13%)
                                            0.0000 -0.4876 -0.0038  0.0005 -0.7065
                                            0.0057  0.0279  0.0149  0.5107  0.0026
                                            0.0014  0.0291 -0.0008 -0.0202 -0.0006
                ( 60.57%)  -0.7782* H   9 s(100.00%)
                                           -1.0000 -0.0009
    60. (0.00654) BD*( 1) C   6 - H  10  
                ( 39.43%)   0.6280* C   6 s( 23.78%)p 3.20( 76.10%)d 0.01(  0.13%)
                                           -0.0000  0.4876  0.0038 -0.0005 -0.7065
                                            0.0057 -0.0279 -0.0149 -0.5107 -0.0026
                                            0.0014  0.0291  0.0008  0.0202  0.0006
                ( 60.57%)  -0.7782* H  10 s(100.00%)
                                            1.0000  0.0009
    61. (0.00414) BD*( 1) C   6 - H  11  
                ( 39.22%)   0.6263* C   6 s( 24.09%)p 3.15( 75.78%)d 0.01(  0.13%)
                                           -0.0000 -0.4908 -0.0015  0.0005  0.0000
                                           -0.0000  0.7078  0.0024 -0.5067  0.0144
                                           -0.0000 -0.0000  0.0292  0.0200 -0.0002
                ( 60.78%)  -0.7796* H  11 s(100.00%)
                                           -1.0000 -0.0002


 NHO Directionality and "Bond Bending" (deviations from line of nuclear centers)

         [Thresholds for printing:  angular deviation  >  1.0 degree]
                                    hybrid p-character > 25.0%
                                    orbital occupancy  >  0.10e

                                Line of Centers        Hybrid 1              Hybrid 2
                                ---------------  -------------------   ------------------
                NBO               Theta   Phi    Theta   Phi    Dev    Theta   Phi    Dev
 ========================================================================================
    None exceeding thresholds


 Second Order Perturbation Theory Analysis of Fock Matrix in NBO Basis

     Threshold for printing:   0.50 kcal/mol
                                                                              E(2)  E(j)-E(i) F(i,j)
         Donor NBO (i)                     Acceptor NBO (j)                 kcal/mol   a.u.    a.u. 
 ===================================================================================================

 within unit  1
   1. BD (   1) C   1 - H   2        / 28. RY*(   2) C   5                    0.69    1.98    0.033
   1. BD (   1) C   1 - H   2        / 56. BD*(   1) C   5 - C   6            4.01    1.33    0.065
   2. BD (   1) C   1 - H   3        / 27. RY*(   1) C   5                    0.81    1.89    0.035
   2. BD (   1) C   1 - H   3        / 58. BD*(   1) C   5 - H   8            3.47    1.41    0.062
   3. BD (   1) C   1 - H   4        / 27. RY*(   1) C   5                    0.81    1.89    0.035
   3. BD (   1) C   1 - H   4        / 57. BD*(   1) C   5 - H   7            3.47    1.41    0.062
   4. BD (   1) C   1 - C   5        / 37. RY*(   1) C   6                    1.64    1.88    0.049
   4. BD (   1) C   1 - C   5        / 52. BD*(   1) C   1 - H   2            0.60    1.52    0.027
   4. BD (   1) C   1 - C   5        / 53. BD*(   1) C   1 - H   3            0.53    1.51    0.025
   4. BD (   1) C   1 - C   5        / 54. BD*(   1) C   1 - H   4            0.53    1.51    0.025
   4. BD (   1) C   1 - C   5        / 56. BD*(   1) C   5 - C   6            0.66    1.44    0.028
   4. BD (   1) C   1 - C   5        / 57. BD*(   1) C   5 - H   7            0.56    1.52    0.026
   4. BD (   1) C   1 - C   5        / 58. BD*(   1) C   5 - H   8            0.56    1.52    0.026
   4. BD (   1) C   1 - C   5        / 61. BD*(   1) C   6 - H  11            2.15    1.52    0.051
   5. BD (   1) C   5 - C   6        / 14. RY*(   1) C   1                    1.64    1.88    0.049
   5. BD (   1) C   5 - C   6        / 52. BD*(   1) C   1 - H   2            2.15    1.52    0.051
   5. BD (   1) C   5 - C   6        / 55. BD*(   1) C   1 - C   5            0.66    1.44    0.028
   5. BD (   1) C   5 - C   6        / 57. BD*(   1) C   5 - H   7            0.56    1.52    0.026
   5. BD (   1) C   5 - C   6        / 58. BD*(   1) C   5 - H   8            0.56    1.52    0.026
   5. BD (   1) C   5 - C   6        / 59. BD*(   1) C   6 - H   9            0.53    1.51    0.025
   5. BD (   1) C   5 - C   6        / 60. BD*(   1) C   6 - H  10            0.53    1.51    0.025
   5. BD (   1) C   5 - C   6        / 61. BD*(   1) C   6 - H  11            0.60    1.52    0.027
   6. BD (   1) C   5 - H   7        / 15. RY*(   2) C   1                    0.84    1.81    0.035
   6. BD (   1) C   5 - H   7        / 38. RY*(   2) C   6                    0.84    1.81    0.035
   6. BD (   1) C   5 - H   7        / 54. BD*(   1) C   1 - H   4            3.78    1.39    0.065
   6. BD (   1) C   5 - H   7        / 60. BD*(   1) C   6 - H  10            3.78    1.39    0.065
   7. BD (   1) C   5 - H   8        / 15. RY*(   2) C   1                    0.84    1.81    0.035
   7. BD (   1) C   5 - H   8        / 38. RY*(   2) C   6                    0.84    1.81    0.035
   7. BD (   1) C   5 - H   8        / 53. BD*(   1) C   1 - H   3            3.78    1.39    0.065
   7. BD (   1) C   5 - H   8        / 59. BD*(   1) C   6 - H   9            3.78    1.39    0.065
   8. BD (   1) C   6 - H   9        / 27. RY*(   1) C   5                    0.81    1.89    0.035
   8. BD (   1) C   6 - H   9        / 58. BD*(   1) C   5 - H   8            3.47    1.41    0.062
   9. BD (   1) C   6 - H  10        / 27. RY*(   1) C   5                    0.81    1.89    0.035
   9. BD (   1) C   6 - H  10        / 57. BD*(   1) C   5 - H   7            3.47    1.41    0.062
  10. BD (   1) C   6 - H  11        / 28. RY*(   2) C   5                    0.69    1.98    0.033
  10. BD (   1) C   6 - H  11        / 55. BD*(   1) C   1 - C   5            4.01    1.33    0.065
  11. CR (   1) C   1                / 29. RY*(   3) C   5                    0.98   11.94    0.097
  12. CR (   1) C   5                / 16. RY*(   3) C   1                    0.99   12.26    0.098
  12. CR (   1) C   5                / 39. RY*(   3) C   6                    0.99   12.26    0.098
  13. CR (   1) C   6                / 29. RY*(   3) C   5                    0.98   11.94    0.097


 Natural Bond Orbitals (Summary):

                                                            Principal Delocalizations
           NBO                        Occupancy    Energy   (geminal,vicinal,remote)
 ====================================================================================
 Molecular unit  1  (C3H8)
     1. BD (   1) C   1 - H   2          1.99177    -0.66547  56(v),28(v)
     2. BD (   1) C   1 - H   3          1.99230    -0.66497  58(v),27(v)
     3. BD (   1) C   1 - H   4          1.99230    -0.66497  57(v),27(v)
     4. BD (   1) C   1 - C   5          1.99252    -0.77784  61(v),37(v),56(g),52(g)
                                                    57(g),58(g),53(g),54(g)
     5. BD (   1) C   5 - C   6          1.99252    -0.77784  52(v),14(v),55(g),61(g)
                                                    57(g),58(g),59(g),60(g)
     6. BD (   1) C   5 - H   7          1.98429    -0.65666  54(v),60(v),15(v),38(v)
     7. BD (   1) C   5 - H   8          1.98429    -0.65666  53(v),59(v),15(v),38(v)
     8. BD (   1) C   6 - H   9          1.99230    -0.66497  58(v),27(v)
     9. BD (   1) C   6 - H  10          1.99230    -0.66497  57(v),27(v)
    10. BD (   1) C   6 - H  11          1.99177    -0.66547  55(v),28(v)
    11. CR (   1) C   1                  1.99949   -11.06700  29(v)
    12. CR (   1) C   5                  1.99939   -11.07175  16(v),39(v)
    13. CR (   1) C   6                  1.99949   -11.06700  29(v)
    14. RY*(   1) C   1                  0.00267     1.09733   
    15. RY*(   2) C   1                  0.00161     1.14920   
    16. RY*(   3) C   1                  0.00030     1.18724   
    17. RY*(   4) C   1                  0.00017     1.38534   
    18. RY*(   5) C   1                  0.00000     4.52160   
    19. RY*(   6) C   1                  0.00000     2.07066   
    20. RY*(   7) C   1                  0.00000     2.27859   
    21. RY*(   8) C   1                  0.00000     2.46069   
    22. RY*(   9) C   1                  0.00001     2.16305   
    23. RY*(  10) C   1                  0.00000     2.20317   
    24. RY*(   1) H   2                  0.00068     0.82057   
    25. RY*(   1) H   3                  0.00096     0.83189   
    26. RY*(   1) H   4                  0.00096     0.83189   
    27. RY*(   1) C   5                  0.00309     1.22929   
    28. RY*(   2) C   5                  0.00120     1.31140   
    29. RY*(   3) C   5                  0.00110     0.87568   
    30. RY*(   4) C   5                  0.00019     1.60319   
    31. RY*(   5) C   5                  0.00017     2.15116   
    32. RY*(   6) C   5                  0.00013     2.54167   
    33. RY*(   7) C   5                  0.00010     2.24530   
    34. RY*(   8) C   5                  0.00000     4.48372   
    35. RY*(   9) C   5                  0.00000     2.30066   
    36. RY*(  10) C   5                  0.00000     2.20649   
    37. RY*(   1) C   6                  0.00267     1.09733   
    38. RY*(   2) C   6                  0.00161     1.14920   
    39. RY*(   3) C   6                  0.00030     1.18724   
    40. RY*(   4) C   6                  0.00017     1.38534   
    41. RY*(   5) C   6                  0.00000     4.52160   
    42. RY*(   6) C   6                  0.00000     2.07066   
    43. RY*(   7) C   6                  0.00000     2.27859   
    44. RY*(   8) C   6                  0.00000     2.46069   
    45. RY*(   9) C   6                  0.00001     2.16305   
    46. RY*(  10) C   6                  0.00000     2.20317   
    47. RY*(   1) H   7                  0.00142     0.82585   
    48. RY*(   1) H   8                  0.00142     0.82585   
    49. RY*(   1) H   9                  0.00096     0.83189   
    50. RY*(   1) H  10                  0.00096     0.83189   
    51. RY*(   1) H  11                  0.00068     0.82057   
    52. BD*(   1) C   1 - H   2          0.00414     0.74145   
    53. BD*(   1) C   1 - H   3          0.00654     0.73270   
    54. BD*(   1) C   1 - H   4          0.00654     0.73270   
    55. BD*(   1) C   1 - C   5          0.00718     0.66011   
    56. BD*(   1) C   5 - C   6          0.00718     0.66011   
    57. BD*(   1) C   5 - H   7          0.01147     0.74267   
    58. BD*(   1) C   5 - H   8          0.01147     0.74267   
    59. BD*(   1) C   6 - H   9          0.00654     0.73270   
    60. BD*(   1) C   6 - H  10          0.00654     0.73270   
    61. BD*(   1) C   6 - H  11          0.00414     0.74145   
       -------------------------------
              Total Lewis   25.90473  ( 99.6336%)
        Valence non-Lewis    0.07173  (  0.2759%)
        Rydberg non-Lewis    0.02354  (  0.0905%)
       -------------------------------
            Total unit  1   26.00000  (100.0000%)
           Charge unit  1    0.00000
 Unable to Open any file for archive entry.
 1\1\GINC-LOCALHOST\FOpt\RHF\6-31G(d)\C3H8\USER\21-Mar-2026\0\\# opt fr
 eq hf/6-31g(d) pop=nbo geom=connectivity\\Propane-HF-6-31G(D)\\0,1\C,-
 0.8659298007,-0.0418886653,-0.7189844751\H,-0.99087762,0.182271382,0.3
 360111867\H,-0.1192820286,0.6401069076,-1.116350893\H,-1.8070149676,0.
 1740503653,-1.2172113018\C,-0.4512842329,-1.4969358042,-0.9339027431\C
 ,-0.2660903226,-1.84822779,-2.4095653541\H,0.4742768676,-1.6914137525,
 -0.397707625\H,-1.1998822094,-2.1537219605,-0.4977568478\H,0.501339614
 9,-1.2288150243,-2.8655039947\H,-1.1863933241,-1.6948715666,-2.9663644
 035\H,0.0279529714,-2.8858053717,-2.5354495621\\Version=ES64L-G16RevC.
 02\State=1-A1\HF=-118.2636511\RMSD=7.374e-09\RMSF=4.461e-05\Dipole=0.0
 035127,-0.0168977,0.0193011\Quadrupole=0.2564231,-0.1267372,-0.1296859
 ,0.123806,0.0602803,-0.1265562\PG=C02V [C2(C1),SGV(C2H2),SGV'(H2),X(H4
 )]\\@
 The archive entry for this job was punched.


 THE UNDERLYING PHYSICAL LAWS NECESSARY FOR THE 
 MATHEMATICAL THEORY OF A LARGE PART OF PHYSICS AND THE
 WHOLE OF CHEMISTRY ARE THUS COMPLETELY KNOWN, AND THE
 DIFFICULTY IS ONLY THAT THE EXACT APPLICATION OF THESE
 LAWS LEADS TO EQUATIONS MUCH TOO COMPLICATED 
 TO BE SOLUBLE.

                                        -- P. A. M. DIRAC, 1929
 Job cpu time:       0 days  0 hours  1 minutes  1.5 seconds.
 Elapsed time:       0 days  0 hours  0 minutes  4.2 seconds.
 File lengths (MBytes):  RWF=      6 Int=      0 D2E=      0 Chk=      2 Scr=      1
 Normal termination of Gaussian 16 at Sat Mar 21 10:17:30 2026.
 Link1:  Proceeding to internal job step number  2.
 -----------------------------------------------------------------
 #N Geom=AllCheck Guess=TCheck SCRF=Check GenChk RHF/6-31G(d) Freq
 -----------------------------------------------------------------
 1/10=4,29=7,30=1,38=1,40=1/1,3;
 2/12=2,40=1/2;
 3/5=1,6=6,7=1,11=1,14=-4,25=1,30=1,70=2,71=2,116=1,140=1/1,2,3;
 4/5=101/1;
 5/5=2,38=6,98=1/2;
 8/6=4,10=90,11=11/1;
 10/13=10,15=4/2;
 11/6=3,8=1,9=11,15=111,16=1/1,2,10;
 10/6=1/2;
 6/7=2,8=2,9=2,10=2,28=1,40=1/1,7;
 7/8=1,10=1,25=1/1,2,3,16;
 1/10=4,30=1/3;
 99//99;
 Structure from the checkpoint file:  "Propane-HF-6-31G(d).chk"
 -------------------
 Propane-HF-6-31G(D)
 -------------------
 Charge =  0 Multiplicity = 1
 Redundant internal coordinates found in file.  (old form).
 C,0,-0.8659298007,-0.0418886653,-0.7189844751
 H,0,-0.99087762,0.182271382,0.3360111867
 H,0,-0.1192820286,0.6401069076,-1.116350893
 H,0,-1.8070149676,0.1740503653,-1.2172113018
 C,0,-0.4512842329,-1.4969358042,-0.9339027431
 C,0,-0.2660903226,-1.84822779,-2.4095653541
 H,0,0.4742768676,-1.6914137525,-0.397707625
 H,0,-1.1998822094,-2.1537219605,-0.4977568478
 H,0,0.5013396149,-1.2288150243,-2.8655039947
 H,0,-1.1863933241,-1.6948715666,-2.9663644035
 H,0,0.0279529714,-2.8858053717,-2.5354495621
 Recover connectivity data from disk.

 GradGradGradGradGradGradGradGradGradGradGradGradGradGradGradGradGradGrad
 Berny optimization.
 Initialization pass.
                           ----------------------------
                           !    Initial Parameters    !
                           ! (Angstroms and Degrees)  !
 --------------------------                            --------------------------
 ! Name  Definition              Value          Derivative Info.                !
 --------------------------------------------------------------------------------
 ! R1    R(1,2)                  1.0858         calculate D2E/DX2 analytically  !
 ! R2    R(1,3)                  1.0865         calculate D2E/DX2 analytically  !
 ! R3    R(1,4)                  1.0865         calculate D2E/DX2 analytically  !
 ! R4    R(1,5)                  1.5282         calculate D2E/DX2 analytically  !
 ! R5    R(5,6)                  1.5282         calculate D2E/DX2 analytically  !
 ! R6    R(5,7)                  1.0872         calculate D2E/DX2 analytically  !
 ! R7    R(5,8)                  1.0872         calculate D2E/DX2 analytically  !
 ! R8    R(6,9)                  1.0865         calculate D2E/DX2 analytically  !
 ! R9    R(6,10)                 1.0865         calculate D2E/DX2 analytically  !
 ! R10   R(6,11)                 1.0858         calculate D2E/DX2 analytically  !
 ! A1    A(2,1,3)              107.7495         calculate D2E/DX2 analytically  !
 ! A2    A(2,1,4)              107.7495         calculate D2E/DX2 analytically  !
 ! A3    A(2,1,5)              111.374          calculate D2E/DX2 analytically  !
 ! A4    A(3,1,4)              107.6236         calculate D2E/DX2 analytically  !
 ! A5    A(3,1,5)              111.0858         calculate D2E/DX2 analytically  !
 ! A6    A(4,1,5)              111.0858         calculate D2E/DX2 analytically  !
 ! A7    A(1,5,6)              112.8033         calculate D2E/DX2 analytically  !
 ! A8    A(1,5,7)              109.3876         calculate D2E/DX2 analytically  !
 ! A9    A(1,5,8)              109.3876         calculate D2E/DX2 analytically  !
 ! A10   A(6,5,7)              109.3876         calculate D2E/DX2 analytically  !
 ! A11   A(6,5,8)              109.3876         calculate D2E/DX2 analytically  !
 ! A12   A(7,5,8)              106.2767         calculate D2E/DX2 analytically  !
 ! A13   A(5,6,9)              111.0858         calculate D2E/DX2 analytically  !
 ! A14   A(5,6,10)             111.0858         calculate D2E/DX2 analytically  !
 ! A15   A(5,6,11)             111.374          calculate D2E/DX2 analytically  !
 ! A16   A(9,6,10)             107.6236         calculate D2E/DX2 analytically  !
 ! A17   A(9,6,11)             107.7495         calculate D2E/DX2 analytically  !
 ! A18   A(10,6,11)            107.7495         calculate D2E/DX2 analytically  !
 ! D1    D(2,1,5,6)            180.0            calculate D2E/DX2 analytically  !
 ! D2    D(2,1,5,7)            -58.0146         calculate D2E/DX2 analytically  !
 ! D3    D(2,1,5,8)             58.0146         calculate D2E/DX2 analytically  !
 ! D4    D(3,1,5,6)            -59.8827         calculate D2E/DX2 analytically  !
 ! D5    D(3,1,5,7)             62.1028         calculate D2E/DX2 analytically  !
 ! D6    D(3,1,5,8)            178.1319         calculate D2E/DX2 analytically  !
 ! D7    D(4,1,5,6)             59.8827         calculate D2E/DX2 analytically  !
 ! D8    D(4,1,5,7)           -178.1319         calculate D2E/DX2 analytically  !
 ! D9    D(4,1,5,8)            -62.1028         calculate D2E/DX2 analytically  !
 ! D10   D(1,5,6,9)             59.8827         calculate D2E/DX2 analytically  !
 ! D11   D(1,5,6,10)           -59.8827         calculate D2E/DX2 analytically  !
 ! D12   D(1,5,6,11)           180.0            calculate D2E/DX2 analytically  !
 ! D13   D(7,5,6,9)            -62.1028         calculate D2E/DX2 analytically  !
 ! D14   D(7,5,6,10)           178.1319         calculate D2E/DX2 analytically  !
 ! D15   D(7,5,6,11)            58.0146         calculate D2E/DX2 analytically  !
 ! D16   D(8,5,6,9)           -178.1319         calculate D2E/DX2 analytically  !
 ! D17   D(8,5,6,10)            62.1028         calculate D2E/DX2 analytically  !
 ! D18   D(8,5,6,11)           -58.0146         calculate D2E/DX2 analytically  !
 --------------------------------------------------------------------------------
 Trust Radius=3.00D-01 FncErr=1.00D-07 GrdErr=1.00D-07 EigMax=2.50D+02 EigMin=1.00D-04
 Number of steps in this run=      2 maximum allowed number of steps=      2.
 GradGradGradGradGradGradGradGradGradGradGradGradGradGradGradGradGradGrad

                          Input orientation:                          
 ---------------------------------------------------------------------
 Center     Atomic      Atomic             Coordinates (Angstroms)
 Number     Number       Type             X           Y           Z
 ---------------------------------------------------------------------
      1          6           0       -0.865930   -0.041889   -0.718984
      2          1           0       -0.990878    0.182271    0.336011
      3          1           0       -0.119282    0.640107   -1.116351
      4          1           0       -1.807015    0.174050   -1.217211
      5          6           0       -0.451284   -1.496936   -0.933903
      6          6           0       -0.266090   -1.848228   -2.409565
      7          1           0        0.474277   -1.691414   -0.397708
      8          1           0       -1.199882   -2.153722   -0.497757
      9          1           0        0.501340   -1.228815   -2.865504
     10          1           0       -1.186393   -1.694872   -2.966364
     11          1           0        0.027953   -2.885805   -2.535450
 ---------------------------------------------------------------------
                    Distance matrix (angstroms):
                    1          2          3          4          5
     1  C    0.000000
     2  H    1.085760   0.000000
     3  H    1.086509   1.754608   0.000000
     4  H    1.086509   1.754608   1.753803   0.000000
     5  C    1.528163   2.173380   2.170360   2.170360   0.000000
     6  C    2.545728   3.490907   2.808161   2.808161   1.528163
     7  H    2.149490   2.489120   2.510926   3.058731   1.087194
     8  H    2.149490   2.489120   3.058731   2.510926   1.087194
     9  H    2.808161   3.803627   2.633928   3.164396   2.170360
    10  H    2.808161   3.803627   3.164396   2.633928   2.170360
    11  H    3.490907   4.323933   3.803627   3.803627   2.173380
                    6          7          8          9         10
     6  C    0.000000
     7  H    2.149490   0.000000
     8  H    2.149490   1.739697   0.000000
     9  H    1.086509   2.510926   3.058731   0.000000
    10  H    1.086509   3.058731   2.510926   1.753803   0.000000
    11  H    1.085760   2.489120   2.489120   1.754608   1.754608
                   11
    11  H    0.000000
 Stoichiometry    C3H8
 Framework group  C2V[C2(C),SGV(C2H2),SGV'(H2),X(H4)]
 Deg. of freedom     9
 Full point group                 C2V     NOp   4
 Largest Abelian subgroup         C2V     NOp   4
 Largest concise Abelian subgroup C2V     NOp   4
                         Standard orientation:                         
 ---------------------------------------------------------------------
 Center     Atomic      Atomic             Coordinates (Angstroms)
 Number     Number       Type             X           Y           Z
 ---------------------------------------------------------------------
      1          6           0       -0.000000    1.272864   -0.259841
      2          1           0       -0.000000    2.161967    0.363355
      3          1           0        0.876901    1.316964   -0.899841
      4          1           0       -0.876901    1.316964   -0.899841
      5          6           0       -0.000000    0.000000    0.585795
      6          6           0        0.000000   -1.272864   -0.259841
      7          1           0        0.869849    0.000000    1.237986
      8          1           0       -0.869849    0.000000    1.237986
      9          1           0        0.876901   -1.316964   -0.899841
     10          1           0       -0.876901   -1.316964   -0.899841
     11          1           0        0.000000   -2.161967    0.363355
 ---------------------------------------------------------------------
 Rotational constants (GHZ):          29.7644216           8.4338613           7.4702859
 Standard basis: 6-31G(d) (6D, 7F)
 There are    25 symmetry adapted cartesian basis functions of A1  symmetry.
 There are     7 symmetry adapted cartesian basis functions of A2  symmetry.
 There are    11 symmetry adapted cartesian basis functions of B1  symmetry.
 There are    18 symmetry adapted cartesian basis functions of B2  symmetry.
 There are    25 symmetry adapted basis functions of A1  symmetry.
 There are     7 symmetry adapted basis functions of A2  symmetry.
 There are    11 symmetry adapted basis functions of B1  symmetry.
 There are    18 symmetry adapted basis functions of B2  symmetry.
    61 basis functions,   116 primitive gaussians,    61 cartesian basis functions
    13 alpha electrons       13 beta electrons
       nuclear repulsion energy        82.7322989368 Hartrees.
 NAtoms=   11 NActive=   11 NUniq=    5 SFac= 4.00D+00 NAtFMM=   60 NAOKFM=F Big=F
 Integral buffers will be    131072 words long.
 Raffenetti 1 integral format.
 Two-electron integral symmetry is turned on.
 One-electron integrals computed using PRISM.
 NBasis=    61 RedAO= T EigKep=  6.12D-03  NBF=    25     7    11    18
 NBsUse=    61 1.00D-06 EigRej= -1.00D+00 NBFU=    25     7    11    18
 Initial guess from the checkpoint file:  "Propane-HF-6-31G(d).chk"
 B after Tr=    -0.000000    0.000000    0.000000
         Rot=    1.000000   -0.000000   -0.000000   -0.000000 Ang=   0.00 deg.
 Initial guess orbital symmetries:
       Occupied  (A1) (B2) (A1) (A1) (B2) (A1) (B1) (A1) (B2) (A2)
                 (A1) (B2) (B1)
       Virtual   (A1) (B2) (A1) (B1) (A1) (B1) (A2) (B2) (A1) (B2)
                 (A1) (B2) (B1) (A1) (A2) (A1) (B1) (B2) (B2) (B1)
                 (B2) (A1) (A2) (A1) (B1) (A1) (A1) (B2) (B2) (A2)
                 (A1) (A1) (B2) (B1) (B2) (A1) (A2) (A1) (B1) (B2)
                 (B1) (A2) (A1) (A1) (B2) (A1) (B2) (A1)
 Keep R1 ints in memory in symmetry-blocked form, NReq=6798889.
 Requested convergence on RMS density matrix=1.00D-08 within 128 cycles.
 Requested convergence on MAX density matrix=1.00D-06.
 Requested convergence on             energy=1.00D-06.
 No special actions if energy rises.
 SCF Done:  E(RHF) =  -118.263651108     A.U. after    1 cycles
            NFock=  1  Conv=0.12D-08     -V/T= 2.0003
 Range of M.O.s used for correlation:     1    61
 NBasis=    61 NAE=    13 NBE=    13 NFC=     0 NFV=     0
 NROrb=     61 NOA=    13 NOB=    13 NVA=    48 NVB=    48
          Differentiating once with respect to electric field.
                with respect to dipole field.
          Electric field/nuclear overlap derivatives assumed to be zero.
 Keep R1 ints in memory in symmetry-blocked form, NReq=6797768.
          There are     3 degrees of freedom in the 1st order CPHF.  IDoFFX=0 NUNeed=     3.
      3 vectors produced by pass  0 Test12= 2.08D-14 3.33D-08 XBig12= 7.50D+00 1.29D+00.
 AX will form     3 AO Fock derivatives at one time.
      3 vectors produced by pass  1 Test12= 2.08D-14 3.33D-08 XBig12= 2.67D-01 1.55D-01.
      3 vectors produced by pass  2 Test12= 2.08D-14 3.33D-08 XBig12= 1.37D-02 4.62D-02.
      3 vectors produced by pass  3 Test12= 2.08D-14 3.33D-08 XBig12= 6.49D-04 7.94D-03.
      3 vectors produced by pass  4 Test12= 2.08D-14 3.33D-08 XBig12= 1.96D-05 1.64D-03.
      3 vectors produced by pass  5 Test12= 2.08D-14 3.33D-08 XBig12= 6.29D-07 2.26D-04.
      3 vectors produced by pass  6 Test12= 2.08D-14 3.33D-08 XBig12= 6.26D-08 6.74D-05.
      3 vectors produced by pass  7 Test12= 2.08D-14 3.33D-08 XBig12= 2.05D-09 1.28D-05.
      2 vectors produced by pass  8 Test12= 2.08D-14 3.33D-08 XBig12= 3.62D-11 2.15D-06.
      1 vectors produced by pass  9 Test12= 2.08D-14 3.33D-08 XBig12= 2.81D-13 1.71D-07.
 InvSVY:  IOpt=1 It=  1 EMax= 3.55D-16
 Solved reduced A of dimension    27 with     3 vectors.
 End of Minotr F.D. properties file   721 does not exist.
 End of Minotr F.D. properties file   722 does not exist.
 End of Minotr F.D. properties file   788 does not exist.
 Symmetrizing basis deriv contribution to polar:
 IMax=3 JMax=2 DiffMx= 0.00D+00
 G2DrvN: will do    12 centers at a time, making    1 passes.
 PxScal for G2LodP:  IOpCl= 0 ISclPx=1 IMOff=     1 NMtTot=     4 NTT=    1891 ScalPx= 1.94D+00
 Calling FoFCou, ICntrl=  3107 FMM=F I1Cent=   0 AccDes= 0.00D+00.
 End of G2Drv F.D. properties file   721 does not exist.
 End of G2Drv F.D. properties file   722 does not exist.
 End of G2Drv F.D. properties file   788 does not exist.
          IDoAtm=11111111111
          Differentiating once with respect to electric field.
                with respect to dipole field.
          Differentiating once with respect to nuclear coordinates.
 Keep R1 ints in memory in symmetry-blocked form, NReq=6798021.
          There are    18 degrees of freedom in the 1st order CPHF.  IDoFFX=4 NUNeed=    18.
 Will reuse    3 saved solutions.
     15 vectors produced by pass  0 Test12= 3.47D-15 5.56D-09 XBig12= 3.43D-02 6.27D-02.
 AX will form    15 AO Fock derivatives at one time.
     15 vectors produced by pass  1 Test12= 3.47D-15 5.56D-09 XBig12= 6.46D-04 6.71D-03.
     15 vectors produced by pass  2 Test12= 3.47D-15 5.56D-09 XBig12= 1.61D-05 8.95D-04.
     15 vectors produced by pass  3 Test12= 3.47D-15 5.56D-09 XBig12= 1.76D-07 9.69D-05.
     15 vectors produced by pass  4 Test12= 3.47D-15 5.56D-09 XBig12= 1.74D-09 8.15D-06.
     15 vectors produced by pass  5 Test12= 3.47D-15 5.56D-09 XBig12= 9.20D-12 7.13D-07.
     13 vectors produced by pass  6 Test12= 3.47D-15 5.56D-09 XBig12= 4.41D-14 4.04D-08.
 InvSVY:  IOpt=1 It=  1 EMax= 1.78D-15
 Solved reduced A of dimension   103 with    15 vectors.
 Isotropic polarizability for W=    0.000000       32.29 Bohr**3.
 End of Minotr F.D. properties file   721 does not exist.
 End of Minotr F.D. properties file   722 does not exist.
 End of Minotr F.D. properties file   788 does not exist.

 **********************************************************************

            Population analysis using the SCF Density.

 **********************************************************************

 Orbital symmetries:
       Occupied  (A1) (B2) (A1) (A1) (B2) (A1) (B1) (A1) (B2) (A2)
                 (A1) (B2) (B1)
       Virtual   (A1) (B2) (A1) (B1) (A1) (B1) (A2) (B2) (A1) (B2)
                 (A1) (B2) (B1) (A1) (A2) (A1) (B1) (B2) (B2) (B1)
                 (B2) (A1) (A2) (A1) (B1) (A1) (A1) (B2) (B2) (A2)
                 (A1) (A1) (B2) (B1) (B2) (A1) (A2) (A1) (B1) (B2)
                 (B1) (A2) (A1) (A1) (B2) (A1) (B2) (A1)
 The electronic state is 1-A1.
 Alpha  occ. eigenvalues --  -11.21576 -11.20759 -11.20756  -1.05293  -0.92667
 Alpha  occ. eigenvalues --   -0.80189  -0.62468  -0.59751  -0.55087  -0.53242
 Alpha  occ. eigenvalues --   -0.47550  -0.47478  -0.46885
 Alpha virt. eigenvalues --    0.23401   0.29591   0.29903   0.29968   0.31866
 Alpha virt. eigenvalues --    0.34267   0.35124   0.35499   0.39344   0.44283
 Alpha virt. eigenvalues --    0.71169   0.71435   0.74537   0.76169   0.78445
 Alpha virt. eigenvalues --    0.93873   0.97706   0.97874   1.01324   1.14983
 Alpha virt. eigenvalues --    1.16827   1.18019   1.19289   1.21255   1.23389
 Alpha virt. eigenvalues --    1.24453   1.25937   1.26471   1.63812   1.73833
 Alpha virt. eigenvalues --    1.75439   1.81853   2.03760   2.20812   2.24533
 Alpha virt. eigenvalues --    2.29481   2.35528   2.42301   2.58426   2.60934
 Alpha virt. eigenvalues --    2.68200   2.73917   2.76673   2.92503   3.02919
 Alpha virt. eigenvalues --    4.57515   4.71249   4.89256
          Condensed to atoms (all electrons):
               1          2          3          4          5          6
     1  C    5.103211   0.395005   0.391778   0.391778   0.340726  -0.060641
     2  H    0.395005   0.537794  -0.028182  -0.028182  -0.035742   0.004406
     3  H    0.391778  -0.028182   0.548201  -0.029971  -0.038345  -0.003190
     4  H    0.391778  -0.028182  -0.029971   0.548201  -0.038345  -0.003190
     5  C    0.340726  -0.035742  -0.038345  -0.038345   5.039715   0.340726
     6  C   -0.060641   0.004406  -0.003190  -0.003190   0.340726   5.103211
     7  H   -0.041836  -0.002560  -0.003123   0.004372   0.402702  -0.041836
     8  H   -0.041836  -0.002560   0.004372  -0.003123   0.402702  -0.041836
     9  H   -0.003190  -0.000070   0.002707   0.000073  -0.038345   0.391778
    10  H   -0.003190  -0.000070   0.000073   0.002707  -0.038345   0.391778
    11  H    0.004406  -0.000097  -0.000070  -0.000070  -0.035742   0.395005
               7          8          9         10         11
     1  C   -0.041836  -0.041836  -0.003190  -0.003190   0.004406
     2  H   -0.002560  -0.002560  -0.000070  -0.000070  -0.000097
     3  H   -0.003123   0.004372   0.002707   0.000073  -0.000070
     4  H    0.004372  -0.003123   0.000073   0.002707  -0.000070
     5  C    0.402702   0.402702  -0.038345  -0.038345  -0.035742
     6  C   -0.041836  -0.041836   0.391778   0.391778   0.395005
     7  H    0.561529  -0.033241  -0.003123   0.004372  -0.002560
     8  H   -0.033241   0.561529   0.004372  -0.003123  -0.002560
     9  H   -0.003123   0.004372   0.548201  -0.029971  -0.028182
    10  H    0.004372  -0.003123  -0.029971   0.548201  -0.028182
    11  H   -0.002560  -0.002560  -0.028182  -0.028182   0.537794
 Mulliken charges:
               1
     1  C   -0.476210
     2  H    0.160257
     3  H    0.155750
     4  H    0.155750
     5  C   -0.301707
     6  C   -0.476210
     7  H    0.155306
     8  H    0.155306
     9  H    0.155750
    10  H    0.155750
    11  H    0.160257
 Sum of Mulliken charges =   0.00000
 Mulliken charges with hydrogens summed into heavy atoms:
               1
     1  C   -0.004452
     5  C    0.008904
     6  C   -0.004452
 APT charges:
               1
     1  C    0.126459
     2  H   -0.050342
     3  H   -0.045905
     4  H   -0.045905
     5  C    0.177737
     6  C    0.126459
     7  H   -0.073176
     8  H   -0.073176
     9  H   -0.045905
    10  H   -0.045905
    11  H   -0.050342
 Sum of APT charges =   0.00000
 APT charges with hydrogens summed into heavy atoms:
               1
     1  C   -0.015693
     5  C    0.031385
     6  C   -0.015693
 Electronic spatial extent (au):  <R**2>=            226.5371
 Charge=             -0.0000 electrons
 Dipole moment (field-independent basis, Debye):
    X=             -0.0000    Y=              0.0000    Z=              0.0658  Tot=              0.0658
 Quadrupole moment (field-independent basis, Debye-Ang):
   XX=            -21.5109   YY=            -22.2917   ZZ=            -21.9173
   XY=              0.0000   XZ=             -0.0000   YZ=             -0.0000
 Traceless Quadrupole moment (field-independent basis, Debye-Ang):
   XX=              0.3957   YY=             -0.3851   ZZ=             -0.0106
   XY=              0.0000   XZ=             -0.0000   YZ=             -0.0000
 Octapole moment (field-independent basis, Debye-Ang**2):
  XXX=              0.0000  YYY=              0.0000  ZZZ=              0.1871  XYY=              0.0000
  XXY=             -0.0000  XXZ=             -0.4582  XZZ=              0.0000  YZZ=             -0.0000
  YYZ=              1.3724  XYZ=             -0.0000
 Hexadecapole moment (field-independent basis, Debye-Ang**3):
 XXXX=            -42.2777 YYYY=           -201.8499 ZZZZ=            -69.3605 XXXY=              0.0000
 XXXZ=              0.0000 YYYX=              0.0000 YYYZ=             -0.0000 ZZZX=             -0.0000
 ZZZY=             -0.0000 XXYY=            -41.5933 XXZZ=            -16.7488 YYZZ=            -44.7726
 XXYZ=             -0.0000 YYXZ=             -0.0000 ZZXY=              0.0000
 N-N= 8.273229893684D+01 E-N=-4.399402564675D+02  KE= 1.182223427136D+02
 Symmetry A1   KE= 7.324399878013D+01
 Symmetry A2   KE= 1.991469819315D+00
 Symmetry B1   KE= 3.820597750864D+00
 Symmetry B2   KE= 3.916627636325D+01
  Exact polarizability:      31.046      -0.000      34.319      -0.000       0.000      31.496
 Approx polarizability:      27.635       0.000      26.218      -0.000       0.000      26.945
 ******************************Gaussian NBO Version 3.1******************************
             N A T U R A L   A T O M I C   O R B I T A L   A N D
          N A T U R A L   B O N D   O R B I T A L   A N A L Y S I S
 ******************************Gaussian NBO Version 3.1******************************
       /RESON  / : Allow strongly delocalized NBO set

 Analyzing the SCF density

 Job title: Propane-HF-6-31G(D)                                             

 Storage needed:     11598 in NPA,     15203 in NBO (1342176565 available)


 NATURAL POPULATIONS:  Natural atomic orbital occupancies 
                                                          
   NAO  Atom  No  lang   Type(AO)    Occupancy      Energy
 ----------------------------------------------------------
     1    C    1  S      Cor( 1S)     1.99949     -11.06722
     2    C    1  S      Val( 2S)     1.09409      -0.26862
     3    C    1  S      Ryd( 3S)     0.00048       1.47708
     4    C    1  S      Ryd( 4S)     0.00001       4.66234
     5    C    1  px     Val( 2p)     1.22187      -0.05620
     6    C    1  px     Ryd( 3p)     0.00139       0.85346
     7    C    1  py     Val( 2p)     1.12760      -0.04095
     8    C    1  py     Ryd( 3p)     0.00190       0.83421
     9    C    1  pz     Val( 2p)     1.17937      -0.04780
    10    C    1  pz     Ryd( 3p)     0.00163       0.83890
    11    C    1  dxy    Ryd( 3d)     0.00008       2.10814
    12    C    1  dxz    Ryd( 3d)     0.00220       2.54356
    13    C    1  dyz    Ryd( 3d)     0.00177       2.56928
    14    C    1  dx2y2  Ryd( 3d)     0.00194       2.56166
    15    C    1  dz2    Ryd( 3d)     0.00008       2.09354
 
    16    H    2  S      Val( 1S)     0.78370       0.18502
    17    H    2  S      Ryd( 2S)     0.00068       0.82072
 
    18    H    3  S      Val( 1S)     0.78962       0.17786
    19    H    3  S      Ryd( 2S)     0.00096       0.83254
 
    20    H    4  S      Val( 1S)     0.78962       0.17786
    21    H    4  S      Ryd( 2S)     0.00096       0.83254
 
    22    C    5  S      Cor( 1S)     1.99939     -11.07189
    23    C    5  S      Val( 2S)     1.03489      -0.24221
    24    C    5  S      Ryd( 3S)     0.00078       1.57480
    25    C    5  S      Ryd( 4S)     0.00001       4.72002
    26    C    5  px     Val( 2p)     1.22024      -0.04997
    27    C    5  px     Ryd( 3p)     0.00323       0.97069
    28    C    5  py     Val( 2p)     1.02596      -0.02197
    29    C    5  py     Ryd( 3p)     0.00158       0.81444
    30    C    5  pz     Val( 2p)     1.13237      -0.03897
    31    C    5  pz     Ryd( 3p)     0.00091       0.82120
    32    C    5  dxy    Ryd( 3d)     0.00017       2.15116
    33    C    5  dxz    Ryd( 3d)     0.00243       2.56505
    34    C    5  dyz    Ryd( 3d)     0.00157       2.61531
    35    C    5  dx2y2  Ryd( 3d)     0.00195       2.58816
    36    C    5  dz2    Ryd( 3d)     0.00013       2.15498
 
    37    C    6  S      Cor( 1S)     1.99949     -11.06722
    38    C    6  S      Val( 2S)     1.09409      -0.26862
    39    C    6  S      Ryd( 3S)     0.00048       1.47708
    40    C    6  S      Ryd( 4S)     0.00001       4.66234
    41    C    6  px     Val( 2p)     1.22187      -0.05620
    42    C    6  px     Ryd( 3p)     0.00139       0.85346
    43    C    6  py     Val( 2p)     1.12760      -0.04095
    44    C    6  py     Ryd( 3p)     0.00190       0.83421
    45    C    6  pz     Val( 2p)     1.17937      -0.04780
    46    C    6  pz     Ryd( 3p)     0.00163       0.83890
    47    C    6  dxy    Ryd( 3d)     0.00008       2.10814
    48    C    6  dxz    Ryd( 3d)     0.00220       2.54356
    49    C    6  dyz    Ryd( 3d)     0.00177       2.56928
    50    C    6  dx2y2  Ryd( 3d)     0.00194       2.56166
    51    C    6  dz2    Ryd( 3d)     0.00008       2.09354
 
    52    H    7  S      Val( 1S)     0.78637       0.18763
    53    H    7  S      Ryd( 2S)     0.00142       0.82729
 
    54    H    8  S      Val( 1S)     0.78637       0.18763
    55    H    8  S      Ryd( 2S)     0.00142       0.82729
 
    56    H    9  S      Val( 1S)     0.78962       0.17786
    57    H    9  S      Ryd( 2S)     0.00096       0.83254
 
    58    H   10  S      Val( 1S)     0.78962       0.17786
    59    H   10  S      Ryd( 2S)     0.00096       0.83254
 
    60    H   11  S      Val( 1S)     0.78370       0.18502
    61    H   11  S      Ryd( 2S)     0.00068       0.82072


 Summary of Natural Population Analysis:                  
                                                          
                                       Natural Population 
                Natural  -----------------------------------------------
    Atom  No    Charge         Core      Valence    Rydberg      Total
 -----------------------------------------------------------------------
      C    1   -0.63388      1.99949     4.62292    0.01147     6.63388
      H    2    0.21562      0.00000     0.78370    0.00068     0.78438
      H    3    0.20943      0.00000     0.78962    0.00096     0.79057
      H    4    0.20943      0.00000     0.78962    0.00096     0.79057
      C    5   -0.42561      1.99939     4.41345    0.01277     6.42561
      C    6   -0.63388      1.99949     4.62292    0.01147     6.63388
      H    7    0.21221      0.00000     0.78637    0.00142     0.78779
      H    8    0.21221      0.00000     0.78637    0.00142     0.78779
      H    9    0.20943      0.00000     0.78962    0.00096     0.79057
      H   10    0.20943      0.00000     0.78962    0.00096     0.79057
      H   11    0.21562      0.00000     0.78370    0.00068     0.78438
 =======================================================================
   * Total *    0.00000      5.99837    19.95791    0.04372    26.00000

                                 Natural Population      
 --------------------------------------------------------
   Core                       5.99837 ( 99.9728% of   6)
   Valence                   19.95791 ( 99.7896% of  20)
   Natural Minimal Basis     25.95628 ( 99.8318% of  26)
   Natural Rydberg Basis      0.04372 (  0.1682% of  26)
 --------------------------------------------------------

    Atom  No          Natural Electron Configuration
 ----------------------------------------------------------------------------
      C    1      [core]2S( 1.09)2p( 3.53)3d( 0.01)
      H    2            1S( 0.78)
      H    3            1S( 0.79)
      H    4            1S( 0.79)
      C    5      [core]2S( 1.03)2p( 3.38)3p( 0.01)3d( 0.01)
      C    6      [core]2S( 1.09)2p( 3.53)3d( 0.01)
      H    7            1S( 0.79)
      H    8            1S( 0.79)
      H    9            1S( 0.79)
      H   10            1S( 0.79)
      H   11            1S( 0.78)


 NATURAL BOND ORBITAL ANALYSIS:

                       Occupancies       Lewis Structure    Low   High
           Occ.    -------------------  -----------------   occ   occ
  Cycle   Thresh.   Lewis   Non-Lewis     CR  BD  3C  LP    (L)   (NL)   Dev
 =============================================================================
   1(1)    1.90    25.90473   0.09527      3  10   0   0     0      0    0.02
 -----------------------------------------------------------------------------

 Structure accepted: No low occupancy Lewis orbitals

 --------------------------------------------------------
   Core                      5.99837 ( 99.973% of   6)
   Valence Lewis            19.90637 ( 99.532% of  20)
  ==================       ============================
   Total Lewis              25.90473 ( 99.634% of  26)
  -----------------------------------------------------
   Valence non-Lewis         0.07173 (  0.276% of  26)
   Rydberg non-Lewis         0.02354 (  0.091% of  26)
  ==================       ============================
   Total non-Lewis           0.09527 (  0.366% of  26)
 --------------------------------------------------------


       (Occupancy)   Bond orbital/ Coefficients/ Hybrids
 ---------------------------------------------------------------------------------
     1. (1.99177) BD ( 1) C   1 - H   2  
                ( 60.78%)   0.7796* C   1 s( 24.09%)p 3.15( 75.78%)d 0.01(  0.13%)
                                            0.0000  0.4908  0.0015 -0.0005  0.0000
                                           -0.0000  0.7078  0.0024  0.5067 -0.0144
                                            0.0000 -0.0000  0.0292 -0.0200  0.0002
                ( 39.22%)   0.6263* H   2 s(100.00%)
                                            1.0000  0.0002
     2. (1.99230) BD ( 1) C   1 - H   3  
                ( 60.57%)   0.7782* C   1 s( 23.78%)p 3.20( 76.10%)d 0.01(  0.13%)
                                           -0.0000  0.4876  0.0038 -0.0005  0.7065
                                           -0.0057  0.0279  0.0149 -0.5107 -0.0026
                                            0.0014 -0.0291 -0.0008  0.0202  0.0006
                ( 39.43%)   0.6280* H   3 s(100.00%)
                                            1.0000  0.0009
     3. (1.99230) BD ( 1) C   1 - H   4  
                ( 60.57%)   0.7782* C   1 s( 23.78%)p 3.20( 76.10%)d 0.01(  0.13%)
                                            0.0000 -0.4876 -0.0038  0.0005  0.7065
                                           -0.0057 -0.0279 -0.0149  0.5107  0.0026
                                            0.0014 -0.0291  0.0008 -0.0202 -0.0006
                ( 39.43%)   0.6280* H   4 s(100.00%)
                                           -1.0000 -0.0009
     4. (1.99252) BD ( 1) C   1 - C   5  
                ( 49.96%)   0.7068* C   1 s( 28.35%)p 2.52( 71.55%)d 0.00(  0.10%)
                                            0.0002  0.5323 -0.0108  0.0017  0.0000
                                           -0.0000 -0.7039 -0.0030  0.4688  0.0138
                                            0.0000 -0.0000 -0.0254 -0.0192 -0.0017
                ( 50.04%)   0.7074* C   5 s( 26.93%)p 2.71( 72.96%)d 0.00(  0.11%)
                                            0.0001  0.5189 -0.0112  0.0007 -0.0000
                                            0.0000  0.7064  0.0155 -0.4799  0.0053
                                            0.0000 -0.0000 -0.0268 -0.0190 -0.0004
     5. (1.99252) BD ( 1) C   5 - C   6  
                ( 50.04%)   0.7074* C   5 s( 26.93%)p 2.71( 72.96%)d 0.00(  0.11%)
                                            0.0001  0.5189 -0.0112  0.0007 -0.0000
                                            0.0000 -0.7064 -0.0155 -0.4799  0.0053
                                            0.0000 -0.0000  0.0268 -0.0190 -0.0004
                ( 49.96%)   0.7068* C   6 s( 28.35%)p 2.52( 71.55%)d 0.00(  0.10%)
                                            0.0002  0.5323 -0.0108  0.0017 -0.0000
                                            0.0000  0.7039  0.0030  0.4688  0.0138
                                            0.0000  0.0000  0.0254 -0.0192 -0.0017
     6. (1.98429) BD ( 1) C   5 - H   7  
                ( 60.72%)   0.7792* C   5 s( 23.08%)p 3.33( 76.78%)d 0.01(  0.13%)
                                           -0.0001  0.4803  0.0099 -0.0006  0.7063
                                           -0.0167  0.0000  0.0000  0.5184  0.0045
                                            0.0000  0.0300 -0.0000  0.0209  0.0006
                ( 39.28%)   0.6267* H   7 s(100.00%)
                                            1.0000  0.0020
     7. (1.98429) BD ( 1) C   5 - H   8  
                ( 60.72%)   0.7792* C   5 s( 23.08%)p 3.33( 76.78%)d 0.01(  0.13%)
                                            0.0001 -0.4803 -0.0099  0.0006  0.7063
                                           -0.0167 -0.0000 -0.0000 -0.5184 -0.0045
                                            0.0000  0.0300  0.0000 -0.0209 -0.0006
                ( 39.28%)   0.6267* H   8 s(100.00%)
                                           -1.0000 -0.0020
     8. (1.99230) BD ( 1) C   6 - H   9  
                ( 60.57%)   0.7782* C   6 s( 23.78%)p 3.20( 76.10%)d 0.01(  0.13%)
                                           -0.0000  0.4876  0.0038 -0.0005  0.7065
                                           -0.0057 -0.0279 -0.0149 -0.5107 -0.0026
                                           -0.0014 -0.0291  0.0008  0.0202  0.0006
                ( 39.43%)   0.6280* H   9 s(100.00%)
                                            1.0000  0.0009
     9. (1.99230) BD ( 1) C   6 - H  10  
                ( 60.57%)   0.7782* C   6 s( 23.78%)p 3.20( 76.10%)d 0.01(  0.13%)
                                            0.0000 -0.4876 -0.0038  0.0005  0.7065
                                           -0.0057  0.0279  0.0149  0.5107  0.0026
                                           -0.0014 -0.0291 -0.0008 -0.0202 -0.0006
                ( 39.43%)   0.6280* H  10 s(100.00%)
                                           -1.0000 -0.0009
    10. (1.99177) BD ( 1) C   6 - H  11  
                ( 60.78%)   0.7796* C   6 s( 24.09%)p 3.15( 75.78%)d 0.01(  0.13%)
                                            0.0000  0.4908  0.0015 -0.0005 -0.0000
                                            0.0000 -0.7078 -0.0024  0.5067 -0.0144
                                            0.0000  0.0000 -0.0292 -0.0200  0.0002
                ( 39.22%)   0.6263* H  11 s(100.00%)
                                            1.0000  0.0002
    11. (1.99949) CR ( 1) C   1           s(100.00%)p 0.00(  0.00%)
                                            1.0000 -0.0001  0.0000 -0.0000 -0.0000
                                            0.0000  0.0002  0.0000 -0.0001 -0.0000
                                           -0.0000  0.0000  0.0000  0.0000  0.0000
    12. (1.99939) CR ( 1) C   5           s(100.00%)p 0.00(  0.00%)
                                            1.0000 -0.0001  0.0000 -0.0000 -0.0000
                                            0.0000 -0.0000 -0.0000  0.0002 -0.0000
                                            0.0000 -0.0000  0.0000  0.0000  0.0000
    13. (1.99949) CR ( 1) C   6           s(100.00%)p 0.00(  0.00%)
                                            1.0000 -0.0001  0.0000 -0.0000  0.0000
                                           -0.0000 -0.0002 -0.0000 -0.0001 -0.0000
                                           -0.0000 -0.0000 -0.0000  0.0000  0.0000
    14. (0.00267) RY*( 1) C   1           s(  4.65%)p18.87( 87.67%)d 1.65(  7.68%)
                                            0.0000 -0.0080  0.2153  0.0063 -0.0000
                                            0.0000  0.0132  0.6925  0.0191  0.6298
                                           -0.0000  0.0000 -0.1540  0.1762  0.1486
    15. (0.00161) RY*( 2) C   1           s(  0.00%)p 1.00( 83.63%)d 0.20( 16.37%)
                                           -0.0000  0.0000  0.0000 -0.0000  0.0220
                                            0.9142  0.0000  0.0000 -0.0000 -0.0000
                                           -0.2124  0.3444 -0.0000  0.0000  0.0000
    16. (0.00030) RY*( 3) C   1           s( 42.44%)p 1.19( 50.51%)d 0.17(  7.05%)
                                           -0.0000 -0.0065  0.6510  0.0228 -0.0000
                                            0.0000 -0.0224  0.4210  0.0052 -0.5722
                                           -0.0000  0.0000  0.0913 -0.1790 -0.1735
    17. (0.00017) RY*( 4) C   1           s( 40.02%)p 1.16( 46.23%)d 0.34( 13.75%)
                                            0.0000  0.0090  0.6143  0.1510  0.0000
                                           -0.0000  0.0117 -0.5157 -0.0162  0.4427
                                            0.0000 -0.0000 -0.1372 -0.3174 -0.1338
    18. (0.00000) RY*( 5) C   1           s( 99.07%)p 0.01(  0.91%)d 0.00(  0.02%)
    19. (0.00000) RY*( 6) C   1           s(  0.00%)p 1.00(  5.12%)d18.53( 94.88%)
    20. (0.00000) RY*( 7) C   1           s(  0.00%)p 1.00( 11.42%)d 7.75( 88.58%)
    21. (0.00000) RY*( 8) C   1           s(  0.37%)p13.13(  4.85%)d99.99( 94.79%)
    22. (0.00001) RY*( 9) C   1           s( 13.46%)p 0.70(  9.38%)d 5.73( 77.17%)
    23. (0.00000) RY*(10) C   1           s(  0.00%)p 1.00(  0.75%)d99.99( 99.24%)
    24. (0.00068) RY*( 1) H   2           s(100.00%)
                                           -0.0002  1.0000
    25. (0.00096) RY*( 1) H   3           s(100.00%)
                                           -0.0009  1.0000
    26. (0.00096) RY*( 1) H   4           s(100.00%)
                                           -0.0009  1.0000
    27. (0.00309) RY*( 1) C   5           s(  0.00%)p 1.00( 88.61%)d 0.13( 11.39%)
                                            0.0000 -0.0000  0.0000 -0.0000  0.0365
                                            0.9406 -0.0000 -0.0000 -0.0000 -0.0000
                                            0.0000 -0.3374  0.0000  0.0000  0.0000
    28. (0.00120) RY*( 2) C   5           s( 10.65%)p 6.12( 65.18%)d 2.27( 24.16%)
                                           -0.0000  0.0084  0.3250  0.0287  0.0000
                                           -0.0000  0.0000  0.0000 -0.0224 -0.8070
                                           -0.0000  0.0000 -0.0000  0.3741  0.3188
    29. (0.00110) RY*( 3) C   5           s(  0.00%)p 1.00( 96.89%)d 0.03(  3.11%)
                                           -0.0000 -0.0000  0.0000 -0.0000 -0.0000
                                            0.0000 -0.0149  0.9842  0.0000 -0.0000
                                            0.0000 -0.0000  0.1764  0.0000  0.0000
    30. (0.00019) RY*( 4) C   5           s( 89.18%)p 0.09(  8.20%)d 0.03(  2.62%)
                                           -0.0000 -0.0007  0.9392  0.0985  0.0000
                                           -0.0000  0.0000  0.0000 -0.0137  0.2860
                                            0.0000  0.0000 -0.0000 -0.1435 -0.0749
    31. (0.00017) RY*( 5) C   5           s(  0.00%)p 0.00(  0.00%)d 1.00(100.00%)
                                            0.0000  0.0000  0.0000  0.0000  0.0000
                                            0.0000  0.0000  0.0000  0.0000  0.0000
                                            1.0000  0.0000  0.0000  0.0000  0.0000
    32. (0.00013) RY*( 6) C   5           s(  0.00%)p 1.00(  3.25%)d29.73( 96.75%)
                                            0.0000  0.0000 -0.0000  0.0000  0.0000
                                           -0.0000  0.0411 -0.1756 -0.0000  0.0000
                                            0.0000  0.0000  0.9836 -0.0000 -0.0000
    33. (0.00010) RY*( 7) C   5           s(  6.67%)p 3.56( 23.76%)d10.44( 69.58%)
    34. (0.00000) RY*( 8) C   5           s( 93.33%)p 0.02(  1.57%)d 0.05(  5.10%)
    35. (0.00000) RY*( 9) C   5           s(  0.00%)p 1.00( 11.57%)d 7.65( 88.43%)
    36. (0.00000) RY*(10) C   5           s(  0.13%)p11.38(  1.49%)d99.99( 98.38%)
    37. (0.00267) RY*( 1) C   6           s(  4.65%)p18.87( 87.67%)d 1.65(  7.68%)
                                            0.0000 -0.0080  0.2153  0.0063  0.0000
                                           -0.0000 -0.0132 -0.6925  0.0191  0.6298
                                           -0.0000 -0.0000  0.1540  0.1762  0.1486
    38. (0.00161) RY*( 2) C   6           s(  0.00%)p 1.00( 83.63%)d 0.20( 16.37%)
                                            0.0000 -0.0000 -0.0000  0.0000  0.0220
                                            0.9142  0.0000  0.0000  0.0000  0.0000
                                            0.2124  0.3444 -0.0000 -0.0000 -0.0000
    39. (0.00030) RY*( 3) C   6           s( 42.44%)p 1.19( 50.51%)d 0.17(  7.05%)
                                           -0.0000 -0.0065  0.6510  0.0228  0.0000
                                           -0.0000  0.0224 -0.4210  0.0052 -0.5722
                                           -0.0000 -0.0000 -0.0913 -0.1790 -0.1735
    40. (0.00017) RY*( 4) C   6           s( 40.02%)p 1.16( 46.23%)d 0.34( 13.75%)
                                            0.0000  0.0090  0.6143  0.1510 -0.0000
                                            0.0000 -0.0117  0.5157 -0.0162  0.4427
                                            0.0000  0.0000  0.1372 -0.3174 -0.1338
    41. (0.00000) RY*( 5) C   6           s( 99.07%)p 0.01(  0.91%)d 0.00(  0.02%)
    42. (0.00000) RY*( 6) C   6           s(  0.00%)p 1.00(  5.12%)d18.53( 94.88%)
    43. (0.00000) RY*( 7) C   6           s(  0.00%)p 1.00( 11.42%)d 7.75( 88.58%)
    44. (0.00000) RY*( 8) C   6           s(  0.37%)p13.13(  4.85%)d99.99( 94.79%)
    45. (0.00001) RY*( 9) C   6           s( 13.46%)p 0.70(  9.38%)d 5.73( 77.17%)
    46. (0.00000) RY*(10) C   6           s(  0.00%)p 1.00(  0.75%)d99.99( 99.24%)
    47. (0.00142) RY*( 1) H   7           s(100.00%)
                                           -0.0020  1.0000
    48. (0.00142) RY*( 1) H   8           s(100.00%)
                                           -0.0020  1.0000
    49. (0.00096) RY*( 1) H   9           s(100.00%)
                                           -0.0009  1.0000
    50. (0.00096) RY*( 1) H  10           s(100.00%)
                                           -0.0009  1.0000
    51. (0.00068) RY*( 1) H  11           s(100.00%)
                                           -0.0002  1.0000
    52. (0.00414) BD*( 1) C   1 - H   2  
                ( 39.22%)   0.6263* C   1 s( 24.09%)p 3.15( 75.78%)d 0.01(  0.13%)
                                           -0.0000 -0.4908 -0.0015  0.0005 -0.0000
                                            0.0000 -0.7078 -0.0024 -0.5067  0.0144
                                           -0.0000  0.0000 -0.0292  0.0200 -0.0002
                ( 60.78%)  -0.7796* H   2 s(100.00%)
                                           -1.0000 -0.0002
    53. (0.00654) BD*( 1) C   1 - H   3  
                ( 39.43%)   0.6280* C   1 s( 23.78%)p 3.20( 76.10%)d 0.01(  0.13%)
                                            0.0000 -0.4876 -0.0038  0.0005 -0.7065
                                            0.0057 -0.0279 -0.0149  0.5107  0.0026
                                           -0.0014  0.0291  0.0008 -0.0202 -0.0006
                ( 60.57%)  -0.7782* H   3 s(100.00%)
                                           -1.0000 -0.0009
    54. (0.00654) BD*( 1) C   1 - H   4  
                ( 39.43%)   0.6280* C   1 s( 23.78%)p 3.20( 76.10%)d 0.01(  0.13%)
                                           -0.0000  0.4876  0.0038 -0.0005 -0.7065
                                            0.0057  0.0279  0.0149 -0.5107 -0.0026
                                           -0.0014  0.0291 -0.0008  0.0202  0.0006
                ( 60.57%)  -0.7782* H   4 s(100.00%)
                                            1.0000  0.0009
    55. (0.00718) BD*( 1) C   1 - C   5  
                ( 50.04%)   0.7074* C   1 s( 28.35%)p 2.52( 71.55%)d 0.00(  0.10%)
                                            0.0002  0.5323 -0.0108  0.0017  0.0000
                                           -0.0000 -0.7039 -0.0030  0.4688  0.0138
                                            0.0000 -0.0000 -0.0254 -0.0192 -0.0017
                ( 49.96%)  -0.7068* C   5 s( 26.93%)p 2.71( 72.96%)d 0.00(  0.11%)
                                            0.0001  0.5189 -0.0112  0.0007 -0.0000
                                            0.0000  0.7064  0.0155 -0.4799  0.0053
                                            0.0000 -0.0000 -0.0268 -0.0190 -0.0004
    56. (0.00718) BD*( 1) C   5 - C   6  
                ( 49.96%)   0.7068* C   5 s( 26.93%)p 2.71( 72.96%)d 0.00(  0.11%)
                                           -0.0001 -0.5189  0.0112 -0.0007  0.0000
                                           -0.0000  0.7064  0.0155  0.4799 -0.0053
                                           -0.0000  0.0000 -0.0268  0.0190  0.0004
                ( 50.04%)  -0.7074* C   6 s( 28.35%)p 2.52( 71.55%)d 0.00(  0.10%)
                                           -0.0002 -0.5323  0.0108 -0.0017  0.0000
                                           -0.0000 -0.7039 -0.0030 -0.4688 -0.0138
                                           -0.0000 -0.0000 -0.0254  0.0192  0.0017
    57. (0.01147) BD*( 1) C   5 - H   7  
                ( 39.28%)   0.6267* C   5 s( 23.08%)p 3.33( 76.78%)d 0.01(  0.13%)
                                            0.0001 -0.4803 -0.0099  0.0006 -0.7063
                                            0.0167 -0.0000 -0.0000 -0.5184 -0.0045
                                           -0.0000 -0.0300  0.0000 -0.0209 -0.0006
                ( 60.72%)  -0.7792* H   7 s(100.00%)
                                           -1.0000 -0.0020
    58. (0.01147) BD*( 1) C   5 - H   8  
                ( 39.28%)   0.6267* C   5 s( 23.08%)p 3.33( 76.78%)d 0.01(  0.13%)
                                           -0.0001  0.4803  0.0099 -0.0006 -0.7063
                                            0.0167  0.0000  0.0000  0.5184  0.0045
                                           -0.0000 -0.0300 -0.0000  0.0209  0.0006
                ( 60.72%)  -0.7792* H   8 s(100.00%)
                                            1.0000  0.0020
    59. (0.00654) BD*( 1) C   6 - H   9  
                ( 39.43%)   0.6280* C   6 s( 23.78%)p 3.20( 76.10%)d 0.01(  0.13%)
                                            0.0000 -0.4876 -0.0038  0.0005 -0.7065
                                            0.0057  0.0279  0.0149  0.5107  0.0026
                                            0.0014  0.0291 -0.0008 -0.0202 -0.0006
                ( 60.57%)  -0.7782* H   9 s(100.00%)
                                           -1.0000 -0.0009
    60. (0.00654) BD*( 1) C   6 - H  10  
                ( 39.43%)   0.6280* C   6 s( 23.78%)p 3.20( 76.10%)d 0.01(  0.13%)
                                           -0.0000  0.4876  0.0038 -0.0005 -0.7065
                                            0.0057 -0.0279 -0.0149 -0.5107 -0.0026
                                            0.0014  0.0291  0.0008  0.0202  0.0006
                ( 60.57%)  -0.7782* H  10 s(100.00%)
                                            1.0000  0.0009
    61. (0.00414) BD*( 1) C   6 - H  11  
                ( 39.22%)   0.6263* C   6 s( 24.09%)p 3.15( 75.78%)d 0.01(  0.13%)
                                           -0.0000 -0.4908 -0.0015  0.0005  0.0000
                                           -0.0000  0.7078  0.0024 -0.5067  0.0144
                                           -0.0000 -0.0000  0.0292  0.0200 -0.0002
                ( 60.78%)  -0.7796* H  11 s(100.00%)
                                           -1.0000 -0.0002


 NHO Directionality and "Bond Bending" (deviations from line of nuclear centers)

         [Thresholds for printing:  angular deviation  >  1.0 degree]
                                    hybrid p-character > 25.0%
                                    orbital occupancy  >  0.10e

                                Line of Centers        Hybrid 1              Hybrid 2
                                ---------------  -------------------   ------------------
                NBO               Theta   Phi    Theta   Phi    Dev    Theta   Phi    Dev
 ========================================================================================
    None exceeding thresholds


 Second Order Perturbation Theory Analysis of Fock Matrix in NBO Basis

     Threshold for printing:   0.50 kcal/mol
                                                                              E(2)  E(j)-E(i) F(i,j)
         Donor NBO (i)                     Acceptor NBO (j)                 kcal/mol   a.u.    a.u. 
 ===================================================================================================

 within unit  1
   1. BD (   1) C   1 - H   2        / 28. RY*(   2) C   5                    0.69    1.98    0.033
   1. BD (   1) C   1 - H   2        / 56. BD*(   1) C   5 - C   6            4.01    1.33    0.065
   2. BD (   1) C   1 - H   3        / 27. RY*(   1) C   5                    0.81    1.89    0.035
   2. BD (   1) C   1 - H   3        / 58. BD*(   1) C   5 - H   8            3.47    1.41    0.062
   3. BD (   1) C   1 - H   4        / 27. RY*(   1) C   5                    0.81    1.89    0.035
   3. BD (   1) C   1 - H   4        / 57. BD*(   1) C   5 - H   7            3.47    1.41    0.062
   4. BD (   1) C   1 - C   5        / 37. RY*(   1) C   6                    1.64    1.88    0.049
   4. BD (   1) C   1 - C   5        / 52. BD*(   1) C   1 - H   2            0.60    1.52    0.027
   4. BD (   1) C   1 - C   5        / 53. BD*(   1) C   1 - H   3            0.53    1.51    0.025
   4. BD (   1) C   1 - C   5        / 54. BD*(   1) C   1 - H   4            0.53    1.51    0.025
   4. BD (   1) C   1 - C   5        / 56. BD*(   1) C   5 - C   6            0.66    1.44    0.028
   4. BD (   1) C   1 - C   5        / 57. BD*(   1) C   5 - H   7            0.56    1.52    0.026
   4. BD (   1) C   1 - C   5        / 58. BD*(   1) C   5 - H   8            0.56    1.52    0.026
   4. BD (   1) C   1 - C   5        / 61. BD*(   1) C   6 - H  11            2.15    1.52    0.051
   5. BD (   1) C   5 - C   6        / 14. RY*(   1) C   1                    1.64    1.88    0.049
   5. BD (   1) C   5 - C   6        / 52. BD*(   1) C   1 - H   2            2.15    1.52    0.051
   5. BD (   1) C   5 - C   6        / 55. BD*(   1) C   1 - C   5            0.66    1.44    0.028
   5. BD (   1) C   5 - C   6        / 57. BD*(   1) C   5 - H   7            0.56    1.52    0.026
   5. BD (   1) C   5 - C   6        / 58. BD*(   1) C   5 - H   8            0.56    1.52    0.026
   5. BD (   1) C   5 - C   6        / 59. BD*(   1) C   6 - H   9            0.53    1.51    0.025
   5. BD (   1) C   5 - C   6        / 60. BD*(   1) C   6 - H  10            0.53    1.51    0.025
   5. BD (   1) C   5 - C   6        / 61. BD*(   1) C   6 - H  11            0.60    1.52    0.027
   6. BD (   1) C   5 - H   7        / 15. RY*(   2) C   1                    0.84    1.81    0.035
   6. BD (   1) C   5 - H   7        / 38. RY*(   2) C   6                    0.84    1.81    0.035
   6. BD (   1) C   5 - H   7        / 54. BD*(   1) C   1 - H   4            3.78    1.39    0.065
   6. BD (   1) C   5 - H   7        / 60. BD*(   1) C   6 - H  10            3.78    1.39    0.065
   7. BD (   1) C   5 - H   8        / 15. RY*(   2) C   1                    0.84    1.81    0.035
   7. BD (   1) C   5 - H   8        / 38. RY*(   2) C   6                    0.84    1.81    0.035
   7. BD (   1) C   5 - H   8        / 53. BD*(   1) C   1 - H   3            3.78    1.39    0.065
   7. BD (   1) C   5 - H   8        / 59. BD*(   1) C   6 - H   9            3.78    1.39    0.065
   8. BD (   1) C   6 - H   9        / 27. RY*(   1) C   5                    0.81    1.89    0.035
   8. BD (   1) C   6 - H   9        / 58. BD*(   1) C   5 - H   8            3.47    1.41    0.062
   9. BD (   1) C   6 - H  10        / 27. RY*(   1) C   5                    0.81    1.89    0.035
   9. BD (   1) C   6 - H  10        / 57. BD*(   1) C   5 - H   7            3.47    1.41    0.062
  10. BD (   1) C   6 - H  11        / 28. RY*(   2) C   5                    0.69    1.98    0.033
  10. BD (   1) C   6 - H  11        / 55. BD*(   1) C   1 - C   5            4.01    1.33    0.065
  11. CR (   1) C   1                / 29. RY*(   3) C   5                    0.98   11.94    0.097
  12. CR (   1) C   5                / 16. RY*(   3) C   1                    0.99   12.26    0.098
  12. CR (   1) C   5                / 39. RY*(   3) C   6                    0.99   12.26    0.098
  13. CR (   1) C   6                / 29. RY*(   3) C   5                    0.98   11.94    0.097


 Natural Bond Orbitals (Summary):

                                                            Principal Delocalizations
           NBO                        Occupancy    Energy   (geminal,vicinal,remote)
 ====================================================================================
 Molecular unit  1  (C3H8)
     1. BD (   1) C   1 - H   2          1.99177    -0.66547  56(v),28(v)
     2. BD (   1) C   1 - H   3          1.99230    -0.66497  58(v),27(v)
     3. BD (   1) C   1 - H   4          1.99230    -0.66497  57(v),27(v)
     4. BD (   1) C   1 - C   5          1.99252    -0.77784  61(v),37(v),56(g),52(g)
                                                    57(g),58(g),53(g),54(g)
     5. BD (   1) C   5 - C   6          1.99252    -0.77784  52(v),14(v),55(g),61(g)
                                                    57(g),58(g),59(g),60(g)
     6. BD (   1) C   5 - H   7          1.98429    -0.65666  54(v),60(v),15(v),38(v)
     7. BD (   1) C   5 - H   8          1.98429    -0.65666  53(v),59(v),15(v),38(v)
     8. BD (   1) C   6 - H   9          1.99230    -0.66497  58(v),27(v)
     9. BD (   1) C   6 - H  10          1.99230    -0.66497  57(v),27(v)
    10. BD (   1) C   6 - H  11          1.99177    -0.66547  55(v),28(v)
    11. CR (   1) C   1                  1.99949   -11.06700  29(v)
    12. CR (   1) C   5                  1.99939   -11.07175  16(v),39(v)
    13. CR (   1) C   6                  1.99949   -11.06700  29(v)
    14. RY*(   1) C   1                  0.00267     1.09733   
    15. RY*(   2) C   1                  0.00161     1.14920   
    16. RY*(   3) C   1                  0.00030     1.18724   
    17. RY*(   4) C   1                  0.00017     1.38534   
    18. RY*(   5) C   1                  0.00000     4.52160   
    19. RY*(   6) C   1                  0.00000     2.07066   
    20. RY*(   7) C   1                  0.00000     2.27859   
    21. RY*(   8) C   1                  0.00000     2.46069   
    22. RY*(   9) C   1                  0.00001     2.16305   
    23. RY*(  10) C   1                  0.00000     2.20317   
    24. RY*(   1) H   2                  0.00068     0.82057   
    25. RY*(   1) H   3                  0.00096     0.83189   
    26. RY*(   1) H   4                  0.00096     0.83189   
    27. RY*(   1) C   5                  0.00309     1.22929   
    28. RY*(   2) C   5                  0.00120     1.31140   
    29. RY*(   3) C   5                  0.00110     0.87568   
    30. RY*(   4) C   5                  0.00019     1.60319   
    31. RY*(   5) C   5                  0.00017     2.15116   
    32. RY*(   6) C   5                  0.00013     2.54167   
    33. RY*(   7) C   5                  0.00010     2.24530   
    34. RY*(   8) C   5                  0.00000     4.48372   
    35. RY*(   9) C   5                  0.00000     2.30066   
    36. RY*(  10) C   5                  0.00000     2.20649   
    37. RY*(   1) C   6                  0.00267     1.09733   
    38. RY*(   2) C   6                  0.00161     1.14920   
    39. RY*(   3) C   6                  0.00030     1.18724   
    40. RY*(   4) C   6                  0.00017     1.38534   
    41. RY*(   5) C   6                  0.00000     4.52160   
    42. RY*(   6) C   6                  0.00000     2.07066   
    43. RY*(   7) C   6                  0.00000     2.27859   
    44. RY*(   8) C   6                  0.00000     2.46069   
    45. RY*(   9) C   6                  0.00001     2.16305   
    46. RY*(  10) C   6                  0.00000     2.20317   
    47. RY*(   1) H   7                  0.00142     0.82585   
    48. RY*(   1) H   8                  0.00142     0.82585   
    49. RY*(   1) H   9                  0.00096     0.83189   
    50. RY*(   1) H  10                  0.00096     0.83189   
    51. RY*(   1) H  11                  0.00068     0.82057   
    52. BD*(   1) C   1 - H   2          0.00414     0.74145   
    53. BD*(   1) C   1 - H   3          0.00654     0.73270   
    54. BD*(   1) C   1 - H   4          0.00654     0.73270   
    55. BD*(   1) C   1 - C   5          0.00718     0.66011   
    56. BD*(   1) C   5 - C   6          0.00718     0.66011   
    57. BD*(   1) C   5 - H   7          0.01147     0.74267   
    58. BD*(   1) C   5 - H   8          0.01147     0.74267   
    59. BD*(   1) C   6 - H   9          0.00654     0.73270   
    60. BD*(   1) C   6 - H  10          0.00654     0.73270   
    61. BD*(   1) C   6 - H  11          0.00414     0.74145   
       -------------------------------
              Total Lewis   25.90473  ( 99.6336%)
        Valence non-Lewis    0.07173  (  0.2759%)
        Rydberg non-Lewis    0.02354  (  0.0905%)
       -------------------------------
            Total unit  1   26.00000  (100.0000%)
           Charge unit  1    0.00000
 Calling FoFJK, ICntrl=    100127 FMM=F ISym2X=1 I1Cent= 0 IOpClX= 0 NMat=1 NMatS=1 NMatT=0.
 Full mass-weighted force constant matrix:
 Low frequencies ---  -16.1775   -5.4026   -2.8254   -0.0010    0.0010    0.0033
 Low frequencies ---  233.6011  293.3340  392.6041
 Diagonal vibrational polarizability:
        0.5530005       0.3545202       0.4305142
 Diagonal vibrational hyperpolarizability:
        0.0000001      -0.0000002      -0.9879872
 Harmonic frequencies (cm**-1), IR intensities (KM/Mole), Raman scattering
 activities (A**4/AMU), depolarization ratios for plane and unpolarized
 incident light, reduced masses (AMU), force constants (mDyne/A),
 and normal coordinates:
                      1                      2                      3
                     A2                     B1                     A1
 Frequencies --    233.6008               293.3340               392.6041
 Red. masses --      1.0271                 1.1370                 2.0831
 Frc consts  --      0.0330                 0.0576                 0.1892
 IR Inten    --      0.0000                 0.0001                 0.0276
 Raman Activ --      0.0047                 0.0130                 0.3516
 Depolar (P) --      0.7500                 0.7500                 0.0888
 Depolar (U) --      0.8571                 0.8571                 0.1631
  Atom  AN      X      Y      Z        X      Y      Z        X      Y      Z
     1   6    -0.03   0.00   0.00     0.04  -0.00  -0.00     0.00   0.18   0.06
     2   1     0.36  -0.00   0.00     0.46  -0.00  -0.00    -0.00  -0.02   0.34
     3   1    -0.24  -0.17  -0.31    -0.11  -0.26  -0.22     0.01   0.39   0.08
     4   1    -0.24   0.17   0.31    -0.11   0.26   0.22    -0.01   0.39   0.08
     5   6     0.00  -0.00  -0.00    -0.09   0.00   0.00     0.00   0.00  -0.17
     6   6     0.03  -0.00   0.00     0.04  -0.00   0.00    -0.00  -0.18   0.06
     7   1     0.00   0.01  -0.00    -0.17  -0.00   0.10    -0.01  -0.00  -0.15
     8   1    -0.00  -0.01  -0.00    -0.17  -0.00  -0.10     0.01   0.00  -0.15
     9   1     0.24  -0.17   0.31    -0.11   0.26  -0.22     0.01  -0.39   0.08
    10   1     0.24   0.17  -0.31    -0.11  -0.26   0.22    -0.01  -0.39   0.08
    11   1    -0.36   0.00   0.00     0.46   0.00   0.00     0.00   0.02   0.34
                      4                      5                      6
                     B1                     A1                     A2
 Frequencies --    808.0230               930.4690               984.9855
 Red. masses --      1.0797                 2.5836                 1.0959
 Frc consts  --      0.4153                 1.3179                 0.6264
 IR Inten    --      1.8677                 0.4626                 0.0000
 Raman Activ --      0.1656                14.4777                 0.0268
 Depolar (P) --      0.7500                 0.2339                 0.7500
 Depolar (U) --      0.8571                 0.3792                 0.8571
  Atom  AN      X      Y      Z        X      Y      Z        X      Y      Z
     1   6     0.02  -0.00  -0.00    -0.00   0.21  -0.07    -0.06  -0.00   0.00
     2   1    -0.12   0.00  -0.00     0.00   0.45  -0.40     0.19  -0.00   0.00
     3   1    -0.13   0.21  -0.19    -0.02   0.01  -0.11     0.12  -0.31   0.23
     4   1    -0.13  -0.21   0.19     0.02   0.01  -0.11     0.12   0.31  -0.23
     5   6     0.08  -0.00  -0.00     0.00  -0.00   0.21    -0.00  -0.00  -0.00
     6   6     0.02   0.00   0.00     0.00  -0.21  -0.07     0.06   0.00   0.00
     7   1    -0.27  -0.00   0.46     0.00   0.00   0.21    -0.00   0.37  -0.00
     8   1    -0.27  -0.00  -0.46    -0.00  -0.00   0.21     0.00  -0.37  -0.00
     9   1    -0.13  -0.21  -0.19    -0.02  -0.01  -0.11    -0.12  -0.31  -0.23
    10   1    -0.13   0.21   0.19     0.02  -0.01  -0.11    -0.12   0.31   0.23
    11   1    -0.12   0.00   0.00    -0.00  -0.45  -0.40    -0.19   0.00   0.00
                      7                      8                      9
                     B2                     B2                     A1
 Frequencies --   1014.0790              1128.2125              1285.9954
 Red. masses --      1.1968                 2.3263                 1.7234
 Frc consts  --      0.7251                 1.7446                 1.6792
 IR Inten    --      1.1957                 0.4403                 0.9022
 Raman Activ --      0.6394                 9.0313                 4.3052
 Depolar (P) --      0.7500                 0.7500                 0.4128
 Depolar (U) --      0.8571                 0.8571                 0.5843
  Atom  AN      X      Y      Z        X      Y      Z        X      Y      Z
     1   6     0.00  -0.02  -0.08     0.00  -0.13   0.10    -0.00  -0.04  -0.12
     2   1    -0.00  -0.33   0.36     0.00  -0.18   0.16     0.00  -0.32   0.28
     3   1     0.03   0.33  -0.02     0.02  -0.14   0.13     0.06   0.35  -0.02
     4   1    -0.03   0.33  -0.02    -0.02  -0.14   0.13    -0.06   0.35  -0.02
     5   6    -0.00  -0.05  -0.00     0.00   0.25   0.00     0.00   0.00   0.18
     6   6     0.00  -0.02   0.08     0.00  -0.13  -0.10     0.00   0.04  -0.12
     7   1    -0.00   0.20  -0.00    -0.00   0.55   0.00     0.01  -0.00   0.17
     8   1    -0.00   0.20  -0.00    -0.00   0.55  -0.00    -0.01  -0.00   0.17
     9   1    -0.03   0.33   0.02    -0.02  -0.14  -0.13     0.06  -0.35  -0.02
    10   1     0.03   0.33   0.02     0.02  -0.14  -0.13    -0.06  -0.35  -0.02
    11   1     0.00  -0.33  -0.36    -0.00  -0.18  -0.16    -0.00   0.32   0.28
                     10                     11                     12
                     B1                     A2                     B2
 Frequencies --   1330.9556              1435.5560              1503.3012
 Red. masses --      1.6462                 1.1241                 1.3737
 Frc consts  --      1.7182                 1.3648                 1.8291
 IR Inten    --      0.0198                 0.0000                 3.6909
 Raman Activ --      0.8032                12.2421                 0.0363
 Depolar (P) --      0.7500                 0.7500                 0.7500
 Depolar (U) --      0.8571                 0.8571                 0.8571
  Atom  AN      X      Y      Z        X      Y      Z        X      Y      Z
     1   6    -0.11  -0.00   0.00     0.07  -0.00   0.00    -0.00   0.00   0.06
     2   1     0.22   0.00  -0.00    -0.10  -0.00   0.00     0.00   0.20  -0.22
     3   1     0.09  -0.26   0.26    -0.04   0.14  -0.14    -0.12   0.07  -0.12
     4   1     0.09   0.26  -0.26    -0.04  -0.14   0.14     0.12   0.07  -0.12
     5   6     0.18   0.00  -0.00     0.00   0.00  -0.00     0.00  -0.16   0.00
     6   6    -0.11  -0.00   0.00    -0.07   0.00   0.00    -0.00   0.00  -0.06
     7   1    -0.10  -0.00   0.37    -0.00   0.64   0.00    -0.00   0.57   0.00
     8   1    -0.10   0.00  -0.37     0.00  -0.64   0.00    -0.00   0.57  -0.00
     9   1     0.09   0.26   0.26     0.04   0.14   0.14     0.12   0.07   0.12
    10   1     0.09  -0.26  -0.26     0.04  -0.14  -0.14    -0.12   0.07   0.12
    11   1     0.22  -0.00  -0.00     0.10   0.00   0.00     0.00   0.20   0.22
                     13                     14                     15
                     B2                     A1                     A2
 Frequencies --   1561.5763              1571.4381              1634.6381
 Red. masses --      1.3375                 1.2353                 1.0415
 Frc consts  --      1.9217                 1.7974                 1.6396
 IR Inten    --      2.9515                 1.5307                 0.0000
 Raman Activ --      2.3479                 1.5112                37.4140
 Depolar (P) --      0.7500                 0.6733                 0.7500
 Depolar (U) --      0.8571                 0.8048                 0.8571
  Atom  AN      X      Y      Z        X      Y      Z        X      Y      Z
     1   6     0.00  -0.10   0.04    -0.00   0.08  -0.06    -0.04  -0.00  -0.00
     2   1    -0.00   0.16  -0.32     0.00  -0.21   0.34     0.51   0.00  -0.00
     3   1    -0.09   0.38  -0.07     0.16  -0.34   0.14     0.04   0.33   0.11
     4   1     0.09   0.38  -0.07    -0.16  -0.34   0.14     0.04  -0.33  -0.11
     5   6    -0.00   0.08  -0.00     0.00   0.00   0.01     0.00   0.00   0.00
     6   6     0.00  -0.10  -0.04    -0.00  -0.08  -0.06     0.04   0.00  -0.00
     7   1     0.00  -0.23  -0.00    -0.03  -0.00   0.06     0.00   0.04  -0.00
     8   1     0.00  -0.23   0.00     0.03  -0.00   0.06    -0.00  -0.04  -0.00
     9   1     0.09   0.38   0.07     0.16   0.34   0.14    -0.04   0.33  -0.11
    10   1    -0.09   0.38   0.07    -0.16   0.34   0.14    -0.04  -0.33   0.11
    11   1    -0.00   0.16   0.32    -0.00   0.21   0.34    -0.51  -0.00  -0.00
                     16                     17                     18
                     A1                     B2                     B1
 Frequencies --   1635.7908              1642.3290              1652.4222
 Red. masses --      1.0464                 1.0548                 1.0419
 Frc consts  --      1.6497                 1.6762                 1.6762
 IR Inten    --      0.1715                 0.9375                 9.1875
 Raman Activ --     42.9464                 0.2103                 0.1275
 Depolar (P) --      0.7494                 0.7500                 0.7500
 Depolar (U) --      0.8567                 0.8571                 0.8571
  Atom  AN      X      Y      Z        X      Y      Z        X      Y      Z
     1   6    -0.00   0.01   0.02    -0.00  -0.01  -0.04    -0.04   0.00   0.00
     2   1     0.00  -0.09   0.14     0.00   0.13  -0.21     0.50  -0.00   0.00
     3   1    -0.18  -0.05  -0.25     0.28   0.07   0.36     0.03   0.33   0.10
     4   1     0.18  -0.05  -0.25    -0.28   0.07   0.36     0.03  -0.33  -0.10
     5   6    -0.00   0.00  -0.05    -0.00  -0.04  -0.00    -0.03   0.00  -0.00
     6   6     0.00  -0.01   0.02    -0.00  -0.01   0.04    -0.04   0.00  -0.00
     7   1    -0.33   0.00   0.41    -0.00   0.09   0.00     0.00  -0.00  -0.04
     8   1     0.33  -0.00   0.41     0.00   0.09   0.00     0.00  -0.00   0.04
     9   1    -0.18   0.05  -0.25    -0.28   0.07  -0.36     0.03  -0.33   0.10
    10   1     0.18   0.05  -0.25     0.28   0.07  -0.36     0.03   0.33  -0.10
    11   1    -0.00   0.09   0.14     0.00   0.13   0.21     0.50  -0.00  -0.00
                     19                     20                     21
                     A1                     B2                     A1
 Frequencies --   1658.4044              3193.1009              3194.1268
 Red. masses --      1.0876                 1.0361                 1.0508
 Frc consts  --      1.7625                 6.2243                 6.3164
 IR Inten    --      2.1324                44.9836                56.9517
 Raman Activ --      3.6718                 3.3415                25.2101
 Depolar (P) --      0.7494                 0.7500                 0.5722
 Depolar (U) --      0.8568                 0.8571                 0.7279
  Atom  AN      X      Y      Z        X      Y      Z        X      Y      Z
     1   6    -0.00  -0.02  -0.02     0.00  -0.03   0.02    -0.00   0.02  -0.01
     2   1     0.00   0.11  -0.20    -0.00   0.29   0.21    -0.00  -0.25  -0.18
     3   1     0.20   0.09   0.27     0.35   0.01  -0.25    -0.18  -0.00   0.13
     4   1    -0.20   0.09   0.27    -0.35   0.01  -0.25     0.18  -0.00   0.13
     5   6    -0.00   0.00  -0.07    -0.00   0.00   0.00     0.00   0.00  -0.05
     6   6     0.00   0.02  -0.02     0.00  -0.03  -0.02     0.00  -0.02  -0.01
     7   1    -0.30  -0.00   0.34    -0.00  -0.00  -0.00     0.45  -0.00   0.32
     8   1     0.30   0.00   0.34     0.00  -0.00  -0.00    -0.45   0.00   0.32
     9   1     0.20  -0.09   0.27    -0.35   0.01   0.25    -0.18   0.00   0.13
    10   1    -0.20  -0.09   0.27     0.35   0.01   0.25     0.18   0.00   0.13
    11   1    -0.00  -0.11  -0.20    -0.00   0.29  -0.21     0.00   0.25  -0.18
                     22                     23                     24
                     A1                     B1                     A2
 Frequencies --   3200.8611              3217.3537              3249.8190
 Red. masses --      1.0475                 1.1038                 1.1036
 Frc consts  --      6.3234                 6.7318                 6.8670
 IR Inten    --      0.1568                 4.6804                 0.0000
 Raman Activ --    288.9507               167.7664                 7.1909
 Depolar (P) --      0.0378                 0.7500                 0.7500
 Depolar (U) --      0.0729                 0.8571                 0.8571
  Atom  AN      X      Y      Z        X      Y      Z        X      Y      Z
     1   6    -0.00  -0.02   0.02     0.03   0.00   0.00    -0.07  -0.00  -0.00
     2   1    -0.00   0.19   0.14     0.01  -0.00  -0.00    -0.01   0.00   0.00
     3   1     0.30   0.01  -0.21    -0.18  -0.01   0.13     0.40   0.01  -0.30
     4   1    -0.30   0.01  -0.21    -0.18   0.01  -0.13     0.40  -0.01   0.30
     5   6     0.00   0.00  -0.04    -0.08   0.00  -0.00     0.00  -0.00   0.00
     6   6     0.00   0.02   0.02     0.03   0.00   0.00     0.07   0.00  -0.00
     7   1     0.33   0.00   0.24     0.50   0.00   0.38    -0.00  -0.00  -0.00
     8   1    -0.33  -0.00   0.24     0.50   0.00  -0.38     0.00   0.00  -0.00
     9   1     0.30  -0.01  -0.21    -0.18   0.01   0.13    -0.40   0.01   0.30
    10   1    -0.30  -0.01  -0.21    -0.18  -0.01  -0.13    -0.40  -0.01  -0.30
    11   1     0.00  -0.19   0.14     0.01  -0.00   0.00     0.01  -0.00   0.00
                     25                     26                     27
                     B2                     A1                     B1
 Frequencies --   3258.2776              3262.0648              3264.5732
 Red. masses --      1.1030                 1.1016                 1.1040
 Frc consts  --      6.8994                 6.9062                 6.9320
 IR Inten    --     43.1235                81.7459               147.7082
 Raman Activ --     62.9527                87.9472                32.1336
 Depolar (P) --      0.7500                 0.5925                 0.7500
 Depolar (U) --      0.8571                 0.7441                 0.8571
  Atom  AN      X      Y      Z        X      Y      Z        X      Y      Z
     1   6    -0.00  -0.04  -0.05     0.00  -0.04  -0.05    -0.06   0.00   0.00
     2   1    -0.00   0.50   0.35     0.00   0.48   0.34    -0.01  -0.00  -0.00
     3   1    -0.21  -0.01   0.14    -0.21  -0.02   0.14     0.36   0.02  -0.27
     4   1     0.21  -0.01   0.14     0.21  -0.02   0.14     0.36  -0.02   0.27
     5   6    -0.00  -0.00  -0.00     0.00  -0.00  -0.01    -0.04   0.00  -0.00
     6   6    -0.00  -0.04   0.05    -0.00   0.04  -0.05    -0.06   0.00  -0.00
     7   1     0.00  -0.00   0.00     0.10   0.00   0.08     0.25   0.00   0.19
     8   1     0.00  -0.00  -0.00    -0.10  -0.00   0.08     0.25   0.00  -0.19
     9   1     0.21  -0.01  -0.14    -0.21   0.02   0.14     0.36  -0.02  -0.27
    10   1    -0.21  -0.01  -0.14     0.21   0.02   0.14     0.36   0.02   0.27
    11   1    -0.00   0.50  -0.35    -0.00  -0.48   0.34    -0.01  -0.00   0.00

 -------------------
 - Thermochemistry -
 -------------------
 Temperature   298.150 Kelvin.  Pressure   1.00000 Atm.
 Atom     1 has atomic number  6 and mass  12.00000
 Atom     2 has atomic number  1 and mass   1.00783
 Atom     3 has atomic number  1 and mass   1.00783
 Atom     4 has atomic number  1 and mass   1.00783
 Atom     5 has atomic number  6 and mass  12.00000
 Atom     6 has atomic number  6 and mass  12.00000
 Atom     7 has atomic number  1 and mass   1.00783
 Atom     8 has atomic number  1 and mass   1.00783
 Atom     9 has atomic number  1 and mass   1.00783
 Atom    10 has atomic number  1 and mass   1.00783
 Atom    11 has atomic number  1 and mass   1.00783
 Molecular mass:    44.06260 amu.
 Principal axes and moments of inertia in atomic units:
                           1         2         3
     Eigenvalues --    60.63418 213.98754 241.58931
           X           -0.00000  -0.00000   1.00000
           Y            1.00000  -0.00000   0.00000
           Z            0.00000   1.00000   0.00000
 This molecule is an asymmetric top.
 Rotational symmetry number  2.
 Rotational temperatures (Kelvin)      1.42847     0.40476     0.35852
 Rotational constants (GHZ):          29.76442     8.43386     7.47029
 Zero-point vibrational energy     290321.1 (Joules/Mol)
                                   69.38840 (Kcal/Mol)
 Warning -- explicit consideration of   3 degrees of freedom as
           vibrations may cause significant error
 Vibrational temperatures:    336.10   422.04   564.87  1162.56  1338.74
          (Kelvin)           1417.17  1459.03  1623.25  1850.26  1914.95
                             2065.44  2162.92  2246.76  2260.95  2351.88
                             2353.54  2362.95  2377.47  2386.07  4594.16
                             4595.64  4605.33  4629.05  4675.76  4687.93
                             4693.38  4696.99
 
 Zero-point correction=                           0.110577 (Hartree/Particle)
 Thermal correction to Energy=                    0.114939
 Thermal correction to Enthalpy=                  0.115884
 Thermal correction to Gibbs Free Energy=         0.085686
 Sum of electronic and zero-point Energies=           -118.153074
 Sum of electronic and thermal Energies=              -118.148712
 Sum of electronic and thermal Enthalpies=            -118.147768
 Sum of electronic and thermal Free Energies=         -118.177965
 
                     E (Thermal)             CV                S
                      KCal/Mol        Cal/Mol-Kelvin    Cal/Mol-Kelvin
 Total                   72.126             13.833             63.556
 Electronic               0.000              0.000              0.000
 Translational            0.889              2.981             37.275
 Rotational               0.889              2.981             21.288
 Vibrational             70.348              7.871              4.993
 Vibration     1          0.654              1.789              1.851
 Vibration     2          0.688              1.686              1.455
 Vibration     3          0.760              1.486              0.990
                       Q            Log10(Q)             Ln(Q)
 Total Bot       0.386559D-39        -39.412784        -90.751290
 Total V=0       0.281364D+12         11.449269         26.362916
 Vib (Bot)       0.335544D-50        -50.474251       -116.221258
 Vib (Bot)    1  0.841803D+00         -0.074790         -0.172210
 Vib (Bot)    2  0.650739D+00         -0.186593         -0.429647
 Vib (Bot)    3  0.456428D+00         -0.340628         -0.784324
 Vib (V=0)       0.244232D+01          0.387802          0.892948
 Vib (V=0)    1  0.147910D+01          0.169997          0.391432
 Vib (V=0)    2  0.132065D+01          0.120787          0.278122
 Vib (V=0)    3  0.117700D+01          0.070776          0.162967
 Electronic      0.100000D+01          0.000000          0.000000
 Translational   0.114963D+08          7.060559         16.257538
 Rotational      0.100209D+05          4.000907          9.212430
 ***** Axes restored to original set *****
 -------------------------------------------------------------------
 Center     Atomic                   Forces (Hartrees/Bohr)
 Number     Number              X              Y              Z
 -------------------------------------------------------------------
      1        6          -0.000026814    0.000102365   -0.000024314
      2        1           0.000016893   -0.000056489   -0.000021658
      3        1           0.000010800    0.000014336   -0.000005384
      4        1          -0.000015940    0.000006952   -0.000006982
      5        6           0.000023769   -0.000114337    0.000130599
      6        6           0.000002783    0.000013237   -0.000107730
      7        1           0.000031474    0.000007473    0.000003183
      8        1          -0.000030994   -0.000009777   -0.000000550
      9        1           0.000012710    0.000008586   -0.000010766
     10        1          -0.000014030    0.000001202   -0.000012364
     11        1          -0.000010649    0.000026451    0.000055967
 -------------------------------------------------------------------
 Cartesian Forces:  Max     0.000130599 RMS     0.000044613
 FormGI is forming the generalized inverse of G from B-inverse, IUseBI=4.

 GradGradGradGradGradGradGradGradGradGradGradGradGradGradGradGradGradGrad
 Berny optimization.
 Internal  Forces:  Max     0.000079923 RMS     0.000027281
 Search for a local minimum.
 Step number   1 out of a maximum of    2
 All quantities printed in internal units (Hartrees-Bohrs-Radians)
 Second derivative matrix not updated -- analytic derivatives used.
 ITU=  0
     Eigenvalues ---    0.00250   0.00306   0.04061   0.04646   0.05349
     Eigenvalues ---    0.05414   0.05503   0.05545   0.08371   0.11664
     Eigenvalues ---    0.14433   0.14722   0.14856   0.16562   0.17513
     Eigenvalues ---    0.19109   0.24817   0.32580   0.33667   0.36107
     Eigenvalues ---    0.36666   0.36789   0.36886   0.37082   0.37351
     Eigenvalues ---    0.38024   0.38225
 Angle between quadratic step and forces=  35.38 degrees.
 Linear search not attempted -- first point.
 Iteration  1 RMS(Cart)=  0.00016855 RMS(Int)=  0.00000004
 Iteration  2 RMS(Cart)=  0.00000004 RMS(Int)=  0.00000001
 ClnCor:  largest displacement from symmetrization is 7.78D-09 for atom     4.
 Variable       Old X    -DE/DX   Delta X   Delta X   Delta X     New X
                                 (Linear)    (Quad)   (Total)
    R1        2.05179  -0.00003   0.00000  -0.00008  -0.00008   2.05171
    R2        2.05320   0.00002   0.00000   0.00003   0.00003   2.05323
    R3        2.05320   0.00002   0.00000   0.00003   0.00003   2.05323
    R4        2.88781   0.00006   0.00000   0.00025   0.00025   2.88806
    R5        2.88781   0.00006   0.00000   0.00025   0.00025   2.88806
    R6        2.05450   0.00003   0.00000   0.00005   0.00005   2.05455
    R7        2.05450   0.00003   0.00000   0.00005   0.00005   2.05455
    R8        2.05320   0.00002   0.00000   0.00003   0.00003   2.05323
    R9        2.05320   0.00002   0.00000   0.00003   0.00003   2.05323
   R10        2.05179  -0.00003   0.00000  -0.00008  -0.00008   2.05171
    A1        1.88058   0.00003   0.00000   0.00013   0.00013   1.88071
    A2        1.88058   0.00003   0.00000   0.00013   0.00013   1.88071
    A3        1.94384  -0.00008   0.00000  -0.00050  -0.00050   1.94335
    A4        1.87839  -0.00001   0.00000   0.00011   0.00011   1.87849
    A5        1.93881   0.00002   0.00000   0.00008   0.00008   1.93889
    A6        1.93881   0.00002   0.00000   0.00008   0.00008   1.93889
    A7        1.96879  -0.00005   0.00000  -0.00018  -0.00018   1.96861
    A8        1.90917   0.00001   0.00000  -0.00002  -0.00002   1.90916
    A9        1.90917   0.00001   0.00000  -0.00002  -0.00002   1.90916
   A10        1.90917   0.00001   0.00000  -0.00002  -0.00002   1.90916
   A11        1.90917   0.00001   0.00000  -0.00002  -0.00002   1.90916
   A12        1.85488   0.00000   0.00000   0.00028   0.00028   1.85516
   A13        1.93881   0.00002   0.00000   0.00008   0.00008   1.93889
   A14        1.93881   0.00002   0.00000   0.00008   0.00008   1.93889
   A15        1.94384  -0.00008   0.00000  -0.00050  -0.00050   1.94335
   A16        1.87839  -0.00001   0.00000   0.00011   0.00011   1.87849
   A17        1.88058   0.00003   0.00000   0.00013   0.00013   1.88071
   A18        1.88058   0.00003   0.00000   0.00013   0.00013   1.88071
    D1       -3.14159   0.00000   0.00000  -0.00000   0.00000  -3.14159
    D2       -1.01255  -0.00001   0.00000  -0.00016  -0.00016  -1.01271
    D3        1.01255   0.00001   0.00000   0.00016   0.00016   1.01271
    D4       -1.04515  -0.00001   0.00000  -0.00012  -0.00012  -1.04527
    D5        1.08390  -0.00002   0.00000  -0.00028  -0.00028   1.08362
    D6        3.10899  -0.00000   0.00000   0.00004   0.00004   3.10903
    D7        1.04515   0.00001   0.00000   0.00012   0.00012   1.04527
    D8       -3.10899   0.00000   0.00000  -0.00004  -0.00004  -3.10903
    D9       -1.08390   0.00002   0.00000   0.00028   0.00028  -1.08362
   D10        1.04515   0.00001   0.00000   0.00012   0.00012   1.04527
   D11       -1.04515  -0.00001   0.00000  -0.00012  -0.00012  -1.04527
   D12        3.14159  -0.00000   0.00000  -0.00000   0.00000  -3.14159
   D13       -1.08390   0.00002   0.00000   0.00028   0.00028  -1.08362
   D14        3.10899  -0.00000   0.00000   0.00004   0.00004   3.10903
   D15        1.01255   0.00001   0.00000   0.00016   0.00016   1.01271
   D16       -3.10899   0.00000   0.00000  -0.00004  -0.00004  -3.10903
   D17        1.08390  -0.00002   0.00000  -0.00028  -0.00028   1.08362
   D18       -1.01255  -0.00001   0.00000  -0.00016  -0.00016  -1.01271
         Item               Value     Threshold  Converged?
 Maximum Force            0.000080     0.000450     YES
 RMS     Force            0.000027     0.000300     YES
 Maximum Displacement     0.000639     0.001800     YES
 RMS     Displacement     0.000169     0.001200     YES
 Predicted change in Energy=-8.752535D-08
 Optimization completed.
    -- Stationary point found.
                           ----------------------------
                           !   Optimized Parameters   !
                           ! (Angstroms and Degrees)  !
 --------------------------                            --------------------------
 ! Name  Definition              Value          Derivative Info.                !
 --------------------------------------------------------------------------------
 ! R1    R(1,2)                  1.0858         -DE/DX =    0.0                 !
 ! R2    R(1,3)                  1.0865         -DE/DX =    0.0                 !
 ! R3    R(1,4)                  1.0865         -DE/DX =    0.0                 !
 ! R4    R(1,5)                  1.5282         -DE/DX =    0.0001              !
 ! R5    R(5,6)                  1.5282         -DE/DX =    0.0001              !
 ! R6    R(5,7)                  1.0872         -DE/DX =    0.0                 !
 ! R7    R(5,8)                  1.0872         -DE/DX =    0.0                 !
 ! R8    R(6,9)                  1.0865         -DE/DX =    0.0                 !
 ! R9    R(6,10)                 1.0865         -DE/DX =    0.0                 !
 ! R10   R(6,11)                 1.0858         -DE/DX =    0.0                 !
 ! A1    A(2,1,3)              107.7495         -DE/DX =    0.0                 !
 ! A2    A(2,1,4)              107.7495         -DE/DX =    0.0                 !
 ! A3    A(2,1,5)              111.374          -DE/DX =   -0.0001              !
 ! A4    A(3,1,4)              107.6236         -DE/DX =    0.0                 !
 ! A5    A(3,1,5)              111.0858         -DE/DX =    0.0                 !
 ! A6    A(4,1,5)              111.0858         -DE/DX =    0.0                 !
 ! A7    A(1,5,6)              112.8033         -DE/DX =   -0.0001              !
 ! A8    A(1,5,7)              109.3876         -DE/DX =    0.0                 !
 ! A9    A(1,5,8)              109.3876         -DE/DX =    0.0                 !
 ! A10   A(6,5,7)              109.3876         -DE/DX =    0.0                 !
 ! A11   A(6,5,8)              109.3876         -DE/DX =    0.0                 !
 ! A12   A(7,5,8)              106.2767         -DE/DX =    0.0                 !
 ! A13   A(5,6,9)              111.0858         -DE/DX =    0.0                 !
 ! A14   A(5,6,10)             111.0858         -DE/DX =    0.0                 !
 ! A15   A(5,6,11)             111.374          -DE/DX =   -0.0001              !
 ! A16   A(9,6,10)             107.6236         -DE/DX =    0.0                 !
 ! A17   A(9,6,11)             107.7495         -DE/DX =    0.0                 !
 ! A18   A(10,6,11)            107.7495         -DE/DX =    0.0                 !
 ! D1    D(2,1,5,6)           -180.0            -DE/DX =    0.0                 !
 ! D2    D(2,1,5,7)            -58.0146         -DE/DX =    0.0                 !
 ! D3    D(2,1,5,8)             58.0146         -DE/DX =    0.0                 !
 ! D4    D(3,1,5,6)            -59.8827         -DE/DX =    0.0                 !
 ! D5    D(3,1,5,7)             62.1028         -DE/DX =    0.0                 !
 ! D6    D(3,1,5,8)            178.1319         -DE/DX =    0.0                 !
 ! D7    D(4,1,5,6)             59.8827         -DE/DX =    0.0                 !
 ! D8    D(4,1,5,7)           -178.1319         -DE/DX =    0.0                 !
 ! D9    D(4,1,5,8)            -62.1028         -DE/DX =    0.0                 !
 ! D10   D(1,5,6,9)             59.8827         -DE/DX =    0.0                 !
 ! D11   D(1,5,6,10)           -59.8827         -DE/DX =    0.0                 !
 ! D12   D(1,5,6,11)          -180.0            -DE/DX =    0.0                 !
 ! D13   D(7,5,6,9)            -62.1028         -DE/DX =    0.0                 !
 ! D14   D(7,5,6,10)           178.1319         -DE/DX =    0.0                 !
 ! D15   D(7,5,6,11)            58.0146         -DE/DX =    0.0                 !
 ! D16   D(8,5,6,9)           -178.1319         -DE/DX =    0.0                 !
 ! D17   D(8,5,6,10)            62.1028         -DE/DX =    0.0                 !
 ! D18   D(8,5,6,11)           -58.0146         -DE/DX =    0.0                 !
 --------------------------------------------------------------------------------
 GradGradGradGradGradGradGradGradGradGradGradGradGradGradGradGradGradGrad


 ----------------------------------------------------------------------

 Electric dipole moment (input orientation):
 (Debye = 10**-18 statcoulomb cm , SI units = C m)
                  (au)            (Debye)         (10**-30 SI)
   Tot        0.258922D-01      0.658114D-01      0.219523D+00
   x          0.351274D-02      0.892851D-02      0.297823D-01
   y         -0.168977D-01     -0.429497D-01     -0.143265D+00
   z          0.193011D-01      0.490585D-01      0.163642D+00

 Dipole polarizability, Alpha (input orientation).
 (esu units = cm**3 , SI units = C**2 m**2 J**-1)
 Alpha(0;0):
               (au)            (10**-24 esu)      (10**-40 SI)
   iso        0.322870D+02      0.478444D+01      0.532341D+01
   aniso      0.307309D+01      0.455385D+00      0.506684D+00
   xx         0.312358D+02      0.462867D+01      0.515009D+01
   yx        -0.587129D+00     -0.870035D-01     -0.968044D-01
   yy         0.328856D+02      0.487314D+01      0.542210D+01
   zx        -0.466672D+00     -0.691537D-01     -0.769439D-01
   zy         0.132342D+01      0.196110D+00      0.218202D+00
   zz         0.327395D+02      0.485150D+01      0.539802D+01

 First dipole hyperpolarizability, Beta (input orientation).
 ||, _|_  parallel and perpendicular components, (z) with respect to z axis,
 vector components x,y,z.  Values do not include the 1/n! factor of 1/2.
 (esu units = statvolt**-1 cm**4 , SI units = C**3 m**3 J**-2)
 Beta(0;0,0):
               (au)            (10**-30 esu)      (10**-50 SI)
   || (z)     0.205208D+01      0.177284D-01      0.657972D-02
   _|_(z)     0.684027D+00      0.590946D-02      0.219324D-02
   x          0.186736D+01      0.161326D-01      0.598744D-02
   y         -0.898277D+01     -0.776041D-01     -0.288020D-01
   z          0.102604D+02      0.886419D-01      0.328986D-01
   ||         0.275284D+01      0.237824D-01      0.882660D-02
   xxx       -0.800357D+01     -0.691446D-01     -0.256623D-01
   xxy        0.100590D+02      0.869018D-01      0.322527D-01
   yxy        0.149326D+02      0.129006D+00      0.478793D-01
   yyy       -0.228910D+02     -0.197761D+00     -0.733969D-01
   xxz       -0.160944D+02     -0.139044D+00     -0.516046D-01
   yxz       -0.258169D+01     -0.223038D-01     -0.827784D-02
   yyz       -0.655850D+01     -0.566604D-01     -0.210289D-01
   zxz       -0.630658D+01     -0.544840D-01     -0.202212D-01
   zyz        0.983777D+01      0.849907D-01      0.315435D-01
   zzz        0.260731D+02      0.225251D+00      0.835997D-01

 ----------------------------------------------------------------------

 Dipole orientation:
     6         -1.43879980         -1.02955137         -1.18316270
     1         -1.92141458          0.57980286         -0.00549428
     1          0.12453144         -0.47373471         -2.39258760
     1         -3.05000691         -1.42571850         -2.39258760
     6         -0.74787489         -3.33354820          0.41485742
     6         -0.05694998         -5.63754504         -1.18316270
     1          0.82662842         -2.86138455          1.64732021
     1         -2.32237820         -3.80571185          1.64732021
     1          1.55425713         -5.24137790         -2.39258760
     1         -1.62028122         -6.19336169         -2.39258760
     1          0.42566480         -7.24689926         -0.00549428

 Electric dipole moment (dipole orientation):
 (Debye = 10**-18 statcoulomb cm , SI units = C m)
                  (au)            (Debye)         (10**-30 SI)
   Tot        0.258922D-01      0.658114D-01      0.219523D+00
   x          0.000000D+00      0.000000D+00      0.000000D+00
   y          0.000000D+00      0.000000D+00      0.000000D+00
   z          0.258922D-01      0.658114D-01      0.219523D+00

 Dipole polarizability, Alpha (dipole orientation).
 (esu units = cm**3 , SI units = C**2 m**2 J**-1)
 Alpha(0;0):
               (au)            (10**-24 esu)      (10**-40 SI)
   iso        0.322870D+02      0.478444D+01      0.532341D+01
   aniso      0.307309D+01      0.455385D+00      0.506684D+00
   xx         0.313159D+02      0.464054D+01      0.516329D+01
   yx        -0.900623D+00     -0.133459D+00     -0.148493D+00
   yy         0.340491D+02      0.504555D+01      0.561394D+01
   zx         0.000000D+00      0.000000D+00      0.000000D+00
   zy         0.000000D+00      0.000000D+00      0.000000D+00
   zz         0.314960D+02      0.466722D+01      0.519299D+01

 First dipole hyperpolarizability, Beta (dipole orientation).
 ||, _|_  parallel and perpendicular components, (z) with respect to z axis,
 vector components x,y,z.  Values do not include the 1/n! factor of 1/2.
 (esu units = statvolt**-1 cm**4 , SI units = C**3 m**3 J**-2)
 Beta(0;0,0):
               (au)            (10**-30 esu)      (10**-50 SI)
   || (z)     0.275284D+01      0.237824D-01      0.882660D-02
   _|_(z)     0.917613D+00      0.792746D-02      0.294220D-02
   x          0.000000D+00      0.000000D+00      0.000000D+00
   y          0.000000D+00      0.000000D+00      0.000000D+00
   z          0.137642D+02      0.118912D+00      0.441330D-01
   ||         0.275284D+01      0.237824D-01      0.882660D-02
   xxx        0.000000D+00      0.000000D+00      0.000000D+00
   xxy        0.000000D+00      0.000000D+00      0.000000D+00
   yxy        0.000000D+00      0.000000D+00      0.000000D+00
   yyy        0.000000D+00      0.000000D+00      0.000000D+00
   xxz       -0.187744D+02     -0.162196D+00     -0.601974D-01
   yxz       -0.134389D+02     -0.116101D+00     -0.430899D-01
   yyz        0.220096D+02      0.190146D+00      0.705708D-01
   zxz        0.000000D+00      0.000000D+00      0.000000D+00
   zyz        0.000000D+00      0.000000D+00      0.000000D+00
   zzz        0.135280D+01      0.116872D-01      0.433757D-02

 ----------------------------------------------------------------------
 Unable to Open any file for archive entry.
 1\1\GINC-LOCALHOST\Freq\RHF\6-31G(d)\C3H8\USER\21-Mar-2026\0\\#N Geom=
 AllCheck Guess=TCheck SCRF=Check GenChk RHF/6-31G(d) Freq\\Propane-HF-
 6-31G(D)\\0,1\C,-0.8659298007,-0.0418886653,-0.7189844751\H,-0.9908776
 2,0.182271382,0.3360111867\H,-0.1192820286,0.6401069076,-1.116350893\H
 ,-1.8070149676,0.1740503653,-1.2172113018\C,-0.4512842329,-1.496935804
 2,-0.9339027431\C,-0.2660903226,-1.84822779,-2.4095653541\H,0.47427686
 76,-1.6914137525,-0.397707625\H,-1.1998822094,-2.1537219605,-0.4977568
 478\H,0.5013396149,-1.2288150243,-2.8655039947\H,-1.1863933241,-1.6948
 715666,-2.9663644035\H,0.0279529714,-2.8858053717,-2.5354495621\\Versi
 on=ES64L-G16RevC.02\State=1-A1\HF=-118.2636511\RMSD=1.188e-09\RMSF=4.4
 61e-05\ZeroPoint=0.1105775\Thermal=0.1149394\ETot=-118.1487117\HTot=-1
 18.1477675\GTot=-118.1779651\Dipole=0.0035127,-0.0168977,0.0193011\Dip
 oleDeriv=0.1728214,0.0330012,0.0070359,0.0315285,0.0714801,-0.0152473,
 0.0138408,-0.03989,0.1350757,0.0491492,0.0222532,0.0320105,0.0207925,-
 0.0048304,-0.0612648,0.0387601,-0.0857071,-0.195344,-0.074212,-0.11284
 25,0.0624709,-0.0727272,-0.0793395,0.0387086,0.0677402,0.0719401,0.015
 8365,-0.1367831,0.0653385,-0.0885136,0.0290058,0.0027283,0.0041274,-0.
 1112615,0.0341908,-0.0036603,0.1989919,0.0097678,0.0036329,0.0097678,0
 .1677228,-0.0054924,0.0036328,-0.0054925,0.1664962,0.1770133,0.0151345
 ,0.01945,0.0166071,0.1322037,-0.0461541,0.0126451,-0.0215114,0.0701602
 ,-0.1432327,0.0669205,-0.1142252,0.0510995,-0.0091643,0.0035354,-0.097
 3209,0.0091489,-0.0671303,-0.0750268,-0.1035324,0.0920994,-0.0877114,-
 0.0997665,0.0510896,0.075195,0.0454761,-0.044734,-0.0733231,-0.091583,
 0.0853621,-0.1116817,-0.0341144,0.0720188,0.0587055,0.0316852,-0.03027
 76,-0.1316705,0.0243903,-0.1208526,0.0407064,0.0444411,0.0251437,-0.07
 67175,0.0021825,-0.0504858,0.0362725,0.0711518,0.0215298,0.0726125,-0.
 1913611,-0.0664649,0.0147802,-0.0420226,0.0040634\Polar=31.2358408,-0.
 5871286,32.8855878,-0.4666723,1.3234189,32.7395488\PolarDeriv=2.189381
 3,-3.2450284,-3.0800837,3.2590056,0.3514052,1.0714593,-1.6913572,-2.66
 44081,2.3631409,0.3480329,1.8191566,-1.2434549,3.3986778,0.4517122,1.6
 242167,1.5244251,-2.8473591,-5.40598,-0.9541803,1.1380634,0.2846707,1.
 875485,-0.3344814,-0.7017655,0.2406131,-0.0549776,1.1722406,-0.3153059
 ,2.66103,1.3780311,0.0822721,-0.4053679,1.0996486,-1.1453607,2.5909686
 ,8.8679688,3.4328874,2.7103738,2.2676371,-1.4499331,-0.3188608,0.42155
 31,1.0294918,2.8289652,4.5426321,-0.2731607,-1.3467659,0.4034338,-0.94
 17078,-0.4127932,-1.1517876,1.3603654,2.002478,-0.8646109,-6.4365669,2
 .140004,-0.6613495,-2.0299827,0.2407551,-0.8478389,1.0048252,-1.960521
 2,0.9696833,0.1778804,-1.3448278,0.116308,-1.5642656,0.4197583,-0.8456
 965,-2.4267236,1.0520448,-1.3888504,-2.2405999,3.3165843,3.2470431,-4.
 7795821,-0.6273797,-1.3423289,2.3260697,3.0343404,-2.7218493,-0.633325
 2,-2.4021318,2.0115278,-3.6555225,-0.5980261,-1.3746236,-1.5212058,2.9
 046668,3.1845836,1.4453371,-1.8817305,-2.9353373,4.4557778,0.6624293,1
 .3396435,-2.1945299,-3.1220367,4.8391323,0.6404305,2.1553722,-2.219167
 7,2.8674283,0.6873842,0.4896194,1.2599967,-2.2716757,-2.8069261,5.9994
 396,-1.7794695,0.3998102,3.146174,-0.3027169,1.8359734,-0.8847062,1.59
 06992,-0.6098757,-0.2439506,1.6258272,-0.503091,1.781205,-0.3436821,0.
 5475825,2.9257325,-1.1376236,2.7276322,-3.5183227,-2.6339444,-2.055316
 5,2.407312,0.7886404,-0.9819471,-1.2192766,-2.7287952,-3.7180343,0.762
 5467,1.9795906,-1.1447484,1.174701,0.6682951,0.9908421,-1.7401783,-2.2
 845204,2.0069649,4.1935344,1.9185629,1.1444446,-2.6601446,-0.5561146,1
 .1766717,1.2597994,2.3759679,2.1537157,-0.7578361,-1.596551,1.3798593,
 -1.2897373,-0.5070877,-0.26242,2.1553876,1.8626511,-2.5123726,-5.36931
 05,0.5458012,-0.1045176,-3.0527519,-0.2048849,-2.079354,0.5263555,-1.3
 639008,-0.1927374,-0.0203995,-1.4983031,0.5750151,-1.4483061,-0.169089
 5,-0.1365658,-2.9879285,0.488114,-3.3203642,1.2584007,-2.229217,1.4929
 995,-1.1713604,0.3012084,0.1079331,-0.3972844,2.0646668,-8.798048,0.31
 50877,-2.0523972,-0.7537134,-0.4047455,0.2088968,-0.9808178,0.5954894,
 -2.3597448,-0.4880464\HyperPolar=-8.003571,10.0589852,14.9326072,-22.8
 910139,-16.0944495,-2.5816939,-6.5585028,-6.3065818,9.8377716,26.07308
 82\Quadrupole=0.2564229,-0.1267371,-0.1296858,0.1238059,0.0602802,-0.1
 26556\PG=C02V [C2(C1),SGV(C2H2),SGV'(H2),X(H4)]\NImag=0\\0.63601144,0.
 02419396,0.55763743,0.00265453,-0.01109022,0.64967774,-0.06340927,0.00
 612821,0.03063134,0.06015064,0.00600063,-0.07021997,-0.05266147,-0.008
 23204,0.07260371,0.03122084,-0.05479624,-0.32911291,-0.03456567,0.0601
 5719,0.35623651,-0.19574525,-0.12163558,0.07160632,-0.00210943,-0.0008
 2940,0.00133238,0.20831081,-0.11998815,-0.16610273,0.06321958,0.006488
 63,0.00571561,-0.00168707,0.13291243,0.18055768,0.07172842,0.06430451,
 -0.09827619,0.02672344,0.02379009,-0.01205136,-0.08087845,-0.07056190,
 0.09891651,-0.27136726,0.04573632,-0.11185420,0.00617978,-0.00190640,0
 .00169838,-0.02212774,0.00484062,-0.01242074,0.29232129,0.04421614,-0.
 06877353,0.02361909,-0.00713214,0.00102482,-0.00253679,-0.02016645,0.0
 0538036,-0.01283845,-0.05175750,0.07216062,-0.11256431,0.02466351,-0.1
 1998337,-0.03336075,0.00699707,-0.01564978,0.01329174,-0.00424367,0.00
 796142,0.12566651,-0.02594827,0.12330310,-0.10700598,0.03409466,0.0036
 9720,-0.00177066,0.00317966,-0.00033573,0.00929046,-0.02795294,-0.0042
 5671,-0.00790979,0.03454483,0.00542937,0.66473230,0.03394296,-0.217446
 25,-0.01313042,0.00078367,-0.00406669,0.00146059,0.00806770,-0.0221230
 6,-0.00349652,0.00075105,-0.00557353,-0.00097518,0.02842758,0.57866718
 ,0.00439818,-0.01566887,-0.09856349,0.01073567,-0.03863235,-0.00204383
 ,-0.00464600,0.01436203,0.00183037,-0.00447123,0.01842906,0.00248109,0
 .01590919,-0.03733145,0.57982042,-0.00048381,0.00298489,0.01159690,-0.
 00024893,0.00224216,0.00041034,0.00030126,-0.00108100,-0.00106155,-0.0
 0005906,-0.00003241,0.00101529,-0.09906477,0.00303748,0.01432337,0.642
 12617,0.00510159,-0.00861236,-0.04079507,0.00243293,-0.00805027,-0.001
 68830,-0.00033133,0.00157115,-0.00036274,-0.00061163,0.00181078,0.0001
 9996,0.00288578,-0.10241058,-0.02499729,0.00027995,0.64621483,0.001816
 04,-0.00537561,-0.00451535,-0.00047119,0.00150402,0.00132965,-0.000377
 51,0.00132137,0.00066878,-0.00045641,0.00136820,0.00078946,0.01502435,
 -0.02753574,-0.22154037,0.01083667,-0.02022771,0.55498561,-0.00786009,
 0.00113905,-0.00421575,-0.00005533,0.00012766,0.00068915,0.00105330,0.
 00042963,-0.00001307,0.00125888,0.00224441,0.00084985,-0.26415210,0.03
 996353,-0.11540630,0.00629689,-0.00124587,0.00389143,0.28378701,0.0345
 2785,-0.00639531,0.01885524,-0.00059815,0.00173649,-0.00044279,-0.0009
 3675,0.00168705,0.00056693,0.00221659,-0.00789804,-0.00132273,0.038639
 95,-0.06880270,0.02393033,-0.00837348,0.00159780,-0.00479925,-0.046261
 10,0.07245814,0.00588214,-0.00136520,0.00334455,0.00020933,0.00068821,
 0.00060156,-0.00027820,0.00048735,-0.00017341,0.00049119,-0.00159267,0
 .00084504,-0.11399210,0.02439995,-0.12575379,-0.03426580,0.00610339,-0
 .01880555,0.12662735,-0.02308866,0.13580982,0.00935270,0.00824086,-0.0
 0516852,0.00031502,-0.00107721,-0.00042826,0.00076417,0.00313857,0.000
 03956,0.00101524,-0.00089551,-0.00017579,-0.19599757,-0.11587525,0.075
 28523,-0.00222349,-0.00179333,0.00092524,-0.02314480,-0.01976962,0.012
 98834,0.20764076,-0.02747385,-0.02286812,0.01460281,-0.00021636,0.0014
 8096,-0.00073465,0.00314728,-0.00735639,-0.00148270,0.00046113,0.00171
 004,0.00060616,-0.11455167,-0.15933659,0.06630897,0.00766020,0.0065239
 5,-0.00451955,0.00409360,0.00486627,-0.00397924,0.12637238,0.17360792,
 -0.00451883,-0.00409701,0.00260457,-0.00057248,0.00039420,0.00048674,0
 .00048648,-0.00153237,0.00079810,0.00013435,0.00052271,-0.00015834,0.0
 7387102,0.06583935,-0.10337444,0.02833490,0.02349807,-0.01521131,-0.01
 250885,-0.01244621,0.00864279,-0.08484442,-0.06991189,0.11080629,-0.00
 024060,-0.00044059,-0.00020660,0.00021817,0.00033611,-0.00015481,0.000
 19312,0.00072623,0.00019476,-0.00004954,-0.00005071,0.00003127,-0.0022
 0315,-0.00197348,0.00063337,-0.20148709,-0.11402573,0.08166787,0.00088
 257,0.00049103,0.00040630,0.00155884,0.00042303,0.00068372,0.21374157,
 0.00081955,0.00109076,0.00004914,-0.00006213,0.00024169,0.00014822,-0.
 00020370,0.00022580,-0.00005889,0.00001805,-0.00003415,-0.00001384,0.0
 0749827,0.00558603,-0.00390268,-0.11467469,-0.15295050,0.06667744,0.00
 005506,0.00006370,0.00093079,0.00082970,0.00059383,-0.00236357,0.12805
 165,0.16058496,-0.00006797,0.00155214,0.00169103,-0.00051314,0.0000296
 7,0.00025533,-0.00027728,-0.00125832,0.00021170,-0.00000731,-0.0002060
 9,-0.00000360,0.02861084,0.02337576,-0.01438511,0.08047893,0.06523823,
 -0.10568658,-0.00085295,0.00052110,0.00162067,0.00070543,-0.00255444,-
 0.00794679,-0.09111127,-0.07213944,0.11345848,0.00036125,-0.00019742,-
 0.00000232,0.00029126,-0.00030601,0.00005107,-0.00006938,0.00005500,-0
 .00002533,0.00034728,-0.00049097,-0.00013675,0.00595384,-0.00070349,0.
 00371062,-0.26453157,0.03397582,-0.12104008,0.00158855,0.00056277,0.00
 171018,0.00095547,-0.00005545,-0.00090359,-0.02220602,0.00462882,-0.01
 297895,0.28487236,-0.00128710,0.00053028,-0.00003027,0.00008743,0.0001
 0010,0.00021281,-0.00003340,-0.00001765,-0.00003222,0.00031449,0.00002
 102,-0.00012202,-0.00794838,0.00104923,-0.00411063,0.03449752,-0.06608
 041,0.02065601,0.00013700,0.00043886,-0.00212200,0.00037077,-0.0000055
 9,0.00058674,-0.01934234,0.00424637,-0.01281574,-0.03900386,0.06289826
 ,-0.00092860,0.00131908,0.00164966,0.00043160,0.00025097,0.00032383,0.
 00010402,-0.00016870,-0.00000026,0.00091050,-0.00100561,0.00026232,-0.
 03455674,0.00587372,-0.01800529,-0.11926313,0.01996585,-0.12951219,0.0
 0177673,-0.00225075,-0.00782154,0.00040067,0.00083341,0.00161705,0.013
 64045,-0.00403243,0.00917369,0.13319880,-0.02135489,0.14001439,0.00038
 686,-0.00024437,0.00126110,0.00043875,0.00046484,0.00008231,0.00013867
 ,0.00043097,-0.00003034,0.00039092,-0.00047970,-0.00004642,-0.00187258
 ,0.00357825,-0.00047211,-0.08062561,0.07333182,0.00818358,0.00034513,-
 0.00049909,0.00022127,-0.00023635,0.00013971,-0.00016231,0.00959214,-0
 .02696055,-0.00398633,-0.00756304,0.03220787,0.00428569,0.07900511,-0.
 00005359,0.00115982,-0.00263840,0.00031994,-0.00056645,-0.00009297,0.0
 0000919,0.00046219,0.00017191,-0.00006273,0.00017161,0.00015900,0.0011
 8226,-0.00554304,0.00161288,0.07345939,-0.31961440,-0.02906917,-0.0006
 8297,0.00024774,-0.00046192,0.00045863,0.00078373,-0.00049002,0.005804
 81,-0.01964850,-0.00174286,0.00153480,-0.00318048,0.00056933,-0.081969
 73,0.34572779,0.00037957,0.00055392,-0.00851623,0.00075185,-0.00251759
 ,-0.00037574,-0.00036352,0.00006170,0.00011433,0.00030895,0.00018882,0
 .00015266,0.01059930,-0.03848006,-0.00046556,0.00759408,-0.02693440,-0
 .06250214,-0.00083759,0.00047680,0.00168985,0.00027251,0.00083112,0.00
 173535,-0.00578505,0.01470526,0.00161117,-0.00358367,0.01913222,0.0022
 9834,-0.00933643,0.03198221,0.06425797\\0.00002681,-0.00010236,0.00002
 431,-0.00001689,0.00005649,0.00002166,-0.00001080,-0.00001434,0.000005
 38,0.00001594,-0.00000695,0.00000698,-0.00002377,0.00011434,-0.0001306
 0,-0.00000278,-0.00001324,0.00010773,-0.00003147,-0.00000747,-0.000003
 18,0.00003099,0.00000978,0.00000055,-0.00001271,-0.00000859,0.00001077
 ,0.00001403,-0.00000120,0.00001236,0.00001065,-0.00002645,-0.00005597\
 \\@
 The archive entry for this job was punched.


 WHEN ALL ELSE FAILS, TRY THE BOSS'S SUGGESTION.
 Job cpu time:       0 days  0 hours  0 minutes 37.8 seconds.
 Elapsed time:       0 days  0 hours  0 minutes  2.3 seconds.
 File lengths (MBytes):  RWF=      6 Int=      0 D2E=      0 Chk=      2 Scr=      1
 Normal termination of Gaussian 16 at Sat Mar 21 10:17:33 2026.
