 Entering Gaussian System, Link 0=g16
 Input=Propane-DFT-6-31G(D).gjf
 Output=Propane-DFT-6-31G(D).log
 Initial command:
 /home/user/gaussian16_I/g16/l1.exe "/home/user/gaussian16_I/temp/Gau-3559937.inp" -scrdir="/home/user/gaussian16_I/temp/"
 Entering Link 1 = /home/user/gaussian16_I/g16/l1.exe PID=   3559938.
  
 Copyright (c) 1988-2021, Gaussian, Inc.  All Rights Reserved.
  
 This is part of the Gaussian(R) 16 program.  It is based on
 the Gaussian(R) 09 system (copyright 2009, Gaussian, Inc.),
 the Gaussian(R) 03 system (copyright 2003, Gaussian, Inc.),
 the Gaussian(R) 98 system (copyright 1998, Gaussian, Inc.),
 the Gaussian(R) 94 system (copyright 1995, Gaussian, Inc.),
 the Gaussian 92(TM) system (copyright 1992, Gaussian, Inc.),
 the Gaussian 90(TM) system (copyright 1990, Gaussian, Inc.),
 the Gaussian 88(TM) system (copyright 1988, Gaussian, Inc.),
 the Gaussian 86(TM) system (copyright 1986, Carnegie Mellon
 University), and the Gaussian 82(TM) system (copyright 1983,
 Carnegie Mellon University). Gaussian is a federally registered
 trademark of Gaussian, Inc.
  
 This software contains proprietary and confidential information,
 including trade secrets, belonging to Gaussian, Inc.
  
 This software is provided under written license and may be
 used, copied, transmitted, or stored only in accord with that
 written license.
  
 The following legend is applicable only to US Government
 contracts under FAR:
  
                    RESTRICTED RIGHTS LEGEND
  
 Use, reproduction and disclosure by the US Government is
 subject to restrictions as set forth in subparagraphs (a)
 and (c) of the Commercial Computer Software - Restricted
 Rights clause in FAR 52.227-19.
  
 Gaussian, Inc.
 340 Quinnipiac St., Bldg. 40, Wallingford CT 06492
  
  
 ---------------------------------------------------------------
 Warning -- This program may not be used in any manner that
 competes with the business of Gaussian, Inc. or will provide
 assistance to any competitor of Gaussian, Inc.  The licensee
 of this program is prohibited from giving any competitor of
 Gaussian, Inc. access to this program.  By using this program,
 the user acknowledges that Gaussian, Inc. is engaged in the
 business of creating and licensing software in the field of
 computational chemistry and represents and warrants to the
 licensee that it is not a competitor of Gaussian, Inc. and that
 it will not use this program in any manner prohibited above.
 ---------------------------------------------------------------
  

 Cite this work as:
 Gaussian 16, Revision C.02,
 M. J. Frisch, G. W. Trucks, H. B. Schlegel, G. E. Scuseria, 
 M. A. Robb, J. R. Cheeseman, G. Scalmani, V. Barone, 
 G. A. Petersson, H. Nakatsuji, X. Li, M. Caricato, A. V. Marenich, 
 J. Bloino, B. G. Janesko, R. Gomperts, B. Mennucci, H. P. Hratchian, 
 J. V. Ortiz, A. F. Izmaylov, J. L. Sonnenberg, D. Williams-Young, 
 F. Ding, F. Lipparini, F. Egidi, J. Goings, B. Peng, A. Petrone, 
 T. Henderson, D. Ranasinghe, V. G. Zakrzewski, J. Gao, N. Rega, 
 G. Zheng, W. Liang, M. Hada, M. Ehara, K. Toyota, R. Fukuda, 
 J. Hasegawa, M. Ishida, T. Nakajima, Y. Honda, O. Kitao, H. Nakai, 
 T. Vreven, K. Throssell, J. A. Montgomery, Jr., J. E. Peralta, 
 F. Ogliaro, M. J. Bearpark, J. J. Heyd, E. N. Brothers, K. N. Kudin, 
 V. N. Staroverov, T. A. Keith, R. Kobayashi, J. Normand, 
 K. Raghavachari, A. P. Rendell, J. C. Burant, S. S. Iyengar, 
 J. Tomasi, M. Cossi, J. M. Millam, M. Klene, C. Adamo, R. Cammi, 
 J. W. Ochterski, R. L. Martin, K. Morokuma, O. Farkas, 
 J. B. Foresman, and D. J. Fox, Gaussian, Inc., Wallingford CT, 2019.
 
 ******************************************
 Gaussian 16:  ES64L-G16RevC.02  7-Dec-2021
                21-Mar-2026 
 ******************************************
 %mem=10GB
 %CPU=0-23
 SetSPE:  set environment variable "OMP_PROC_BIND" = "true"
 SetSPE:  set environment variable "OMP_PLACES" = "{0},{1},{2},{3},{4},{5},{6},{7},{8},{9},{10},{11},{12},{13},{14},{15},{16},{17},{18},{19},{20},{21},{22},{23}"
 Will use up to   24 processors via shared memory.
 %chk=Propane-DFT-6-31G(D).chk
 ---------------------------------------------------
 # opt freq b3lyp/6-31g(d) pop=nbo geom=connectivity
 ---------------------------------------------------
 1/18=20,19=15,26=3,38=1,57=2/1,3;
 2/9=110,12=2,17=6,18=5,40=1/2;
 3/5=1,6=6,7=1,11=2,25=1,30=1,71=1,74=-5/1,2,3;
 4//1;
 5/5=2,38=5/2;
 6/7=2,8=2,9=2,10=2,28=1,40=1/1,7;
 7//1,2,3,16;
 1/18=20,19=15,26=3/3(2);
 2/9=110/2;
 99//99;
 2/9=110/2;
 3/5=1,6=6,7=1,11=2,25=1,30=1,71=1,74=-5/1,2,3;
 4/5=5,16=3,69=1/1;
 5/5=2,38=5/2;
 7//1,2,3,16;
 1/18=20,19=15,26=3/3(-5);
 2/9=110/2;
 6/7=2,8=2,9=2,10=2,19=2,28=1,40=1/1,7;
 99/9=1/99;
 --------------------
 Propane-dft-6-31G(D)
 --------------------
 Symbolic Z-matrix:
 Charge =  0 Multiplicity = 1
 C                    -0.86401  -0.04457  -0.73872 
 H                    -0.98605   0.17217   0.30197 
 H                    -0.10708   0.59076  -1.14898 
 H                    -1.78856   0.12643  -1.24947 
 C                    -0.44711  -1.51703  -0.91095 
 C                    -0.27146  -1.82897  -2.40876 
 H                     0.47744  -1.68803  -0.4002 
 H                    -1.20404  -2.15236  -0.50069 
 H                     0.48547  -1.19364  -2.81903 
 H                    -1.19601  -1.65797  -2.91952 
 H                     0.01821  -2.85204  -2.52844 
 

 GradGradGradGradGradGradGradGradGradGradGradGradGradGradGradGradGradGrad
 Berny optimization.
 Initialization pass.
                           ----------------------------
                           !    Initial Parameters    !
                           ! (Angstroms and Degrees)  !
 --------------------------                            --------------------------
 ! Name  Definition              Value          Derivative Info.                !
 --------------------------------------------------------------------------------
 ! R1    R(1,2)                  1.07           estimate D2E/DX2                !
 ! R2    R(1,3)                  1.07           estimate D2E/DX2                !
 ! R3    R(1,4)                  1.07           estimate D2E/DX2                !
 ! R4    R(1,5)                  1.54           estimate D2E/DX2                !
 ! R5    R(5,6)                  1.54           estimate D2E/DX2                !
 ! R6    R(5,7)                  1.07           estimate D2E/DX2                !
 ! R7    R(5,8)                  1.07           estimate D2E/DX2                !
 ! R8    R(6,9)                  1.07           estimate D2E/DX2                !
 ! R9    R(6,10)                 1.07           estimate D2E/DX2                !
 ! R10   R(6,11)                 1.07           estimate D2E/DX2                !
 ! A1    A(2,1,3)              109.4712         estimate D2E/DX2                !
 ! A2    A(2,1,4)              109.4712         estimate D2E/DX2                !
 ! A3    A(2,1,5)              109.4712         estimate D2E/DX2                !
 ! A4    A(3,1,4)              109.4712         estimate D2E/DX2                !
 ! A5    A(3,1,5)              109.4712         estimate D2E/DX2                !
 ! A6    A(4,1,5)              109.4712         estimate D2E/DX2                !
 ! A7    A(1,5,6)              109.4712         estimate D2E/DX2                !
 ! A8    A(1,5,7)              109.4712         estimate D2E/DX2                !
 ! A9    A(1,5,8)              109.4712         estimate D2E/DX2                !
 ! A10   A(6,5,7)              109.4712         estimate D2E/DX2                !
 ! A11   A(6,5,8)              109.4712         estimate D2E/DX2                !
 ! A12   A(7,5,8)              109.4712         estimate D2E/DX2                !
 ! A13   A(5,6,9)              109.4712         estimate D2E/DX2                !
 ! A14   A(5,6,10)             109.4712         estimate D2E/DX2                !
 ! A15   A(5,6,11)             109.4712         estimate D2E/DX2                !
 ! A16   A(9,6,10)             109.4712         estimate D2E/DX2                !
 ! A17   A(9,6,11)             109.4712         estimate D2E/DX2                !
 ! A18   A(10,6,11)            109.4712         estimate D2E/DX2                !
 ! D1    D(2,1,5,6)            180.0            estimate D2E/DX2                !
 ! D2    D(2,1,5,7)            -60.0            estimate D2E/DX2                !
 ! D3    D(2,1,5,8)             60.0            estimate D2E/DX2                !
 ! D4    D(3,1,5,6)            -60.0            estimate D2E/DX2                !
 ! D5    D(3,1,5,7)             60.0            estimate D2E/DX2                !
 ! D6    D(3,1,5,8)            180.0            estimate D2E/DX2                !
 ! D7    D(4,1,5,6)             60.0            estimate D2E/DX2                !
 ! D8    D(4,1,5,7)           -180.0            estimate D2E/DX2                !
 ! D9    D(4,1,5,8)            -60.0            estimate D2E/DX2                !
 ! D10   D(1,5,6,9)             60.0            estimate D2E/DX2                !
 ! D11   D(1,5,6,10)           -60.0            estimate D2E/DX2                !
 ! D12   D(1,5,6,11)           180.0            estimate D2E/DX2                !
 ! D13   D(7,5,6,9)            -60.0            estimate D2E/DX2                !
 ! D14   D(7,5,6,10)           180.0            estimate D2E/DX2                !
 ! D15   D(7,5,6,11)            60.0            estimate D2E/DX2                !
 ! D16   D(8,5,6,9)            180.0            estimate D2E/DX2                !
 ! D17   D(8,5,6,10)            60.0            estimate D2E/DX2                !
 ! D18   D(8,5,6,11)           -60.0            estimate D2E/DX2                !
 --------------------------------------------------------------------------------
 Trust Radius=3.00D-01 FncErr=1.00D-07 GrdErr=1.00D-06 EigMax=2.50D+02 EigMin=1.00D-04
 Number of steps in this run=     56 maximum allowed number of steps=    100.
 GradGradGradGradGradGradGradGradGradGradGradGradGradGradGradGradGradGrad

                          Input orientation:                          
 ---------------------------------------------------------------------
 Center     Atomic      Atomic             Coordinates (Angstroms)
 Number     Number       Type             X           Y           Z
 ---------------------------------------------------------------------
      1          6           0       -0.864010   -0.044571   -0.738716
      2          1           0       -0.986054    0.172170    0.301970
      3          1           0       -0.107082    0.590758   -1.148981
      4          1           0       -1.788560    0.126429   -1.249467
      5          6           0       -0.447108   -1.517027   -0.910954
      6          6           0       -0.271456   -1.828972   -2.408765
      7          1           0        0.477442   -1.688027   -0.400203
      8          1           0       -1.204036   -2.152356   -0.500690
      9          1           0        0.485472   -1.193642   -2.819029
     10          1           0       -1.196006   -1.657971   -2.919516
     11          1           0        0.018210   -2.852042   -2.528436
 ---------------------------------------------------------------------
                    Distance matrix (angstroms):
                    1          2          3          4          5
     1  C    0.000000
     2  H    1.070000   0.000000
     3  H    1.070000   1.747303   0.000000
     4  H    1.070000   1.747303   1.747303   0.000000
     5  C    1.540000   2.148263   2.148263   2.148263   0.000000
     6  C    2.514809   3.444314   2.732978   2.732978   1.540000
     7  H    2.148263   2.468846   2.468846   3.024610   1.070000
     8  H    2.148263   2.468846   3.024610   2.468846   1.070000
     9  H    2.732978   3.710993   2.514809   3.062243   2.148263
    10  H    2.732978   3.710993   3.062243   2.514809   2.148263
    11  H    3.444314   4.262112   3.710993   3.710993   2.148263
                    6          7          8          9         10
     6  C    0.000000
     7  H    2.148263   0.000000
     8  H    2.148263   1.747303   0.000000
     9  H    1.070000   2.468846   3.024610   0.000000
    10  H    1.070000   3.024610   2.468846   1.747303   0.000000
    11  H    1.070000   2.468846   2.468846   1.747303   1.747303
                   11
    11  H    0.000000
 Stoichiometry    C3H8
 Framework group  C2V[C2(C),SGV(C2H2),SGV'(H2),X(H4)]
 Deg. of freedom     9
 Full point group                 C2V     NOp   4
 Largest Abelian subgroup         C2V     NOp   4
 Largest concise Abelian subgroup C2V     NOp   4
                         Standard orientation:                         
 ---------------------------------------------------------------------
 Center     Atomic      Atomic             Coordinates (Angstroms)
 Number     Number       Type             X           Y           Z
 ---------------------------------------------------------------------
      1          6           0       -0.000000    1.257405   -0.273575
      2          1           0       -0.000000    2.131056    0.344190
      3          1           0        0.873651    1.257405   -0.891340
      4          1           0       -0.873651    1.257405   -0.891340
      5          6           0        0.000000    0.000000    0.615544
      6          6           0       -0.000000   -1.257405   -0.273575
      7          1           0        0.873651    0.000000    1.233309
      8          1           0       -0.873651    0.000000    1.233309
      9          1           0        0.873651   -1.257405   -0.891340
     10          1           0       -0.873651   -1.257405   -0.891340
     11          1           0       -0.000000   -2.131056    0.344190
 ---------------------------------------------------------------------
 Rotational constants (GHZ):          28.9413801           8.7001315           7.6203163
 Standard basis: 6-31G(d) (6D, 7F)
 There are    25 symmetry adapted cartesian basis functions of A1  symmetry.
 There are     7 symmetry adapted cartesian basis functions of A2  symmetry.
 There are    11 symmetry adapted cartesian basis functions of B1  symmetry.
 There are    18 symmetry adapted cartesian basis functions of B2  symmetry.
 There are    25 symmetry adapted basis functions of A1  symmetry.
 There are     7 symmetry adapted basis functions of A2  symmetry.
 There are    11 symmetry adapted basis functions of B1  symmetry.
 There are    18 symmetry adapted basis functions of B2  symmetry.
    61 basis functions,   116 primitive gaussians,    61 cartesian basis functions
    13 alpha electrons       13 beta electrons
       nuclear repulsion energy        83.3207430581 Hartrees.
 NAtoms=   11 NActive=   11 NUniq=    5 SFac= 4.00D+00 NAtFMM=   60 NAOKFM=F Big=F
 Integral buffers will be    131072 words long.
 Raffenetti 2 integral format.
 Two-electron integral symmetry is turned on.
 One-electron integrals computed using PRISM.
 NBasis=    61 RedAO= T EigKep=  5.96D-03  NBF=    25     7    11    18
 NBsUse=    61 1.00D-06 EigRej= -1.00D+00 NBFU=    25     7    11    18
 ExpMin= 1.61D-01 ExpMax= 3.05D+03 ExpMxC= 4.57D+02 IAcc=3 IRadAn=         5 AccDes= 0.00D+00
 Harris functional with IExCor=  402 and IRadAn=       5 diagonalized for initial guess.
 HarFok:  IExCor=  402 AccDes= 0.00D+00 IRadAn=         5 IDoV= 1 UseB2=F ITyADJ=14
 ICtDFT=  3500011 ScaDFX=  1.000000  1.000000  1.000000  1.000000
 FoFCou: FMM=F IPFlag=           0 FMFlag=      100000 FMFlg1=           0
         NFxFlg=           0 DoJE=T BraDBF=F KetDBF=T FulRan=T
         wScrn=  0.000000 ICntrl=       500 IOpCl=  0 I1Cent=   200000004 NGrid=           0
         NMat0=    1 NMatS0=      1 NMatT0=    0 NMatD0=    1 NMtDS0=    0 NMtDT0=    0
 Petite list used in FoFCou.
 Initial guess orbital symmetries:
       Occupied  (B2) (A1) (A1) (A1) (B2) (A1) (B1) (A1) (B2) (A2)
                 (A1) (B2) (B1)
       Virtual   (A1) (B2) (B1) (A1) (A1) (B2) (A1) (B1) (A2) (B2)
                 (A1) (B2) (B1) (A1) (A2) (A1) (B2) (B1) (B2) (A1)
                 (B1) (B2) (A1) (A2) (B1) (A1) (B2) (A1) (A2) (A1)
                 (B2) (A1) (B2) (B2) (B1) (A1) (A2) (A1) (B1) (B2)
                 (B1) (A2) (A1) (A1) (B2) (A1) (B2) (A1)
 The electronic state of the initial guess is 1-A1.
 Keep R1 ints in memory in symmetry-blocked form, NReq=23039808.
 Requested convergence on RMS density matrix=1.00D-08 within 128 cycles.
 Requested convergence on MAX density matrix=1.00D-06.
 Requested convergence on             energy=1.00D-06.
 No special actions if energy rises.
 Integral accuracy reduced to 1.0D-05 until final iterations.
 Initial convergence to 1.0D-05 achieved.  Increase integral accuracy.
 SCF Done:  E(RB3LYP) =  -119.139214970     A.U. after   11 cycles
            NFock= 11  Conv=0.26D-08     -V/T= 2.0082

 **********************************************************************

            Population analysis using the SCF Density.

 **********************************************************************

 Orbital symmetries:
       Occupied  (A1) (B2) (A1) (A1) (B2) (A1) (B1) (A1) (B2) (A2)
                 (B1) (A1) (B2)
       Virtual   (A1) (B1) (B2) (A1) (A1) (B1) (B2) (A2) (A1) (B2)
                 (A1) (B2) (B1) (A1) (A2) (A1) (B2) (B1) (B2) (B1)
                 (A1) (B2) (A1) (A2) (B1) (A1) (B2) (A1) (B2) (A1)
                 (A2) (A1) (B2) (B2) (B1) (A1) (A2) (A1) (B1) (B2)
                 (B1) (A2) (A1) (A1) (B2) (A1) (B2) (A1)
 The electronic state is 1-A1.
 Alpha  occ. eigenvalues --  -10.16985 -10.16026 -10.16025  -0.77774  -0.67849
 Alpha  occ. eigenvalues --   -0.58481  -0.46065  -0.43370  -0.39529  -0.38284
 Alpha  occ. eigenvalues --   -0.33426  -0.33372  -0.32361
 Alpha virt. eigenvalues --    0.09890   0.15653   0.15782   0.15873   0.17823
 Alpha virt. eigenvalues --    0.19774   0.20721   0.21013   0.22567   0.25890
 Alpha virt. eigenvalues --    0.51573   0.51931   0.55020   0.55043   0.57198
 Alpha virt. eigenvalues --    0.66447   0.70313   0.73626   0.77940   0.89376
 Alpha virt. eigenvalues --    0.91037   0.91266   0.94020   0.94097   0.97855
 Alpha virt. eigenvalues --    0.99940   1.01174   1.04749   1.41682   1.46102
 Alpha virt. eigenvalues --    1.46403   1.56880   1.76195   1.91307   1.92429
 Alpha virt. eigenvalues --    1.99506   2.05716   2.13777   2.26835   2.29407
 Alpha virt. eigenvalues --    2.35873   2.38915   2.43221   2.55248   2.68527
 Alpha virt. eigenvalues --    4.15769   4.29346   4.46878
          Condensed to atoms (all electrons):
               1          2          3          4          5          6
     1  C    5.047825   0.376889   0.383242   0.383242   0.387571  -0.056261
     2  H    0.376889   0.573510  -0.030538  -0.030538  -0.031908   0.005374
     3  H    0.383242  -0.030538   0.571506  -0.032451  -0.036608  -0.004915
     4  H    0.383242  -0.030538  -0.032451   0.571506  -0.036608  -0.004915
     5  C    0.387571  -0.031908  -0.036608  -0.036608   4.919283   0.387571
     6  C   -0.056261   0.005374  -0.004915  -0.004915   0.387571   5.047825
     7  H   -0.039457  -0.002687  -0.004821   0.005656   0.385834  -0.039457
     8  H   -0.039457  -0.002687   0.005656  -0.004821   0.385834  -0.039457
     9  H   -0.004915   0.000002   0.005622  -0.000463  -0.036608   0.383242
    10  H   -0.004915   0.000002  -0.000463   0.005622  -0.036608   0.383242
    11  H    0.005374  -0.000229   0.000002   0.000002  -0.031908   0.376889
               7          8          9         10         11
     1  C   -0.039457  -0.039457  -0.004915  -0.004915   0.005374
     2  H   -0.002687  -0.002687   0.000002   0.000002  -0.000229
     3  H   -0.004821   0.005656   0.005622  -0.000463   0.000002
     4  H    0.005656  -0.004821  -0.000463   0.005622   0.000002
     5  C    0.385834   0.385834  -0.036608  -0.036608  -0.031908
     6  C   -0.039457  -0.039457   0.383242   0.383242   0.376889
     7  H    0.598119  -0.038055  -0.004821   0.005656  -0.002687
     8  H   -0.038055   0.598119   0.005656  -0.004821  -0.002687
     9  H   -0.004821   0.005656   0.571506  -0.032451  -0.030538
    10  H    0.005656  -0.004821  -0.032451   0.571506  -0.030538
    11  H   -0.002687  -0.002687  -0.030538  -0.030538   0.573510
 Mulliken charges:
               1
     1  C   -0.439138
     2  H    0.142807
     3  H    0.143767
     4  H    0.143767
     5  C   -0.255845
     6  C   -0.439138
     7  H    0.136720
     8  H    0.136720
     9  H    0.143767
    10  H    0.143767
    11  H    0.142807
 Sum of Mulliken charges =  -0.00000
 Mulliken charges with hydrogens summed into heavy atoms:
               1
     1  C   -0.008797
     5  C    0.017594
     6  C   -0.008797
 Electronic spatial extent (au):  <R**2>=            221.3904
 Charge=              0.0000 electrons
 Dipole moment (field-independent basis, Debye):
    X=              0.0000    Y=             -0.0000    Z=              0.0655  Tot=              0.0655
 Quadrupole moment (field-independent basis, Debye-Ang):
   XX=            -20.8910   YY=            -22.0351   ZZ=            -21.4737
   XY=              0.0000   XZ=             -0.0000   YZ=              0.0000
 Traceless Quadrupole moment (field-independent basis, Debye-Ang):
   XX=              0.5756   YY=             -0.5685   ZZ=             -0.0071
   XY=              0.0000   XZ=             -0.0000   YZ=              0.0000
 Octapole moment (field-independent basis, Debye-Ang**2):
  XXX=              0.0000  YYY=             -0.0000  ZZZ=              0.1287  XYY=              0.0000
  XXY=             -0.0000  XXZ=             -0.4056  XZZ=              0.0000  YZZ=             -0.0000
  YYZ=              1.5238  XYZ=             -0.0000
 Hexadecapole moment (field-independent basis, Debye-Ang**3):
 XXXX=            -40.9275 YYYY=           -193.1817 ZZZZ=            -69.0241 XXXY=             -0.0000
 XXXZ=             -0.0000 YYYX=              0.0000 YYYZ=             -0.0000 ZZZX=              0.0000
 ZZZY=             -0.0000 XXYY=            -39.4846 XXZZ=            -16.5990 YYZZ=            -43.3023
 XXYZ=             -0.0000 YYXZ=             -0.0000 ZZXY=              0.0000
 N-N= 8.332074305807D+01 E-N=-4.414445170692D+02  KE= 1.181694577257D+02
 Symmetry A1   KE= 7.304114337745D+01
 Symmetry A2   KE= 2.065641968236D+00
 Symmetry B1   KE= 3.914202950461D+00
 Symmetry B2   KE= 3.914846942952D+01
 ******************************Gaussian NBO Version 3.1******************************
             N A T U R A L   A T O M I C   O R B I T A L   A N D
          N A T U R A L   B O N D   O R B I T A L   A N A L Y S I S
 ******************************Gaussian NBO Version 3.1******************************
       /RESON  / : Allow strongly delocalized NBO set

 Analyzing the SCF density

 Job title: Propane-dft-6-31G(D)                                            

 Storage needed:     11598 in NPA,     15203 in NBO (1342176565 available)


 NATURAL POPULATIONS:  Natural atomic orbital occupancies 
                                                          
   NAO  Atom  No  lang   Type(AO)    Occupancy      Energy
 ----------------------------------------------------------
     1    C    1  S      Cor( 1S)     1.99948     -10.02790
     2    C    1  S      Val( 2S)     1.09461      -0.22953
     3    C    1  S      Ryd( 3S)     0.00034       1.29443
     4    C    1  S      Ryd( 4S)     0.00001       4.22275
     5    C    1  px     Val( 2p)     1.23823      -0.05938
     6    C    1  px     Ryd( 3p)     0.00093       0.63596
     7    C    1  py     Val( 2p)     1.13919      -0.05840
     8    C    1  py     Ryd( 3p)     0.00166       0.63566
     9    C    1  pz     Val( 2p)     1.18661      -0.05818
    10    C    1  pz     Ryd( 3p)     0.00099       0.62521
    11    C    1  dxy    Ryd( 3d)     0.00011       1.81603
    12    C    1  dxz    Ryd( 3d)     0.00120       2.23703
    13    C    1  dyz    Ryd( 3d)     0.00085       2.25341
    14    C    1  dx2y2  Ryd( 3d)     0.00099       2.24808
    15    C    1  dz2    Ryd( 3d)     0.00014       1.79782
 
    16    H    2  S      Val( 1S)     0.77439       0.11515
    17    H    2  S      Ryd( 2S)     0.00086       0.64315
 
    18    H    3  S      Val( 1S)     0.77954       0.10958
    19    H    3  S      Ryd( 2S)     0.00114       0.65521
 
    20    H    4  S      Val( 1S)     0.77954       0.10958
    21    H    4  S      Ryd( 2S)     0.00114       0.65521
 
    22    C    5  S      Cor( 1S)     1.99942     -10.03732
    23    C    5  S      Val( 2S)     1.03868      -0.21628
    24    C    5  S      Ryd( 3S)     0.00047       1.35245
    25    C    5  S      Ryd( 4S)     0.00002       4.29936
    26    C    5  px     Val( 2p)     1.23656      -0.05282
    27    C    5  px     Ryd( 3p)     0.00210       0.75334
    28    C    5  py     Val( 2p)     1.02392      -0.05395
    29    C    5  py     Ryd( 3p)     0.00102       0.60556
    30    C    5  pz     Val( 2p)     1.13220      -0.05456
    31    C    5  pz     Ryd( 3p)     0.00086       0.60113
    32    C    5  dxy    Ryd( 3d)     0.00025       1.84530
    33    C    5  dxz    Ryd( 3d)     0.00140       2.25902
    34    C    5  dyz    Ryd( 3d)     0.00065       2.29256
    35    C    5  dx2y2  Ryd( 3d)     0.00101       2.25909
    36    C    5  dz2    Ryd( 3d)     0.00020       1.86215
 
    37    C    6  S      Cor( 1S)     1.99948     -10.02790
    38    C    6  S      Val( 2S)     1.09461      -0.22953
    39    C    6  S      Ryd( 3S)     0.00034       1.29443
    40    C    6  S      Ryd( 4S)     0.00001       4.22275
    41    C    6  px     Val( 2p)     1.23823      -0.05938
    42    C    6  px     Ryd( 3p)     0.00093       0.63596
    43    C    6  py     Val( 2p)     1.13919      -0.05840
    44    C    6  py     Ryd( 3p)     0.00166       0.63566
    45    C    6  pz     Val( 2p)     1.18661      -0.05818
    46    C    6  pz     Ryd( 3p)     0.00099       0.62521
    47    C    6  dxy    Ryd( 3d)     0.00011       1.81603
    48    C    6  dxz    Ryd( 3d)     0.00120       2.23703
    49    C    6  dyz    Ryd( 3d)     0.00085       2.25341
    50    C    6  dx2y2  Ryd( 3d)     0.00099       2.24808
    51    C    6  dz2    Ryd( 3d)     0.00014       1.79782
 
    52    H    7  S      Val( 1S)     0.77709       0.11915
    53    H    7  S      Ryd( 2S)     0.00157       0.64277
 
    54    H    8  S      Val( 1S)     0.77709       0.11915
    55    H    8  S      Ryd( 2S)     0.00157       0.64277
 
    56    H    9  S      Val( 1S)     0.77954       0.10958
    57    H    9  S      Ryd( 2S)     0.00114       0.65521
 
    58    H   10  S      Val( 1S)     0.77954       0.10958
    59    H   10  S      Ryd( 2S)     0.00114       0.65521
 
    60    H   11  S      Val( 1S)     0.77439       0.11515
    61    H   11  S      Ryd( 2S)     0.00086       0.64315


 Summary of Natural Population Analysis:                  
                                                          
                                       Natural Population 
                Natural  -----------------------------------------------
    Atom  No    Charge         Core      Valence    Rydberg      Total
 -----------------------------------------------------------------------
      C    1   -0.66536      1.99948     4.65864    0.00723     6.66536
      H    2    0.22475      0.00000     0.77439    0.00086     0.77525
      H    3    0.21932      0.00000     0.77954    0.00114     0.78068
      H    4    0.21932      0.00000     0.77954    0.00114     0.78068
      C    5   -0.43875      1.99942     4.43136    0.00798     6.43875
      C    6   -0.66536      1.99948     4.65864    0.00723     6.66536
      H    7    0.22133      0.00000     0.77709    0.00157     0.77867
      H    8    0.22133      0.00000     0.77709    0.00157     0.77867
      H    9    0.21932      0.00000     0.77954    0.00114     0.78068
      H   10    0.21932      0.00000     0.77954    0.00114     0.78068
      H   11    0.22475      0.00000     0.77439    0.00086     0.77525
 =======================================================================
   * Total *   -0.00000      5.99838    19.96977    0.03185    26.00000

                                 Natural Population      
 --------------------------------------------------------
   Core                       5.99838 ( 99.9731% of   6)
   Valence                   19.96977 ( 99.8488% of  20)
   Natural Minimal Basis     25.96815 ( 99.8775% of  26)
   Natural Rydberg Basis      0.03185 (  0.1225% of  26)
 --------------------------------------------------------

    Atom  No          Natural Electron Configuration
 ----------------------------------------------------------------------------
      C    1      [core]2S( 1.09)2p( 3.56)
      H    2            1S( 0.77)
      H    3            1S( 0.78)
      H    4            1S( 0.78)
      C    5      [core]2S( 1.04)2p( 3.39)
      C    6      [core]2S( 1.09)2p( 3.56)
      H    7            1S( 0.78)
      H    8            1S( 0.78)
      H    9            1S( 0.78)
      H   10            1S( 0.78)
      H   11            1S( 0.77)


 NATURAL BOND ORBITAL ANALYSIS:

                       Occupancies       Lewis Structure    Low   High
           Occ.    -------------------  -----------------   occ   occ
  Cycle   Thresh.   Lewis   Non-Lewis     CR  BD  3C  LP    (L)   (NL)   Dev
 =============================================================================
   1(1)    1.90    25.89717   0.10283      3  10   0   0     0      0    0.02
 -----------------------------------------------------------------------------

 Structure accepted: No low occupancy Lewis orbitals

 --------------------------------------------------------
   Core                      5.99838 ( 99.973% of   6)
   Valence Lewis            19.89879 ( 99.494% of  20)
  ==================       ============================
   Total Lewis              25.89717 ( 99.605% of  26)
  -----------------------------------------------------
   Valence non-Lewis         0.08142 (  0.313% of  26)
   Rydberg non-Lewis         0.02141 (  0.082% of  26)
  ==================       ============================
   Total non-Lewis           0.10283 (  0.395% of  26)
 --------------------------------------------------------


       (Occupancy)   Bond orbital/ Coefficients/ Hybrids
 ---------------------------------------------------------------------------------
     1. (1.99084) BD ( 1) C   1 - H   2  
                ( 61.27%)   0.7827* C   1 s( 24.41%)p 3.09( 75.52%)d 0.00(  0.06%)
                                            0.0000  0.4941 -0.0010 -0.0006  0.0000
                                           -0.0000  0.7164  0.0030  0.4917 -0.0114
                                            0.0000 -0.0000  0.0211 -0.0141 -0.0006
                ( 38.73%)   0.6223* H   2 s(100.00%)
                                            1.0000  0.0002
     2. (1.99165) BD ( 1) C   1 - H   3  
                ( 61.08%)   0.7816* C   1 s( 24.51%)p 3.08( 75.43%)d 0.00(  0.06%)
                                            0.0000  0.4950  0.0025 -0.0007  0.7068
                                           -0.0027  0.0050  0.0148 -0.5044 -0.0044
                                            0.0002 -0.0207  0.0005  0.0148  0.0003
                ( 38.92%)   0.6238* H   3 s(100.00%)
                                            1.0000  0.0010
     3. (1.99165) BD ( 1) C   1 - H   4  
                ( 61.08%)   0.7816* C   1 s( 24.51%)p 3.08( 75.43%)d 0.00(  0.06%)
                                           -0.0000 -0.4950 -0.0025  0.0007  0.7068
                                           -0.0027 -0.0050 -0.0148  0.5044  0.0044
                                            0.0002 -0.0207 -0.0005 -0.0148 -0.0003
                ( 38.92%)   0.6238* H   4 s(100.00%)
                                           -1.0000 -0.0010
     4. (1.99116) BD ( 1) C   1 - C   5  
                ( 50.09%)   0.7077* C   1 s( 26.54%)p 2.77( 73.43%)d 0.00(  0.03%)
                                            0.0003  0.5151 -0.0055  0.0024  0.0000
                                           -0.0000 -0.6970  0.0057  0.4984  0.0085
                                            0.0000 -0.0000 -0.0150 -0.0104  0.0000
                ( 49.91%)   0.7065* C   5 s( 25.67%)p 2.89( 74.29%)d 0.00(  0.04%)
                                            0.0002  0.5066 -0.0080  0.0011 -0.0000
                                            0.0000  0.7068  0.0111 -0.4931  0.0084
                                            0.0000 -0.0000 -0.0163 -0.0106  0.0000
     5. (1.99116) BD ( 1) C   5 - C   6  
                ( 49.91%)   0.7065* C   5 s( 25.67%)p 2.89( 74.29%)d 0.00(  0.04%)
                                            0.0002  0.5066 -0.0080  0.0011 -0.0000
                                            0.0000 -0.7068 -0.0111 -0.4931  0.0084
                                            0.0000 -0.0000  0.0163 -0.0106  0.0000
                ( 50.09%)   0.7077* C   6 s( 26.54%)p 2.77( 73.43%)d 0.00(  0.03%)
                                            0.0003  0.5151 -0.0055  0.0024 -0.0000
                                            0.0000  0.6970 -0.0057  0.4984  0.0085
                                            0.0000  0.0000  0.0150 -0.0104  0.0000
     6. (1.98410) BD ( 1) C   5 - H   7  
                ( 61.22%)   0.7824* C   5 s( 24.33%)p 3.11( 75.60%)d 0.00(  0.07%)
                                           -0.0000  0.4932  0.0066 -0.0009  0.7067
                                           -0.0127  0.0000  0.0000  0.5064  0.0081
                                            0.0000  0.0214 -0.0000  0.0157  0.0001
                ( 38.78%)   0.6228* H   7 s(100.00%)
                                            1.0000  0.0020
     7. (1.98410) BD ( 1) C   5 - H   8  
                ( 61.22%)   0.7824* C   5 s( 24.33%)p 3.11( 75.60%)d 0.00(  0.07%)
                                            0.0000 -0.4932 -0.0066  0.0009  0.7067
                                           -0.0127 -0.0000 -0.0000 -0.5064 -0.0081
                                            0.0000  0.0214  0.0000 -0.0157 -0.0001
                ( 38.78%)   0.6228* H   8 s(100.00%)
                                           -1.0000 -0.0020
     8. (1.99165) BD ( 1) C   6 - H   9  
                ( 61.08%)   0.7816* C   6 s( 24.51%)p 3.08( 75.43%)d 0.00(  0.06%)
                                            0.0000  0.4950  0.0025 -0.0007  0.7068
                                           -0.0027 -0.0050 -0.0148 -0.5044 -0.0044
                                           -0.0002 -0.0207 -0.0005  0.0148  0.0003
                ( 38.92%)   0.6238* H   9 s(100.00%)
                                            1.0000  0.0010
     9. (1.99165) BD ( 1) C   6 - H  10  
                ( 61.08%)   0.7816* C   6 s( 24.51%)p 3.08( 75.43%)d 0.00(  0.06%)
                                           -0.0000 -0.4950 -0.0025  0.0007  0.7068
                                           -0.0027  0.0050  0.0148  0.5044  0.0044
                                           -0.0002 -0.0207  0.0005 -0.0148 -0.0003
                ( 38.92%)   0.6238* H  10 s(100.00%)
                                           -1.0000 -0.0010
    10. (1.99084) BD ( 1) C   6 - H  11  
                ( 61.27%)   0.7827* C   6 s( 24.41%)p 3.09( 75.52%)d 0.00(  0.06%)
                                            0.0000  0.4941 -0.0010 -0.0006 -0.0000
                                            0.0000 -0.7164 -0.0030  0.4917 -0.0114
                                            0.0000  0.0000 -0.0211 -0.0141 -0.0006
                ( 38.73%)   0.6223* H  11 s(100.00%)
                                            1.0000  0.0002
    11. (1.99948) CR ( 1) C   1           s(100.00%)p 0.00(  0.00%)
                                            1.0000 -0.0002  0.0000 -0.0000 -0.0000
                                            0.0000  0.0002 -0.0000 -0.0001 -0.0000
                                           -0.0000  0.0000  0.0000  0.0000  0.0000
    12. (1.99942) CR ( 1) C   5           s(100.00%)p 0.00(  0.00%)
                                            1.0000 -0.0001  0.0000 -0.0000 -0.0000
                                            0.0000 -0.0000 -0.0000  0.0002 -0.0000
                                            0.0000 -0.0000  0.0000  0.0000  0.0000
    13. (1.99948) CR ( 1) C   6           s(100.00%)p 0.00(  0.00%)
                                            1.0000 -0.0002  0.0000 -0.0000  0.0000
                                           -0.0000 -0.0002  0.0000 -0.0001 -0.0000
                                           -0.0000 -0.0000 -0.0000  0.0000  0.0000
    14. (0.00208) RY*( 1) C   1           s(  6.84%)p11.64( 79.67%)d 1.97( 13.48%)
                                            0.0000 -0.0104  0.2614 -0.0040 -0.0000
                                            0.0000  0.0129  0.7124  0.0142  0.5375
                                           -0.0000  0.0000 -0.1666  0.2295  0.2332
    15. (0.00121) RY*( 2) C   1           s(  0.00%)p 1.00( 76.14%)d 0.31( 23.86%)
                                            0.0000  0.0000  0.0000 -0.0000  0.0149
                                            0.8725  0.0000  0.0000 -0.0000 -0.0000
                                           -0.2963  0.3882  0.0000  0.0000  0.0000
    16. (0.00025) RY*( 3) C   1           s( 41.36%)p 1.19( 49.04%)d 0.23(  9.60%)
                                           -0.0000 -0.0098  0.6430  0.0060 -0.0000
                                            0.0000 -0.0135  0.3698  0.0047 -0.5945
                                           -0.0000  0.0000  0.1256 -0.1580 -0.2351
    17. (0.00013) RY*( 4) C   1           s( 44.44%)p 1.12( 49.58%)d 0.13(  5.98%)
                                           -0.0000  0.0126  0.6311  0.2145  0.0000
                                           -0.0000  0.0014 -0.4878 -0.0074  0.5078
                                            0.0000 -0.0000  0.1172 -0.1315 -0.1696
    18. (0.00000) RY*( 5) C   1           s( 97.62%)p 0.02(  2.36%)d 0.00(  0.02%)
    19. (0.00000) RY*( 6) C   1           s(  0.00%)p 1.00( 10.35%)d 8.66( 89.65%)
    20. (0.00000) RY*( 7) C   1           s(  0.00%)p 1.00( 13.59%)d 6.36( 86.41%)
    21. (0.00001) RY*( 8) C   1           s(  2.42%)p 2.12(  5.14%)d38.16( 92.44%)
    22. (0.00001) RY*( 9) C   1           s(  2.53%)p 2.88(  7.28%)d35.65( 90.19%)
    23. (0.00001) RY*(10) C   1           s(  4.82%)p 1.46(  7.03%)d18.28( 88.15%)
    24. (0.00086) RY*( 1) H   2           s(100.00%)
                                           -0.0002  1.0000
    25. (0.00114) RY*( 1) H   3           s(100.00%)
                                           -0.0010  1.0000
    26. (0.00114) RY*( 1) H   4           s(100.00%)
                                           -0.0010  1.0000
    27. (0.00217) RY*( 1) C   5           s(  0.00%)p 1.00( 83.86%)d 0.19( 16.14%)
                                            0.0000 -0.0000 -0.0000  0.0000  0.0286
                                            0.9153  0.0000  0.0000 -0.0000 -0.0000
                                            0.0000 -0.4017 -0.0000 -0.0000 -0.0000
    28. (0.00103) RY*( 2) C   5           s( 12.77%)p 3.97( 50.66%)d 2.86( 36.57%)
                                           -0.0000  0.0102  0.3536  0.0509  0.0000
                                           -0.0000  0.0000  0.0000 -0.0167 -0.7115
                                           -0.0000  0.0000 -0.0000  0.4368  0.4182
    29. (0.00082) RY*( 3) C   5           s(  0.00%)p 1.00( 93.15%)d 0.07(  6.85%)
                                           -0.0000 -0.0000  0.0000 -0.0000 -0.0000
                                            0.0000 -0.0092  0.9651  0.0000 -0.0000
                                            0.0000 -0.0000  0.2617  0.0000 -0.0000
    30. (0.00025) RY*( 4) C   5           s(  0.00%)p 0.00(  0.00%)d 1.00(100.00%)
                                            0.0000  0.0000  0.0000  0.0000  0.0000
                                            0.0000  0.0000  0.0000  0.0000  0.0000
                                            1.0000  0.0000  0.0000  0.0000  0.0000
    31. (0.00015) RY*( 5) C   5           s( 58.59%)p 0.59( 34.62%)d 0.12(  6.79%)
                                           -0.0000 -0.0096  0.7645 -0.0373  0.0000
                                           -0.0000  0.0000  0.0000 -0.0175  0.5881
                                            0.0000  0.0000 -0.0000  0.2349  0.1129
    32. (0.00008) RY*( 6) C   5           s(  0.00%)p 1.00(  6.90%)d13.49( 93.10%)
    33. (0.00008) RY*( 7) C   5           s( 38.51%)p 0.28( 10.87%)d 1.31( 50.62%)
    34. (0.00000) RY*( 8) C   5           s( 89.24%)p 0.04(  3.81%)d 0.08(  6.95%)
    35. (0.00000) RY*( 9) C   5           s(  0.00%)p 1.00( 16.23%)d 5.16( 83.77%)
    36. (0.00000) RY*(10) C   5           s(  0.89%)p 0.12(  0.11%)d99.99( 99.00%)
    37. (0.00208) RY*( 1) C   6           s(  6.84%)p11.64( 79.67%)d 1.97( 13.48%)
                                            0.0000 -0.0104  0.2614 -0.0040  0.0000
                                           -0.0000 -0.0129 -0.7124  0.0142  0.5375
                                           -0.0000 -0.0000  0.1666  0.2295  0.2332
    38. (0.00121) RY*( 2) C   6           s(  0.00%)p 1.00( 76.14%)d 0.31( 23.86%)
                                           -0.0000 -0.0000 -0.0000  0.0000  0.0149
                                            0.8725  0.0000  0.0000  0.0000  0.0000
                                            0.2963  0.3882  0.0000 -0.0000 -0.0000
    39. (0.00025) RY*( 3) C   6           s( 41.36%)p 1.19( 49.04%)d 0.23(  9.60%)
                                           -0.0000 -0.0098  0.6430  0.0060  0.0000
                                           -0.0000  0.0135 -0.3698  0.0047 -0.5945
                                           -0.0000 -0.0000 -0.1256 -0.1580 -0.2351
    40. (0.00013) RY*( 4) C   6           s( 44.44%)p 1.12( 49.58%)d 0.13(  5.98%)
                                           -0.0000  0.0126  0.6311  0.2145 -0.0000
                                            0.0000 -0.0014  0.4878 -0.0074  0.5078
                                            0.0000  0.0000 -0.1172 -0.1315 -0.1696
    41. (0.00000) RY*( 5) C   6           s( 97.62%)p 0.02(  2.36%)d 0.00(  0.02%)
    42. (0.00000) RY*( 6) C   6           s(  0.00%)p 1.00( 10.35%)d 8.66( 89.65%)
    43. (0.00000) RY*( 7) C   6           s(  0.00%)p 1.00( 13.59%)d 6.36( 86.41%)
    44. (0.00001) RY*( 8) C   6           s(  2.42%)p 2.12(  5.14%)d38.16( 92.44%)
    45. (0.00001) RY*( 9) C   6           s(  2.53%)p 2.88(  7.28%)d35.65( 90.19%)
    46. (0.00001) RY*(10) C   6           s(  4.82%)p 1.46(  7.03%)d18.28( 88.15%)
    47. (0.00158) RY*( 1) H   7           s(100.00%)
                                           -0.0020  1.0000
    48. (0.00158) RY*( 1) H   8           s(100.00%)
                                           -0.0020  1.0000
    49. (0.00114) RY*( 1) H   9           s(100.00%)
                                           -0.0010  1.0000
    50. (0.00114) RY*( 1) H  10           s(100.00%)
                                           -0.0010  1.0000
    51. (0.00086) RY*( 1) H  11           s(100.00%)
                                           -0.0002  1.0000
    52. (0.00544) BD*( 1) C   1 - H   2  
                ( 38.73%)   0.6223* C   1 s( 24.41%)p 3.09( 75.52%)d 0.00(  0.06%)
                                           -0.0000 -0.4941  0.0010  0.0006 -0.0000
                                            0.0000 -0.7164 -0.0030 -0.4917  0.0114
                                           -0.0000  0.0000 -0.0211  0.0141  0.0006
                ( 61.27%)  -0.7827* H   2 s(100.00%)
                                           -1.0000 -0.0002
    53. (0.00727) BD*( 1) C   1 - H   3  
                ( 38.92%)   0.6238* C   1 s( 24.51%)p 3.08( 75.43%)d 0.00(  0.06%)
                                           -0.0000 -0.4950 -0.0025  0.0007 -0.7068
                                            0.0027 -0.0050 -0.0148  0.5044  0.0044
                                           -0.0002  0.0207 -0.0005 -0.0148 -0.0003
                ( 61.08%)  -0.7816* H   3 s(100.00%)
                                           -1.0000 -0.0010
    54. (0.00727) BD*( 1) C   1 - H   4  
                ( 38.92%)   0.6238* C   1 s( 24.51%)p 3.08( 75.43%)d 0.00(  0.06%)
                                            0.0000  0.4950  0.0025 -0.0007 -0.7068
                                            0.0027  0.0050  0.0148 -0.5044 -0.0044
                                           -0.0002  0.0207  0.0005  0.0148  0.0003
                ( 61.08%)  -0.7816* H   4 s(100.00%)
                                            1.0000  0.0010
    55. (0.00838) BD*( 1) C   1 - C   5  
                ( 49.91%)   0.7065* C   1 s( 26.54%)p 2.77( 73.43%)d 0.00(  0.03%)
                                           -0.0003 -0.5151  0.0055 -0.0024 -0.0000
                                            0.0000  0.6970 -0.0057 -0.4984 -0.0085
                                           -0.0000  0.0000  0.0150  0.0104 -0.0000
                ( 50.09%)  -0.7077* C   5 s( 25.67%)p 2.89( 74.29%)d 0.00(  0.04%)
                                           -0.0002 -0.5066  0.0080 -0.0011  0.0000
                                           -0.0000 -0.7068 -0.0111  0.4931 -0.0084
                                           -0.0000  0.0000  0.0163  0.0106 -0.0000
    56. (0.00838) BD*( 1) C   5 - C   6  
                ( 50.09%)   0.7077* C   5 s( 25.67%)p 2.89( 74.29%)d 0.00(  0.04%)
                                            0.0002  0.5066 -0.0080  0.0011 -0.0000
                                            0.0000 -0.7068 -0.0111 -0.4931  0.0084
                                            0.0000 -0.0000  0.0163 -0.0106  0.0000
                ( 49.91%)  -0.7065* C   6 s( 26.54%)p 2.77( 73.43%)d 0.00(  0.03%)
                                            0.0003  0.5151 -0.0055  0.0024 -0.0000
                                            0.0000  0.6970 -0.0057  0.4984  0.0085
                                            0.0000  0.0000  0.0150 -0.0104  0.0000
    57. (0.01236) BD*( 1) C   5 - H   7  
                ( 38.78%)   0.6228* C   5 s( 24.33%)p 3.11( 75.60%)d 0.00(  0.07%)
                                            0.0000 -0.4932 -0.0066  0.0009 -0.7067
                                            0.0127 -0.0000 -0.0000 -0.5064 -0.0081
                                           -0.0000 -0.0214  0.0000 -0.0157 -0.0001
                ( 61.22%)  -0.7824* H   7 s(100.00%)
                                           -1.0000 -0.0020
    58. (0.01236) BD*( 1) C   5 - H   8  
                ( 38.78%)   0.6228* C   5 s( 24.33%)p 3.11( 75.60%)d 0.00(  0.07%)
                                           -0.0000  0.4932  0.0066 -0.0009 -0.7067
                                            0.0127  0.0000  0.0000  0.5064  0.0081
                                           -0.0000 -0.0214 -0.0000  0.0157  0.0001
                ( 61.22%)  -0.7824* H   8 s(100.00%)
                                            1.0000  0.0020
    59. (0.00727) BD*( 1) C   6 - H   9  
                ( 38.92%)   0.6238* C   6 s( 24.51%)p 3.08( 75.43%)d 0.00(  0.06%)
                                           -0.0000 -0.4950 -0.0025  0.0007 -0.7068
                                            0.0027  0.0050  0.0148  0.5044  0.0044
                                            0.0002  0.0207  0.0005 -0.0148 -0.0003
                ( 61.08%)  -0.7816* H   9 s(100.00%)
                                           -1.0000 -0.0010
    60. (0.00727) BD*( 1) C   6 - H  10  
                ( 38.92%)   0.6238* C   6 s( 24.51%)p 3.08( 75.43%)d 0.00(  0.06%)
                                            0.0000  0.4950  0.0025 -0.0007 -0.7068
                                            0.0027 -0.0050 -0.0148 -0.5044 -0.0044
                                            0.0002  0.0207 -0.0005  0.0148  0.0003
                ( 61.08%)  -0.7816* H  10 s(100.00%)
                                            1.0000  0.0010
    61. (0.00544) BD*( 1) C   6 - H  11  
                ( 38.73%)   0.6223* C   6 s( 24.41%)p 3.09( 75.52%)d 0.00(  0.06%)
                                           -0.0000 -0.4941  0.0010  0.0006  0.0000
                                           -0.0000  0.7164  0.0030 -0.4917  0.0114
                                           -0.0000 -0.0000  0.0211  0.0141  0.0006
                ( 61.27%)  -0.7827* H  11 s(100.00%)
                                           -1.0000 -0.0002


 NHO Directionality and "Bond Bending" (deviations from line of nuclear centers)

         [Thresholds for printing:  angular deviation  >  1.0 degree]
                                    hybrid p-character > 25.0%
                                    orbital occupancy  >  0.10e

                                Line of Centers        Hybrid 1              Hybrid 2
                                ---------------  -------------------   ------------------
                NBO               Theta   Phi    Theta   Phi    Dev    Theta   Phi    Dev
 ========================================================================================
     1. BD (   1) C   1 - H   2    54.7   90.0    56.3   90.0   1.5      --     --    --
     2. BD (   1) C   1 - H   3   125.3    0.0   125.8    1.6   1.4      --     --    --
     3. BD (   1) C   1 - H   4   125.3  180.0   125.8  178.4   1.4      --     --    --
     4. BD (   1) C   1 - C   5    54.7  270.0     --     --    --     124.0   90.0   1.2
     5. BD (   1) C   5 - C   6   125.3  270.0   124.0  270.0   1.2      --     --    --
     6. BD (   1) C   5 - H   7    54.7    0.0    53.4    0.0   1.3      --     --    --
     7. BD (   1) C   5 - H   8    54.7  180.0    53.4  180.0   1.3      --     --    --
     8. BD (   1) C   6 - H   9   125.3    0.0   125.8  358.4   1.4      --     --    --
     9. BD (   1) C   6 - H  10   125.3  180.0   125.8  181.6   1.4      --     --    --
    10. BD (   1) C   6 - H  11    54.7  270.0    56.3  270.0   1.5      --     --    --


 Second Order Perturbation Theory Analysis of Fock Matrix in NBO Basis

     Threshold for printing:   0.50 kcal/mol
                                                                              E(2)  E(j)-E(i) F(i,j)
         Donor NBO (i)                     Acceptor NBO (j)                 kcal/mol   a.u.    a.u. 
 ===================================================================================================

 within unit  1
   1. BD (   1) C   1 - H   2        / 56. BD*(   1) C   5 - C   6            2.78    0.88    0.044
   2. BD (   1) C   1 - H   3        / 58. BD*(   1) C   5 - H   8            2.44    1.00    0.044
   3. BD (   1) C   1 - H   4        / 57. BD*(   1) C   5 - H   7            2.44    1.00    0.044
   4. BD (   1) C   1 - C   5        / 37. RY*(   1) C   6                    0.97    1.53    0.034
   4. BD (   1) C   1 - C   5        / 52. BD*(   1) C   1 - H   2            0.65    1.07    0.023
   4. BD (   1) C   1 - C   5        / 53. BD*(   1) C   1 - H   3            0.54    1.06    0.021
   4. BD (   1) C   1 - C   5        / 54. BD*(   1) C   1 - H   4            0.54    1.06    0.021
   4. BD (   1) C   1 - C   5        / 57. BD*(   1) C   5 - H   7            0.55    1.07    0.022
   4. BD (   1) C   1 - C   5        / 58. BD*(   1) C   5 - H   8            0.55    1.07    0.022
   4. BD (   1) C   1 - C   5        / 61. BD*(   1) C   6 - H  11            1.73    1.07    0.038
   5. BD (   1) C   5 - C   6        / 14. RY*(   1) C   1                    0.97    1.53    0.034
   5. BD (   1) C   5 - C   6        / 52. BD*(   1) C   1 - H   2            1.73    1.07    0.038
   5. BD (   1) C   5 - C   6        / 57. BD*(   1) C   5 - H   7            0.55    1.07    0.022
   5. BD (   1) C   5 - C   6        / 58. BD*(   1) C   5 - H   8            0.55    1.07    0.022
   5. BD (   1) C   5 - C   6        / 59. BD*(   1) C   6 - H   9            0.54    1.06    0.021
   5. BD (   1) C   5 - C   6        / 60. BD*(   1) C   6 - H  10            0.54    1.06    0.021
   5. BD (   1) C   5 - C   6        / 61. BD*(   1) C   6 - H  11            0.65    1.07    0.023
   6. BD (   1) C   5 - H   7        / 54. BD*(   1) C   1 - H   4            2.44    0.99    0.044
   6. BD (   1) C   5 - H   7        / 60. BD*(   1) C   6 - H  10            2.44    0.99    0.044
   7. BD (   1) C   5 - H   8        / 53. BD*(   1) C   1 - H   3            2.44    0.99    0.044
   7. BD (   1) C   5 - H   8        / 59. BD*(   1) C   6 - H   9            2.44    0.99    0.044
   8. BD (   1) C   6 - H   9        / 58. BD*(   1) C   5 - H   8            2.44    1.00    0.044
   9. BD (   1) C   6 - H  10        / 57. BD*(   1) C   5 - H   7            2.44    1.00    0.044
  10. BD (   1) C   6 - H  11        / 55. BD*(   1) C   1 - C   5            2.78    0.88    0.044
  11. CR (   1) C   1                / 29. RY*(   3) C   5                    0.76   10.77    0.081
  12. CR (   1) C   5                / 16. RY*(   3) C   1                    0.77   11.07    0.082
  12. CR (   1) C   5                / 39. RY*(   3) C   6                    0.77   11.07    0.082
  13. CR (   1) C   6                / 29. RY*(   3) C   5                    0.76   10.77    0.081


 Natural Bond Orbitals (Summary):

                                                            Principal Delocalizations
           NBO                        Occupancy    Energy   (geminal,vicinal,remote)
 ====================================================================================
 Molecular unit  1  (C3H8)
     1. BD (   1) C   1 - H   2          1.99084    -0.49090  56(v)
     2. BD (   1) C   1 - H   3          1.99165    -0.49265  58(v)
     3. BD (   1) C   1 - H   4          1.99165    -0.49265  57(v)
     4. BD (   1) C   1 - C   5          1.99116    -0.56057  61(v),37(v),52(g),57(g)
                                                    58(g),53(g),54(g)
     5. BD (   1) C   5 - C   6          1.99116    -0.56057  52(v),14(v),61(g),57(g)
                                                    58(g),59(g),60(g)
     6. BD (   1) C   5 - H   7          1.98410    -0.48772  54(v),60(v)
     7. BD (   1) C   5 - H   8          1.98410    -0.48772  53(v),59(v)
     8. BD (   1) C   6 - H   9          1.99165    -0.49265  58(v)
     9. BD (   1) C   6 - H  10          1.99165    -0.49265  57(v)
    10. BD (   1) C   6 - H  11          1.99084    -0.49090  55(v)
    11. CR (   1) C   1                  1.99948   -10.02764  29(v)
    12. CR (   1) C   5                  1.99942   -10.03711  16(v),39(v)
    13. CR (   1) C   6                  1.99948   -10.02764  29(v)
    14. RY*(   1) C   1                  0.00208     0.96932   
    15. RY*(   2) C   1                  0.00121     1.00613   
    16. RY*(   3) C   1                  0.00025     1.03056   
    17. RY*(   4) C   1                  0.00013     1.16568   
    18. RY*(   5) C   1                  0.00000     3.96024   
    19. RY*(   6) C   1                  0.00000     1.73366   
    20. RY*(   7) C   1                  0.00000     1.94412   
    21. RY*(   8) C   1                  0.00001     2.12354   
    22. RY*(   9) C   1                  0.00001     2.07266   
    23. RY*(  10) C   1                  0.00001     1.74518   
    24. RY*(   1) H   2                  0.00086     0.64304   
    25. RY*(   1) H   3                  0.00114     0.65461   
    26. RY*(   1) H   4                  0.00114     0.65461   
    27. RY*(   1) C   5                  0.00217     1.08553   
    28. RY*(   2) C   5                  0.00103     1.24110   
    29. RY*(   3) C   5                  0.00082     0.73748   
    30. RY*(   4) C   5                  0.00025     1.84530   
    31. RY*(   5) C   5                  0.00015     1.14157   
    32. RY*(   6) C   5                  0.00008     2.15401   
    33. RY*(   7) C   5                  0.00008     2.09670   
    34. RY*(   8) C   5                  0.00000     3.84146   
    35. RY*(   9) C   5                  0.00000     1.92191   
    36. RY*(  10) C   5                  0.00000     2.04830   
    37. RY*(   1) C   6                  0.00208     0.96932   
    38. RY*(   2) C   6                  0.00121     1.00613   
    39. RY*(   3) C   6                  0.00025     1.03056   
    40. RY*(   4) C   6                  0.00013     1.16568   
    41. RY*(   5) C   6                  0.00000     3.96024   
    42. RY*(   6) C   6                  0.00000     1.73366   
    43. RY*(   7) C   6                  0.00000     1.94412   
    44. RY*(   8) C   6                  0.00001     2.12354   
    45. RY*(   9) C   6                  0.00001     2.07266   
    46. RY*(  10) C   6                  0.00001     1.74518   
    47. RY*(   1) H   7                  0.00158     0.64154   
    48. RY*(   1) H   8                  0.00158     0.64154   
    49. RY*(   1) H   9                  0.00114     0.65461   
    50. RY*(   1) H  10                  0.00114     0.65461   
    51. RY*(   1) H  11                  0.00086     0.64304   
    52. BD*(   1) C   1 - H   2          0.00544     0.50576   
    53. BD*(   1) C   1 - H   3          0.00727     0.49982   
    54. BD*(   1) C   1 - H   4          0.00727     0.49982   
    55. BD*(   1) C   1 - C   5          0.00838     0.39226   
    56. BD*(   1) C   5 - C   6          0.00838     0.39226   
    57. BD*(   1) C   5 - H   7          0.01236     0.51176   
    58. BD*(   1) C   5 - H   8          0.01236     0.51176   
    59. BD*(   1) C   6 - H   9          0.00727     0.49982   
    60. BD*(   1) C   6 - H  10          0.00727     0.49982   
    61. BD*(   1) C   6 - H  11          0.00544     0.50576   
       -------------------------------
              Total Lewis   25.89717  ( 99.6045%)
        Valence non-Lewis    0.08142  (  0.3132%)
        Rydberg non-Lewis    0.02141  (  0.0823%)
       -------------------------------
            Total unit  1   26.00000  (100.0000%)
           Charge unit  1    0.00000
 Calling FoFJK, ICntrl=      2127 FMM=F ISym2X=1 I1Cent= 0 IOpClX= 0 NMat=1 NMatS=1 NMatT=0.
 ***** Axes restored to original set *****
 -------------------------------------------------------------------
 Center     Atomic                   Forces (Hartrees/Bohr)
 Number     Number              X              Y              Z
 -------------------------------------------------------------------
      1        6           0.007053618   -0.026295912    0.003477659
      2        1          -0.003307833    0.008384909    0.016606084
      3        1           0.010851678    0.013469812   -0.006114057
      4        1          -0.015459764    0.006204077   -0.007686452
      5        6          -0.004621670    0.022232099   -0.025394213
      6        6          -0.001434097   -0.000736252    0.027399342
      7        1           0.014378484   -0.005426114    0.010899321
      8        1          -0.010683782   -0.012346896    0.009401578
      9        1           0.012237350    0.009297040   -0.010019418
     10        1          -0.014074093    0.002031305   -0.011591813
     11        1           0.005060109   -0.016814067   -0.006978030
 -------------------------------------------------------------------
 Cartesian Forces:  Max     0.027399342 RMS     0.012836290

 GradGradGradGradGradGradGradGradGradGradGradGradGradGradGradGradGradGrad
 Berny optimization.
 FormGI is forming the generalized inverse of G from B-inverse, IUseBI=4.
 Internal  Forces:  Max     0.018493766 RMS     0.008076055
 Search for a local minimum.
 Step number   1 out of a maximum of   56
 All quantities printed in internal units (Hartrees-Bohrs-Radians)
 Mixed Optimization -- RFO/linear search
 Second derivative matrix not updated -- first step.
 ITU=  0
     Eigenvalues ---    0.00237   0.00237   0.03840   0.04896   0.05720
     Eigenvalues ---    0.05720   0.05720   0.05720   0.07655   0.11701
     Eigenvalues ---    0.16000   0.16000   0.16000   0.16000   0.16000
     Eigenvalues ---    0.16000   0.21948   0.28519   0.28519   0.37230
     Eigenvalues ---    0.37230   0.37230   0.37230   0.37230   0.37230
     Eigenvalues ---    0.37230   0.37230
 RFO step:  Lambda=-9.20501111D-03 EMin= 2.36824221D-03
 Linear search not attempted -- first point.
 Iteration  1 RMS(Cart)=  0.04224135 RMS(Int)=  0.00060640
 Iteration  2 RMS(Cart)=  0.00041670 RMS(Int)=  0.00020779
 Iteration  3 RMS(Cart)=  0.00000033 RMS(Int)=  0.00020779
 ClnCor:  largest displacement from symmetrization is 9.48D-09 for atom     4.
 Variable       Old X    -DE/DX   Delta X   Delta X   Delta X     New X
                                 (Linear)    (Quad)   (Total)
    R1        2.02201   0.01823   0.00000   0.04778   0.04778   2.06978
    R2        2.02201   0.01802   0.00000   0.04723   0.04723   2.06924
    R3        2.02201   0.01802   0.00000   0.04723   0.04723   2.06924
    R4        2.91018   0.00262   0.00000   0.00891   0.00891   2.91908
    R5        2.91018   0.00262   0.00000   0.00891   0.00891   2.91908
    R6        2.02201   0.01849   0.00000   0.04848   0.04848   2.07048
    R7        2.02201   0.01849   0.00000   0.04848   0.04848   2.07048
    R8        2.02201   0.01802   0.00000   0.04723   0.04723   2.06924
    R9        2.02201   0.01802   0.00000   0.04723   0.04723   2.06924
   R10        2.02201   0.01823   0.00000   0.04778   0.04778   2.06978
    A1        1.91063  -0.00425   0.00000  -0.02355  -0.02394   1.88669
    A2        1.91063  -0.00425   0.00000  -0.02355  -0.02394   1.88669
    A3        1.91063   0.00582   0.00000   0.03594   0.03554   1.94618
    A4        1.91063  -0.00351   0.00000  -0.02385  -0.02393   1.88670
    A5        1.91063   0.00309   0.00000   0.01751   0.01726   1.92789
    A6        1.91063   0.00309   0.00000   0.01751   0.01726   1.92789
    A7        1.91063   0.00920   0.00000   0.05111   0.05068   1.96131
    A8        1.91063  -0.00218   0.00000  -0.00349  -0.00385   1.90678
    A9        1.91063  -0.00218   0.00000  -0.00349  -0.00385   1.90678
   A10        1.91063  -0.00218   0.00000  -0.00349  -0.00385   1.90678
   A11        1.91063  -0.00218   0.00000  -0.00349  -0.00385   1.90678
   A12        1.91063  -0.00048   0.00000  -0.03713  -0.03729   1.87334
   A13        1.91063   0.00309   0.00000   0.01751   0.01726   1.92789
   A14        1.91063   0.00309   0.00000   0.01751   0.01726   1.92789
   A15        1.91063   0.00582   0.00000   0.03594   0.03554   1.94618
   A16        1.91063  -0.00351   0.00000  -0.02385  -0.02393   1.88670
   A17        1.91063  -0.00425   0.00000  -0.02355  -0.02394   1.88669
   A18        1.91063  -0.00425   0.00000  -0.02355  -0.02394   1.88669
    D1        3.14159   0.00000   0.00000   0.00000   0.00000   3.14159
    D2       -1.04720   0.00163   0.00000   0.02488   0.02491  -1.02228
    D3        1.04720  -0.00163   0.00000  -0.02488  -0.02491   1.02228
    D4       -1.04720   0.00026   0.00000   0.00388   0.00396  -1.04323
    D5        1.04720   0.00189   0.00000   0.02876   0.02888   1.07607
    D6        3.14159  -0.00137   0.00000  -0.02100  -0.02095   3.12064
    D7        1.04720  -0.00026   0.00000  -0.00388  -0.00396   1.04323
    D8       -3.14159   0.00137   0.00000   0.02100   0.02095  -3.12064
    D9       -1.04720  -0.00189   0.00000  -0.02876  -0.02888  -1.07607
   D10        1.04720  -0.00026   0.00000  -0.00388  -0.00396   1.04323
   D11       -1.04720   0.00026   0.00000   0.00388   0.00396  -1.04323
   D12        3.14159  -0.00000   0.00000  -0.00000   0.00000   3.14159
   D13       -1.04720  -0.00189   0.00000  -0.02876  -0.02888  -1.07607
   D14        3.14159  -0.00137   0.00000  -0.02100  -0.02095   3.12064
   D15        1.04720  -0.00163   0.00000  -0.02488  -0.02491   1.02228
   D16       -3.14159   0.00137   0.00000   0.02100   0.02095  -3.12064
   D17        1.04720   0.00189   0.00000   0.02876   0.02888   1.07607
   D18       -1.04720   0.00163   0.00000   0.02488   0.02491  -1.02228
         Item               Value     Threshold  Converged?
 Maximum Force            0.018494     0.000450     NO 
 RMS     Force            0.008076     0.000300     NO 
 Maximum Displacement     0.099823     0.001800     NO 
 RMS     Displacement     0.042080     0.001200     NO 
 Predicted change in Energy=-4.777610D-03
 GradGradGradGradGradGradGradGradGradGradGradGradGradGradGradGradGradGrad

                          Input orientation:                          
 ---------------------------------------------------------------------
 Center     Atomic      Atomic             Coordinates (Angstroms)
 Number     Number       Type             X           Y           Z
 ---------------------------------------------------------------------
      1          6           0       -0.868760   -0.032759   -0.713811
      2          1           0       -0.996439    0.199623    0.348893
      3          1           0       -0.110053    0.643583   -1.121163
      4          1           0       -1.816125    0.172462   -1.223119
      5          6           0       -0.449727   -1.504425   -0.925348
      6          6           0       -0.263934   -1.854113   -2.418444
      7          1           0        0.487736   -1.693514   -0.390688
      8          1           0       -1.211055   -2.162624   -0.492209
      9          1           0        0.509200   -1.221218   -2.866459
     10          1           0       -1.196871   -1.692339   -2.968415
     11          1           0        0.032843   -2.899925   -2.552023
 ---------------------------------------------------------------------
                    Distance matrix (angstroms):
                    1          2          3          4          5
     1  C    0.000000
     2  H    1.095282   0.000000
     3  H    1.094993   1.773089   0.000000
     4  H    1.094993   1.773089   1.772859   0.000000
     5  C    1.544713   2.196899   2.183497   2.183497   0.000000
     6  C    2.566889   3.523145   2.818706   2.818706   1.544713
     7  H    2.168547   2.516689   2.520509   3.079380   1.095652
     8  H    2.168547   2.516689   3.079380   2.520509   1.095652
     9  H    2.818706   3.824164   2.628120   3.170181   2.183497
    10  H    2.818706   3.824164   3.170181   2.628120   2.183497
    11  H    3.523145   4.368287   3.824164   3.824164   2.196899
                    6          7          8          9         10
     6  C    0.000000
     7  H    2.168547   0.000000
     8  H    2.168547   1.765294   0.000000
     9  H    1.094993   2.520509   3.079380   0.000000
    10  H    1.094993   3.079380   2.520509   1.772859   0.000000
    11  H    1.095282   2.516689   2.516689   1.773089   1.773089
                   11
    11  H    0.000000
 Stoichiometry    C3H8
 Framework group  C2V[C2(C),SGV(C2H2),SGV'(H2),X(H4)]
 Deg. of freedom     9
 Full point group                 C2V     NOp   4
 Largest Abelian subgroup         C2V     NOp   4
 Largest concise Abelian subgroup C2V     NOp   4
                         Standard orientation:                         
 ---------------------------------------------------------------------
 Center     Atomic      Atomic             Coordinates (Angstroms)
 Number     Number       Type             X           Y           Z
 ---------------------------------------------------------------------
      1          6           0        0.000000    1.283445   -0.263577
      2          1           0        0.000000    2.184144    0.359628
      3          1           0        0.886430    1.314060   -0.905695
      4          1           0       -0.886430    1.314060   -0.905695
      5          6           0       -0.000000    0.000000    0.596020
      6          6           0       -0.000000   -1.283445   -0.263577
      7          1           0        0.882647    0.000000    1.245164
      8          1           0       -0.882647    0.000000    1.245164
      9          1           0        0.886430   -1.314060   -0.905695
     10          1           0       -0.886430   -1.314060   -0.905695
     11          1           0       -0.000000   -2.184144    0.359628
 ---------------------------------------------------------------------
 Rotational constants (GHZ):          29.1167410           8.3055766           7.3531868
 Standard basis: 6-31G(d) (6D, 7F)
 There are    25 symmetry adapted cartesian basis functions of A1  symmetry.
 There are     7 symmetry adapted cartesian basis functions of A2  symmetry.
 There are    11 symmetry adapted cartesian basis functions of B1  symmetry.
 There are    18 symmetry adapted cartesian basis functions of B2  symmetry.
 There are    25 symmetry adapted basis functions of A1  symmetry.
 There are     7 symmetry adapted basis functions of A2  symmetry.
 There are    11 symmetry adapted basis functions of B1  symmetry.
 There are    18 symmetry adapted basis functions of B2  symmetry.
    61 basis functions,   116 primitive gaussians,    61 cartesian basis functions
    13 alpha electrons       13 beta electrons
       nuclear repulsion energy        82.0204234715 Hartrees.
 NAtoms=   11 NActive=   11 NUniq=    5 SFac= 4.00D+00 NAtFMM=   60 NAOKFM=F Big=F
 Integral buffers will be    131072 words long.
 Raffenetti 2 integral format.
 Two-electron integral symmetry is turned on.
 One-electron integrals computed using PRISM.
 NBasis=    61 RedAO= T EigKep=  6.41D-03  NBF=    25     7    11    18
 NBsUse=    61 1.00D-06 EigRej= -1.00D+00 NBFU=    25     7    11    18
 Initial guess from the checkpoint file:  "Propane-DFT-6-31G(D).chk"
 B after Tr=     0.000000   -0.000000   -0.000000
         Rot=    1.000000    0.000000    0.000000   -0.000000 Ang=   0.00 deg.
 Initial guess orbital symmetries:
       Occupied  (A1) (B2) (A1) (A1) (B2) (A1) (B1) (A1) (B2) (A2)
                 (B1) (A1) (B2)
       Virtual   (A1) (B1) (B2) (A1) (A1) (B1) (B2) (A2) (A1) (B2)
                 (A1) (B2) (B1) (A1) (A2) (A1) (B2) (B1) (B2) (B1)
                 (A1) (B2) (A1) (A2) (B1) (A1) (B2) (A1) (B2) (A1)
                 (A2) (A1) (B2) (B2) (B1) (A1) (A2) (A1) (B1) (B2)
                 (B1) (A2) (A1) (A1) (B2) (A1) (B2) (A1)
 ExpMin= 1.61D-01 ExpMax= 3.05D+03 ExpMxC= 4.57D+02 IAcc=3 IRadAn=         5 AccDes= 0.00D+00
 Harris functional with IExCor=  402 and IRadAn=       5 diagonalized for initial guess.
 HarFok:  IExCor=  402 AccDes= 0.00D+00 IRadAn=         5 IDoV= 1 UseB2=F ITyADJ=14
 ICtDFT=  3500011 ScaDFX=  1.000000  1.000000  1.000000  1.000000
 FoFCou: FMM=F IPFlag=           0 FMFlag=      100000 FMFlg1=           0
         NFxFlg=           0 DoJE=T BraDBF=F KetDBF=T FulRan=T
         wScrn=  0.000000 ICntrl=       500 IOpCl=  0 I1Cent=   200000004 NGrid=           0
         NMat0=    1 NMatS0=      1 NMatT0=    0 NMatD0=    1 NMtDS0=    0 NMtDT0=    0
 Petite list used in FoFCou.
 Keep R1 ints in memory in symmetry-blocked form, NReq=23039808.
 Requested convergence on RMS density matrix=1.00D-08 within 128 cycles.
 Requested convergence on MAX density matrix=1.00D-06.
 Requested convergence on             energy=1.00D-06.
 No special actions if energy rises.
 Integral accuracy reduced to 1.0D-05 until final iterations.
 Initial convergence to 1.0D-05 achieved.  Increase integral accuracy.
 SCF Done:  E(RB3LYP) =  -119.144008553     A.U. after   10 cycles
            NFock= 10  Conv=0.73D-08     -V/T= 2.0108
 Calling FoFJK, ICntrl=      2127 FMM=F ISym2X=1 I1Cent= 0 IOpClX= 0 NMat=1 NMatS=1 NMatT=0.
 ***** Axes restored to original set *****
 -------------------------------------------------------------------
 Center     Atomic                   Forces (Hartrees/Bohr)
 Number     Number              X              Y              Z
 -------------------------------------------------------------------
      1        6           0.002289350   -0.008098207   -0.000888242
      2        1          -0.000068163    0.000184404    0.000288495
      3        1           0.000100325    0.001538375   -0.000277114
      4        1          -0.000841635    0.001278258   -0.000333406
      5        6          -0.001236151    0.005946388   -0.006792154
      6        6          -0.000950713    0.001658822    0.008243513
      7        1           0.000452461   -0.001207395    0.001450607
      8        1           0.000071407   -0.001312620    0.001427835
      9        1           0.000516864    0.000284023   -0.001451081
     10        1          -0.000425097    0.000023907   -0.001507373
     11        1           0.000091352   -0.000295954   -0.000161079
 -------------------------------------------------------------------
 Cartesian Forces:  Max     0.008243513 RMS     0.002718256

 GradGradGradGradGradGradGradGradGradGradGradGradGradGradGradGradGradGrad
 Berny optimization.
 Using GEDIIS/GDIIS optimizer.
 FormGI is forming the generalized inverse of G from B-inverse, IUseBI=4.
 Internal  Forces:  Max     0.005423317 RMS     0.001327360
 Search for a local minimum.
 Step number   2 out of a maximum of   56
 All quantities printed in internal units (Hartrees-Bohrs-Radians)
 Mixed Optimization -- RFO/linear search
 Update second derivatives using D2CorX and points    1    2
 DE= -4.79D-03 DEPred=-4.78D-03 R= 1.00D+00
 TightC=F SS=  1.41D+00  RLast= 1.93D-01 DXNew= 5.0454D-01 5.7829D-01
 Trust test= 1.00D+00 RLast= 1.93D-01 DXMaxT set to 5.05D-01
 ITU=  1  0
 Use linear search instead of GDIIS.
     Eigenvalues ---    0.00237   0.00237   0.03484   0.04713   0.05411
     Eigenvalues ---    0.05411   0.05531   0.05542   0.08199   0.12119
     Eigenvalues ---    0.15269   0.16000   0.16000   0.16000   0.16000
     Eigenvalues ---    0.16209   0.22021   0.27877   0.28519   0.37020
     Eigenvalues ---    0.37230   0.37230   0.37230   0.37230   0.37230
     Eigenvalues ---    0.37230   0.38862
 RFO step:  Lambda=-3.57394593D-04 EMin= 2.36824221D-03
 Quartic linear search produced a step of  0.07230.
 Iteration  1 RMS(Cart)=  0.00633247 RMS(Int)=  0.00005971
 Iteration  2 RMS(Cart)=  0.00004937 RMS(Int)=  0.00002782
 Iteration  3 RMS(Cart)=  0.00000000 RMS(Int)=  0.00002782
 ClnCor:  largest displacement from symmetrization is 6.57D-09 for atom     4.
 Variable       Old X    -DE/DX   Delta X   Delta X   Delta X     New X
                                 (Linear)    (Quad)   (Total)
    R1        2.06978   0.00033   0.00345  -0.00074   0.00271   2.07250
    R2        2.06924   0.00112   0.00342   0.00157   0.00498   2.07422
    R3        2.06924   0.00112   0.00342   0.00157   0.00498   2.07422
    R4        2.91908  -0.00542   0.00064  -0.02067  -0.02003   2.89905
    R5        2.91908  -0.00542   0.00064  -0.02067  -0.02003   2.89905
    R6        2.07048   0.00130   0.00351   0.00204   0.00555   2.07603
    R7        2.07048   0.00130   0.00351   0.00204   0.00555   2.07603
    R8        2.06924   0.00112   0.00342   0.00157   0.00498   2.07422
    R9        2.06924   0.00112   0.00342   0.00157   0.00498   2.07422
   R10        2.06978   0.00033   0.00345  -0.00074   0.00271   2.07250
    A1        1.88669  -0.00056  -0.00173  -0.00341  -0.00517   1.88153
    A2        1.88669  -0.00056  -0.00173  -0.00341  -0.00517   1.88153
    A3        1.94618  -0.00034   0.00257  -0.00391  -0.00136   1.94481
    A4        1.88670  -0.00123  -0.00173  -0.00648  -0.00828   1.87843
    A5        1.92789   0.00129   0.00125   0.00832   0.00952   1.93742
    A6        1.92789   0.00129   0.00125   0.00832   0.00952   1.93742
    A7        1.96131  -0.00006   0.00366   0.00181   0.00541   1.96672
    A8        1.90678   0.00020  -0.00028   0.00318   0.00285   1.90963
    A9        1.90678   0.00020  -0.00028   0.00318   0.00285   1.90963
   A10        1.90678   0.00020  -0.00028   0.00318   0.00285   1.90963
   A11        1.90678   0.00020  -0.00028   0.00318   0.00285   1.90963
   A12        1.87334  -0.00079  -0.00270  -0.01537  -0.01806   1.85528
   A13        1.92789   0.00129   0.00125   0.00832   0.00952   1.93742
   A14        1.92789   0.00129   0.00125   0.00832   0.00952   1.93742
   A15        1.94618  -0.00034   0.00257  -0.00391  -0.00136   1.94481
   A16        1.88670  -0.00123  -0.00173  -0.00648  -0.00828   1.87843
   A17        1.88669  -0.00056  -0.00173  -0.00341  -0.00517   1.88153
   A18        1.88669  -0.00056  -0.00173  -0.00341  -0.00517   1.88153
    D1        3.14159   0.00000   0.00000  -0.00000   0.00000   3.14159
    D2       -1.02228   0.00036   0.00180   0.00743   0.00924  -1.01304
    D3        1.02228  -0.00036  -0.00180  -0.00743  -0.00924   1.01304
    D4       -1.04323  -0.00006   0.00029  -0.00129  -0.00101  -1.04425
    D5        1.07607   0.00030   0.00209   0.00614   0.00823   1.08430
    D6        3.12064  -0.00042  -0.00151  -0.00872  -0.01026   3.11039
    D7        1.04323   0.00006  -0.00029   0.00129   0.00101   1.04425
    D8       -3.12064   0.00042   0.00151   0.00872   0.01026  -3.11039
    D9       -1.07607  -0.00030  -0.00209  -0.00614  -0.00823  -1.08430
   D10        1.04323   0.00006  -0.00029   0.00129   0.00101   1.04425
   D11       -1.04323  -0.00006   0.00029  -0.00129  -0.00101  -1.04425
   D12        3.14159  -0.00000   0.00000  -0.00000  -0.00000   3.14159
   D13       -1.07607  -0.00030  -0.00209  -0.00614  -0.00823  -1.08430
   D14        3.12064  -0.00042  -0.00151  -0.00872  -0.01026   3.11039
   D15        1.02228  -0.00036  -0.00180  -0.00743  -0.00924   1.01304
   D16       -3.12064   0.00042   0.00151   0.00872   0.01026  -3.11039
   D17        1.07607   0.00030   0.00209   0.00614   0.00823   1.08430
   D18       -1.02228   0.00036   0.00180   0.00743   0.00924  -1.01304
         Item               Value     Threshold  Converged?
 Maximum Force            0.005423     0.000450     NO 
 RMS     Force            0.001327     0.000300     NO 
 Maximum Displacement     0.018484     0.001800     NO 
 RMS     Displacement     0.006329     0.001200     NO 
 Predicted change in Energy=-1.939734D-04
 GradGradGradGradGradGradGradGradGradGradGradGradGradGradGradGradGradGrad

                          Input orientation:                          
 ---------------------------------------------------------------------
 Center     Atomic      Atomic             Coordinates (Angstroms)
 Number     Number       Type             X           Y           Z
 ---------------------------------------------------------------------
      1          6           0       -0.867006   -0.038442   -0.716911
      2          1           0       -0.993756    0.190051    0.348225
      3          1           0       -0.112144    0.648891   -1.120084
      4          1           0       -1.817177    0.178058   -1.221978
      5          6           0       -0.450773   -1.499393   -0.931096
      6          6           0       -0.265245   -1.850566   -2.412906
      7          1           0        0.484591   -1.695759   -0.389405
      8          1           0       -1.207368   -2.162983   -0.490518
      9          1           0        0.509454   -1.222971   -2.871989
     10          1           0       -1.195579   -1.693805   -2.973883
     11          1           0        0.031818   -2.898333   -2.542241
 ---------------------------------------------------------------------
                    Distance matrix (angstroms):
                    1          2          3          4          5
     1  C    0.000000
     2  H    1.096717   0.000000
     3  H    1.097630   1.773050   0.000000
     4  H    1.097630   1.773050   1.771780   0.000000
     5  C    1.534114   2.187628   2.183005   2.183005   0.000000
     6  C    2.553882   3.509800   2.818176   2.818176   1.534114
     7  H    2.163510   2.507168   2.527325   3.082613   1.098588
     8  H    2.163510   2.507168   3.082613   2.527325   1.098588
     9  H    2.818176   3.824402   2.638072   3.177834   2.183005
    10  H    2.818176   3.824402   3.177834   2.638072   2.183005
    11  H    3.509800   4.352553   3.824402   3.824402   2.187628
                    6          7          8          9         10
     6  C    0.000000
     7  H    2.163510   0.000000
     8  H    2.163510   1.758194   0.000000
     9  H    1.097630   2.527325   3.082613   0.000000
    10  H    1.097630   3.082613   2.527325   1.771780   0.000000
    11  H    1.096717   2.507168   2.507168   1.773050   1.773050
                   11
    11  H    0.000000
 Stoichiometry    C3H8
 Framework group  C2V[C2(C),SGV(C2H2),SGV'(H2),X(H4)]
 Deg. of freedom     9
 Full point group                 C2V     NOp   4
 Largest Abelian subgroup         C2V     NOp   4
 Largest concise Abelian subgroup C2V     NOp   4
                         Standard orientation:                         
 ---------------------------------------------------------------------
 Center     Atomic      Atomic             Coordinates (Angstroms)
 Number     Number       Type             X           Y           Z
 ---------------------------------------------------------------------
      1          6           0       -0.000000    1.276941   -0.261088
      2          1           0       -0.000000    2.176276    0.366594
      3          1           0        0.885890    1.319036   -0.907785
      4          1           0       -0.885890    1.319036   -0.907785
      5          6           0       -0.000000   -0.000000    0.589163
      6          6           0       -0.000000   -1.276941   -0.261088
      7          1           0        0.879097   -0.000000    1.248013
      8          1           0       -0.879097    0.000000    1.248013
      9          1           0        0.885890   -1.319036   -0.907785
     10          1           0       -0.885890   -1.319036   -0.907785
     11          1           0       -0.000000   -2.176276    0.366594
 ---------------------------------------------------------------------
 Rotational constants (GHZ):          29.2945038           8.3650258           7.4075980
 Standard basis: 6-31G(d) (6D, 7F)
 There are    25 symmetry adapted cartesian basis functions of A1  symmetry.
 There are     7 symmetry adapted cartesian basis functions of A2  symmetry.
 There are    11 symmetry adapted cartesian basis functions of B1  symmetry.
 There are    18 symmetry adapted cartesian basis functions of B2  symmetry.
 There are    25 symmetry adapted basis functions of A1  symmetry.
 There are     7 symmetry adapted basis functions of A2  symmetry.
 There are    11 symmetry adapted basis functions of B1  symmetry.
 There are    18 symmetry adapted basis functions of B2  symmetry.
    61 basis functions,   116 primitive gaussians,    61 cartesian basis functions
    13 alpha electrons       13 beta electrons
       nuclear repulsion energy        82.2124873176 Hartrees.
 NAtoms=   11 NActive=   11 NUniq=    5 SFac= 4.00D+00 NAtFMM=   60 NAOKFM=F Big=F
 Integral buffers will be    131072 words long.
 Raffenetti 2 integral format.
 Two-electron integral symmetry is turned on.
 One-electron integrals computed using PRISM.
 NBasis=    61 RedAO= T EigKep=  6.29D-03  NBF=    25     7    11    18
 NBsUse=    61 1.00D-06 EigRej= -1.00D+00 NBFU=    25     7    11    18
 Initial guess from the checkpoint file:  "Propane-DFT-6-31G(D).chk"
 B after Tr=     0.000000   -0.000000   -0.000000
         Rot=    1.000000   -0.000000   -0.000000    0.000000 Ang=   0.00 deg.
 Initial guess orbital symmetries:
       Occupied  (A1) (B2) (A1) (A1) (B2) (A1) (B1) (A1) (B2) (A2)
                 (B2) (A1) (B1)
       Virtual   (A1) (B1) (B2) (A1) (A1) (B1) (A2) (B2) (A1) (B2)
                 (A1) (B2) (B1) (A1) (A2) (A1) (B2) (B1) (B2) (B1)
                 (A1) (B2) (A2) (A1) (B1) (A1) (B2) (A1) (B2) (A2)
                 (A1) (A1) (B2) (B1) (B2) (A1) (A2) (A1) (B1) (B2)
                 (B1) (A2) (A1) (A1) (B2) (A1) (B2) (A1)
 Keep R1 ints in memory in symmetry-blocked form, NReq=23039808.
 Requested convergence on RMS density matrix=1.00D-08 within 128 cycles.
 Requested convergence on MAX density matrix=1.00D-06.
 Requested convergence on             energy=1.00D-06.
 No special actions if energy rises.
 SCF Done:  E(RB3LYP) =  -119.144232306     A.U. after    8 cycles
            NFock=  8  Conv=0.41D-08     -V/T= 2.0107
 Calling FoFJK, ICntrl=      2127 FMM=F ISym2X=1 I1Cent= 0 IOpClX= 0 NMat=1 NMatS=1 NMatT=0.
 ***** Axes restored to original set *****
 -------------------------------------------------------------------
 Center     Atomic                   Forces (Hartrees/Bohr)
 Number     Number              X              Y              Z
 -------------------------------------------------------------------
      1        6           0.000279471   -0.001089297    0.000356942
      2        1          -0.000022509    0.000173446   -0.000424809
      3        1          -0.000407203   -0.000046557    0.000153416
      4        1           0.000353828    0.000163597    0.000198896
      5        6          -0.000233622    0.001123818   -0.001283661
      6        6          -0.000004095   -0.000235375    0.001156141
      7        1          -0.000245891   -0.000136931    0.000059062
      8        1           0.000273033    0.000006366    0.000090073
      9        1          -0.000329543   -0.000280418   -0.000065459
     10        1           0.000431488   -0.000070264   -0.000019979
     11        1          -0.000094957    0.000391615   -0.000220622
 -------------------------------------------------------------------
 Cartesian Forces:  Max     0.001283661 RMS     0.000463945

 GradGradGradGradGradGradGradGradGradGradGradGradGradGradGradGradGradGrad
 Berny optimization.
 Using GEDIIS/GDIIS optimizer.
 FormGI is forming the generalized inverse of G from B-inverse, IUseBI=4.
 Internal  Forces:  Max     0.000776240 RMS     0.000275326
 Search for a local minimum.
 Step number   3 out of a maximum of   56
 All quantities printed in internal units (Hartrees-Bohrs-Radians)
 Mixed Optimization -- En-DIIS/RFO-DIIS
 Update second derivatives using D2CorX and points    1    2    3
 DE= -2.24D-04 DEPred=-1.94D-04 R= 1.15D+00
 TightC=F SS=  1.41D+00  RLast= 5.49D-02 DXNew= 8.4853D-01 1.6468D-01
 Trust test= 1.15D+00 RLast= 5.49D-02 DXMaxT set to 5.05D-01
 ITU=  1  1  0
 Use linear search instead of GDIIS.
     Eigenvalues ---    0.00237   0.00237   0.03415   0.04250   0.05380
     Eigenvalues ---    0.05380   0.05438   0.05468   0.08290   0.12186
     Eigenvalues ---    0.13766   0.16000   0.16000   0.16000   0.16000
     Eigenvalues ---    0.16396   0.21607   0.28519   0.28538   0.37130
     Eigenvalues ---    0.37230   0.37230   0.37230   0.37230   0.37230
     Eigenvalues ---    0.37304   0.40209
 RFO step:  Lambda=-1.36527667D-05 EMin= 2.36824221D-03
 Quartic linear search produced a step of  0.14595.
 Iteration  1 RMS(Cart)=  0.00240171 RMS(Int)=  0.00000684
 Iteration  2 RMS(Cart)=  0.00000748 RMS(Int)=  0.00000397
 Iteration  3 RMS(Cart)=  0.00000000 RMS(Int)=  0.00000397
 ClnCor:  largest displacement from symmetrization is 9.97D-09 for atom    11.
 Variable       Old X    -DE/DX   Delta X   Delta X   Delta X     New X
                                 (Linear)    (Quad)   (Total)
    R1        2.07250  -0.00037   0.00040  -0.00114  -0.00074   2.07176
    R2        2.07422  -0.00037   0.00073  -0.00136  -0.00064   2.07358
    R3        2.07422  -0.00037   0.00073  -0.00136  -0.00064   2.07358
    R4        2.89905  -0.00078  -0.00292  -0.00083  -0.00375   2.89530
    R5        2.89905  -0.00078  -0.00292  -0.00083  -0.00375   2.89530
    R6        2.07603  -0.00016   0.00081  -0.00078   0.00003   2.07606
    R7        2.07603  -0.00016   0.00081  -0.00078   0.00003   2.07606
    R8        2.07422  -0.00037   0.00073  -0.00136  -0.00064   2.07358
    R9        2.07422  -0.00037   0.00073  -0.00136  -0.00064   2.07358
   R10        2.07250  -0.00037   0.00040  -0.00114  -0.00074   2.07176
    A1        1.88153  -0.00025  -0.00075  -0.00108  -0.00184   1.87968
    A2        1.88153  -0.00025  -0.00075  -0.00108  -0.00184   1.87968
    A3        1.94481   0.00029  -0.00020   0.00275   0.00255   1.94736
    A4        1.87843  -0.00027  -0.00121  -0.00168  -0.00290   1.87553
    A5        1.93742   0.00021   0.00139   0.00044   0.00182   1.93923
    A6        1.93742   0.00021   0.00139   0.00044   0.00182   1.93923
    A7        1.96672   0.00064   0.00079   0.00412   0.00489   1.97161
    A8        1.90963  -0.00016   0.00042  -0.00064  -0.00023   1.90939
    A9        1.90963  -0.00016   0.00042  -0.00064  -0.00023   1.90939
   A10        1.90963  -0.00016   0.00042  -0.00064  -0.00023   1.90939
   A11        1.90963  -0.00016   0.00042  -0.00064  -0.00023   1.90939
   A12        1.85528  -0.00003  -0.00264  -0.00190  -0.00454   1.85074
   A13        1.93742   0.00021   0.00139   0.00044   0.00182   1.93923
   A14        1.93742   0.00021   0.00139   0.00044   0.00182   1.93923
   A15        1.94481   0.00029  -0.00020   0.00275   0.00255   1.94736
   A16        1.87843  -0.00027  -0.00121  -0.00168  -0.00290   1.87553
   A17        1.88153  -0.00025  -0.00075  -0.00108  -0.00184   1.87968
   A18        1.88153  -0.00025  -0.00075  -0.00108  -0.00184   1.87968
    D1        3.14159  -0.00000  -0.00000   0.00000   0.00000   3.14159
    D2       -1.01304   0.00011   0.00135   0.00151   0.00286  -1.01019
    D3        1.01304  -0.00011  -0.00135  -0.00151  -0.00286   1.01019
    D4       -1.04425   0.00003  -0.00015   0.00077   0.00062  -1.04363
    D5        1.08430   0.00014   0.00120   0.00228   0.00348   1.08778
    D6        3.11039  -0.00008  -0.00150  -0.00074  -0.00224   3.10815
    D7        1.04425  -0.00003   0.00015  -0.00077  -0.00062   1.04363
    D8       -3.11039   0.00008   0.00150   0.00074   0.00224  -3.10815
    D9       -1.08430  -0.00014  -0.00120  -0.00228  -0.00348  -1.08778
   D10        1.04425  -0.00003   0.00015  -0.00077  -0.00062   1.04363
   D11       -1.04425   0.00003  -0.00015   0.00077   0.00062  -1.04363
   D12       -3.14159  -0.00000   0.00000  -0.00000   0.00000  -3.14159
   D13       -1.08430  -0.00014  -0.00120  -0.00228  -0.00348  -1.08778
   D14        3.11039  -0.00008  -0.00150  -0.00074  -0.00224   3.10815
   D15        1.01304  -0.00011  -0.00135  -0.00151  -0.00286   1.01019
   D16       -3.11039   0.00008   0.00150   0.00074   0.00224  -3.10815
   D17        1.08430   0.00014   0.00120   0.00228   0.00348   1.08778
   D18       -1.01304   0.00011   0.00135   0.00151   0.00286  -1.01019
         Item               Value     Threshold  Converged?
 Maximum Force            0.000776     0.000450     NO 
 RMS     Force            0.000275     0.000300     YES
 Maximum Displacement     0.005571     0.001800     NO 
 RMS     Displacement     0.002398     0.001200     NO 
 Predicted change in Energy=-1.070560D-05
 GradGradGradGradGradGradGradGradGradGradGradGradGradGradGradGradGradGrad

                          Input orientation:                          
 ---------------------------------------------------------------------
 Center     Atomic      Atomic             Coordinates (Angstroms)
 Number     Number       Type             X           Y           Z
 ---------------------------------------------------------------------
      1          6           0       -0.866947   -0.038903   -0.715761
      2          1           0       -0.993680    0.189614    0.348968
      3          1           0       -0.114083    0.650825   -1.117658
      4          1           0       -1.816783    0.180635   -1.219413
      5          6           0       -0.451188   -1.497398   -0.933375
      6          6           0       -0.264987   -1.851626   -2.412317
      7          1           0        0.483020   -1.695466   -0.390276
      8          1           0       -1.206083   -2.161901   -0.491218
      9          1           0        0.509137   -1.225919   -2.874132
     10          1           0       -1.193564   -1.696109   -2.975887
     11          1           0        0.031972   -2.899004   -2.541718
 ---------------------------------------------------------------------
                    Distance matrix (angstroms):
                    1          2          3          4          5
     1  C    0.000000
     2  H    1.096326   0.000000
     3  H    1.097292   1.771270   0.000000
     4  H    1.097292   1.771270   1.769356   0.000000
     5  C    1.532128   2.187398   2.182306   2.182306   0.000000
     6  C    2.554725   3.510320   2.821555   2.821555   1.532128
     7  H    2.161608   2.506122   2.527983   3.081609   1.098605
     8  H    2.161608   2.506122   3.081609   2.527983   1.098605
     9  H    2.821555   3.827605   2.644952   3.182199   2.182306
    10  H    2.821555   3.827605   3.182199   2.644952   2.182306
    11  H    3.510320   4.352882   3.827605   3.827605   2.187398
                    6          7          8          9         10
     6  C    0.000000
     7  H    2.161608   0.000000
     8  H    2.161608   1.755226   0.000000
     9  H    1.097292   2.527983   3.081609   0.000000
    10  H    1.097292   3.081609   2.527983   1.769356   0.000000
    11  H    1.096326   2.506122   2.506122   1.771270   1.771270
                   11
    11  H    0.000000
 Stoichiometry    C3H8
 Framework group  C2V[C2(C),SGV(C2H2),SGV'(H2),X(H4)]
 Deg. of freedom     9
 Full point group                 C2V     NOp   4
 Largest Abelian subgroup         C2V     NOp   4
 Largest concise Abelian subgroup C2V     NOp   4
                         Standard orientation:                         
 ---------------------------------------------------------------------
 Center     Atomic      Atomic             Coordinates (Angstroms)
 Number     Number       Type             X           Y           Z
 ---------------------------------------------------------------------
      1          6           0       -0.000000    1.277362   -0.259782
      2          1           0       -0.000000    2.176441    0.367583
      3          1           0        0.884678    1.322476   -0.907362
      4          1           0       -0.884678    1.322476   -0.907362
      5          6           0        0.000000    0.000000    0.586245
      6          6           0        0.000000   -1.277362   -0.259782
      7          1           0        0.877613    0.000000    1.247099
      8          1           0       -0.877613    0.000000    1.247099
      9          1           0        0.884678   -1.322476   -0.907362
     10          1           0       -0.884678   -1.322476   -0.907362
     11          1           0        0.000000   -2.176441    0.367583
 ---------------------------------------------------------------------
 Rotational constants (GHZ):          29.4268438           8.3581068           7.4075723
 Standard basis: 6-31G(d) (6D, 7F)
 There are    25 symmetry adapted cartesian basis functions of A1  symmetry.
 There are     7 symmetry adapted cartesian basis functions of A2  symmetry.
 There are    11 symmetry adapted cartesian basis functions of B1  symmetry.
 There are    18 symmetry adapted cartesian basis functions of B2  symmetry.
 There are    25 symmetry adapted basis functions of A1  symmetry.
 There are     7 symmetry adapted basis functions of A2  symmetry.
 There are    11 symmetry adapted basis functions of B1  symmetry.
 There are    18 symmetry adapted basis functions of B2  symmetry.
    61 basis functions,   116 primitive gaussians,    61 cartesian basis functions
    13 alpha electrons       13 beta electrons
       nuclear repulsion energy        82.2503252827 Hartrees.
 NAtoms=   11 NActive=   11 NUniq=    5 SFac= 4.00D+00 NAtFMM=   60 NAOKFM=F Big=F
 Integral buffers will be    131072 words long.
 Raffenetti 2 integral format.
 Two-electron integral symmetry is turned on.
 One-electron integrals computed using PRISM.
 NBasis=    61 RedAO= T EigKep=  6.27D-03  NBF=    25     7    11    18
 NBsUse=    61 1.00D-06 EigRej= -1.00D+00 NBFU=    25     7    11    18
 Initial guess from the checkpoint file:  "Propane-DFT-6-31G(D).chk"
 B after Tr=    -0.000000    0.000000    0.000000
         Rot=    1.000000   -0.000000    0.000000   -0.000000 Ang=   0.00 deg.
 Initial guess orbital symmetries:
       Occupied  (A1) (B2) (A1) (A1) (B2) (A1) (B1) (A1) (B2) (A2)
                 (A1) (B2) (B1)
       Virtual   (A1) (B1) (B2) (A1) (A1) (B1) (A2) (B2) (A1) (B2)
                 (A1) (B2) (B1) (A1) (A2) (A1) (B2) (B1) (B2) (B1)
                 (A1) (B2) (A2) (A1) (B1) (A1) (B2) (A1) (B2) (A2)
                 (A1) (A1) (B2) (B1) (B2) (A1) (A2) (A1) (B1) (B2)
                 (B1) (A2) (A1) (A1) (B2) (A1) (B2) (A1)
 Keep R1 ints in memory in symmetry-blocked form, NReq=23039808.
 Requested convergence on RMS density matrix=1.00D-08 within 128 cycles.
 Requested convergence on MAX density matrix=1.00D-06.
 Requested convergence on             energy=1.00D-06.
 No special actions if energy rises.
 SCF Done:  E(RB3LYP) =  -119.144242812     A.U. after    7 cycles
            NFock=  7  Conv=0.99D-08     -V/T= 2.0107
 Calling FoFJK, ICntrl=      2127 FMM=F ISym2X=1 I1Cent= 0 IOpClX= 0 NMat=1 NMatS=1 NMatT=0.
 ***** Axes restored to original set *****
 -------------------------------------------------------------------
 Center     Atomic                   Forces (Hartrees/Bohr)
 Number     Number              X              Y              Z
 -------------------------------------------------------------------
      1        6          -0.000019979    0.000077752   -0.000024964
      2        1           0.000026261   -0.000073837   -0.000098251
      3        1          -0.000048079   -0.000023442    0.000024068
      4        1           0.000050296    0.000003724    0.000029947
      5        6           0.000021063   -0.000101320    0.000115731
      6        6           0.000000426    0.000016306   -0.000082472
      7        1          -0.000031875    0.000017081   -0.000029561
      8        1           0.000021698    0.000031875   -0.000026359
      9        1          -0.000043047   -0.000038596    0.000009885
     10        1           0.000055329   -0.000011430    0.000015764
     11        1          -0.000032092    0.000101887    0.000066211
 -------------------------------------------------------------------
 Cartesian Forces:  Max     0.000115731 RMS     0.000051626

 GradGradGradGradGradGradGradGradGradGradGradGradGradGradGradGradGradGrad
 Berny optimization.
 Using GEDIIS/GDIIS optimizer.
 FormGI is forming the generalized inverse of G from B-inverse, IUseBI=4.
 Internal  Forces:  Max     0.000113846 RMS     0.000038848
 Search for a local minimum.
 Step number   4 out of a maximum of   56
 All quantities printed in internal units (Hartrees-Bohrs-Radians)
 Mixed Optimization -- En-DIIS/RFO-DIIS
 Swapping is turned off.
 Update second derivatives using D2CorX and points    1    2    3    4
 DE= -1.05D-05 DEPred=-1.07D-05 R= 9.81D-01
 TightC=F SS=  1.41D+00  RLast= 1.53D-02 DXNew= 8.4853D-01 4.5970D-02
 Trust test= 9.81D-01 RLast= 1.53D-02 DXMaxT set to 5.05D-01
 ITU=  1  1  1  0
     Eigenvalues ---    0.00237   0.00237   0.03380   0.04371   0.05355
     Eigenvalues ---    0.05355   0.05421   0.05500   0.08346   0.12227
     Eigenvalues ---    0.13572   0.16000   0.16000   0.16000   0.16000
     Eigenvalues ---    0.16874   0.21932   0.28519   0.29002   0.36819
     Eigenvalues ---    0.37109   0.37230   0.37230   0.37230   0.37230
     Eigenvalues ---    0.37230   0.37394
 En-DIIS/RFO-DIIS/Sim-DIIS IScMMF=       -3 using points:     4    3
 RFO step:  Lambda=-2.78583309D-07.
 DidBck=F Rises=F RFO-DIIS coefs:    0.97439    0.02561
 Iteration  1 RMS(Cart)=  0.00026147 RMS(Int)=  0.00000008
 Iteration  2 RMS(Cart)=  0.00000007 RMS(Int)=  0.00000005
 ClnCor:  largest displacement from symmetrization is 7.23D-09 for atom     4.
 Variable       Old X    -DE/DX   Delta X   Delta X   Delta X     New X
                                 (Linear)    (Quad)   (Total)
    R1        2.07176  -0.00011   0.00002  -0.00032  -0.00030   2.07146
    R2        2.07358  -0.00006   0.00002  -0.00017  -0.00016   2.07342
    R3        2.07358  -0.00006   0.00002  -0.00017  -0.00016   2.07342
    R4        2.89530  -0.00003   0.00010  -0.00013  -0.00004   2.89527
    R5        2.89530  -0.00003   0.00010  -0.00013  -0.00004   2.89527
    R6        2.07606  -0.00004  -0.00000  -0.00012  -0.00012   2.07594
    R7        2.07606  -0.00004  -0.00000  -0.00012  -0.00012   2.07594
    R8        2.07358  -0.00006   0.00002  -0.00017  -0.00016   2.07342
    R9        2.07358  -0.00006   0.00002  -0.00017  -0.00016   2.07342
   R10        2.07176  -0.00011   0.00002  -0.00032  -0.00030   2.07146
    A1        1.87968   0.00002   0.00005   0.00000   0.00005   1.87973
    A2        1.87968   0.00002   0.00005   0.00000   0.00005   1.87973
    A3        1.94736  -0.00009  -0.00007  -0.00050  -0.00056   1.94680
    A4        1.87553  -0.00002   0.00007  -0.00006   0.00002   1.87554
    A5        1.93923   0.00003  -0.00005   0.00028   0.00023   1.93946
    A6        1.93923   0.00003  -0.00005   0.00028   0.00023   1.93946
    A7        1.97161  -0.00003  -0.00013   0.00000  -0.00012   1.97149
    A8        1.90939   0.00001   0.00001  -0.00001  -0.00000   1.90939
    A9        1.90939   0.00001   0.00001  -0.00001  -0.00000   1.90939
   A10        1.90939   0.00001   0.00001  -0.00001  -0.00000   1.90939
   A11        1.90939   0.00001   0.00001  -0.00001  -0.00000   1.90939
   A12        1.85074   0.00000   0.00012   0.00003   0.00015   1.85089
   A13        1.93923   0.00003  -0.00005   0.00028   0.00023   1.93946
   A14        1.93923   0.00003  -0.00005   0.00028   0.00023   1.93946
   A15        1.94736  -0.00009  -0.00007  -0.00050  -0.00056   1.94680
   A16        1.87553  -0.00002   0.00007  -0.00006   0.00002   1.87554
   A17        1.87968   0.00002   0.00005   0.00000   0.00005   1.87973
   A18        1.87968   0.00002   0.00005   0.00000   0.00005   1.87973
    D1        3.14159   0.00000  -0.00000   0.00000   0.00000   3.14159
    D2       -1.01019  -0.00001  -0.00007  -0.00001  -0.00009  -1.01027
    D3        1.01019   0.00001   0.00007   0.00001   0.00009   1.01027
    D4       -1.04363  -0.00001  -0.00002  -0.00015  -0.00016  -1.04379
    D5        1.08778  -0.00002  -0.00009  -0.00016  -0.00025   1.08753
    D6        3.10815  -0.00000   0.00006  -0.00013  -0.00007   3.10808
    D7        1.04363   0.00001   0.00002   0.00015   0.00016   1.04379
    D8       -3.10815   0.00000  -0.00006   0.00013   0.00007  -3.10808
    D9       -1.08778   0.00002   0.00009   0.00016   0.00025  -1.08753
   D10        1.04363   0.00001   0.00002   0.00015   0.00016   1.04379
   D11       -1.04363  -0.00001  -0.00002  -0.00015  -0.00016  -1.04379
   D12        3.14159  -0.00000   0.00000  -0.00000   0.00000   3.14159
   D13       -1.08778   0.00002   0.00009   0.00016   0.00025  -1.08753
   D14        3.10815  -0.00000   0.00006  -0.00013  -0.00007   3.10808
   D15        1.01019   0.00001   0.00007   0.00001   0.00009   1.01027
   D16       -3.10815   0.00000  -0.00006   0.00013   0.00007  -3.10808
   D17        1.08778  -0.00002  -0.00009  -0.00016  -0.00025   1.08753
   D18       -1.01019  -0.00001  -0.00007  -0.00001  -0.00009  -1.01027
         Item               Value     Threshold  Converged?
 Maximum Force            0.000114     0.000450     YES
 RMS     Force            0.000039     0.000300     YES
 Maximum Displacement     0.001017     0.001800     YES
 RMS     Displacement     0.000261     0.001200     YES
 Predicted change in Energy=-1.392974D-07
 Optimization completed.
    -- Stationary point found.
                           ----------------------------
                           !   Optimized Parameters   !
                           ! (Angstroms and Degrees)  !
 --------------------------                            --------------------------
 ! Name  Definition              Value          Derivative Info.                !
 --------------------------------------------------------------------------------
 ! R1    R(1,2)                  1.0963         -DE/DX =   -0.0001              !
 ! R2    R(1,3)                  1.0973         -DE/DX =   -0.0001              !
 ! R3    R(1,4)                  1.0973         -DE/DX =   -0.0001              !
 ! R4    R(1,5)                  1.5321         -DE/DX =    0.0                 !
 ! R5    R(5,6)                  1.5321         -DE/DX =    0.0                 !
 ! R6    R(5,7)                  1.0986         -DE/DX =    0.0                 !
 ! R7    R(5,8)                  1.0986         -DE/DX =    0.0                 !
 ! R8    R(6,9)                  1.0973         -DE/DX =   -0.0001              !
 ! R9    R(6,10)                 1.0973         -DE/DX =   -0.0001              !
 ! R10   R(6,11)                 1.0963         -DE/DX =   -0.0001              !
 ! A1    A(2,1,3)              107.698          -DE/DX =    0.0                 !
 ! A2    A(2,1,4)              107.698          -DE/DX =    0.0                 !
 ! A3    A(2,1,5)              111.5757         -DE/DX =   -0.0001              !
 ! A4    A(3,1,4)              107.4598         -DE/DX =    0.0                 !
 ! A5    A(3,1,5)              111.11           -DE/DX =    0.0                 !
 ! A6    A(4,1,5)              111.11           -DE/DX =    0.0                 !
 ! A7    A(1,5,6)              112.9651         -DE/DX =    0.0                 !
 ! A8    A(1,5,7)              109.4002         -DE/DX =    0.0                 !
 ! A9    A(1,5,8)              109.4002         -DE/DX =    0.0                 !
 ! A10   A(6,5,7)              109.4002         -DE/DX =    0.0                 !
 ! A11   A(6,5,8)              109.4002         -DE/DX =    0.0                 !
 ! A12   A(7,5,8)              106.0395         -DE/DX =    0.0                 !
 ! A13   A(5,6,9)              111.11           -DE/DX =    0.0                 !
 ! A14   A(5,6,10)             111.11           -DE/DX =    0.0                 !
 ! A15   A(5,6,11)             111.5757         -DE/DX =   -0.0001              !
 ! A16   A(9,6,10)             107.4598         -DE/DX =    0.0                 !
 ! A17   A(9,6,11)             107.698          -DE/DX =    0.0                 !
 ! A18   A(10,6,11)            107.698          -DE/DX =    0.0                 !
 ! D1    D(2,1,5,6)            180.0            -DE/DX =    0.0                 !
 ! D2    D(2,1,5,7)            -57.8794         -DE/DX =    0.0                 !
 ! D3    D(2,1,5,8)             57.8794         -DE/DX =    0.0                 !
 ! D4    D(3,1,5,6)            -59.7955         -DE/DX =    0.0                 !
 ! D5    D(3,1,5,7)             62.3251         -DE/DX =    0.0                 !
 ! D6    D(3,1,5,8)            178.0839         -DE/DX =    0.0                 !
 ! D7    D(4,1,5,6)             59.7955         -DE/DX =    0.0                 !
 ! D8    D(4,1,5,7)           -178.0839         -DE/DX =    0.0                 !
 ! D9    D(4,1,5,8)            -62.3251         -DE/DX =    0.0                 !
 ! D10   D(1,5,6,9)             59.7955         -DE/DX =    0.0                 !
 ! D11   D(1,5,6,10)           -59.7955         -DE/DX =    0.0                 !
 ! D12   D(1,5,6,11)           180.0            -DE/DX =    0.0                 !
 ! D13   D(7,5,6,9)            -62.3251         -DE/DX =    0.0                 !
 ! D14   D(7,5,6,10)           178.0839         -DE/DX =    0.0                 !
 ! D15   D(7,5,6,11)            57.8794         -DE/DX =    0.0                 !
 ! D16   D(8,5,6,9)           -178.0839         -DE/DX =    0.0                 !
 ! D17   D(8,5,6,10)            62.3251         -DE/DX =    0.0                 !
 ! D18   D(8,5,6,11)           -57.8794         -DE/DX =    0.0                 !
 --------------------------------------------------------------------------------
 GradGradGradGradGradGradGradGradGradGradGradGradGradGradGradGradGradGrad

                          Input orientation:                          
 ---------------------------------------------------------------------
 Center     Atomic      Atomic             Coordinates (Angstroms)
 Number     Number       Type             X           Y           Z
 ---------------------------------------------------------------------
      1          6           0       -0.866947   -0.038903   -0.715761
      2          1           0       -0.993680    0.189614    0.348968
      3          1           0       -0.114083    0.650825   -1.117658
      4          1           0       -1.816783    0.180635   -1.219413
      5          6           0       -0.451188   -1.497398   -0.933375
      6          6           0       -0.264987   -1.851626   -2.412317
      7          1           0        0.483020   -1.695466   -0.390276
      8          1           0       -1.206083   -2.161901   -0.491218
      9          1           0        0.509137   -1.225919   -2.874132
     10          1           0       -1.193564   -1.696109   -2.975887
     11          1           0        0.031972   -2.899004   -2.541718
 ---------------------------------------------------------------------
                    Distance matrix (angstroms):
                    1          2          3          4          5
     1  C    0.000000
     2  H    1.096326   0.000000
     3  H    1.097292   1.771270   0.000000
     4  H    1.097292   1.771270   1.769356   0.000000
     5  C    1.532128   2.187398   2.182306   2.182306   0.000000
     6  C    2.554725   3.510320   2.821555   2.821555   1.532128
     7  H    2.161608   2.506122   2.527983   3.081609   1.098605
     8  H    2.161608   2.506122   3.081609   2.527983   1.098605
     9  H    2.821555   3.827605   2.644952   3.182199   2.182306
    10  H    2.821555   3.827605   3.182199   2.644952   2.182306
    11  H    3.510320   4.352882   3.827605   3.827605   2.187398
                    6          7          8          9         10
     6  C    0.000000
     7  H    2.161608   0.000000
     8  H    2.161608   1.755226   0.000000
     9  H    1.097292   2.527983   3.081609   0.000000
    10  H    1.097292   3.081609   2.527983   1.769356   0.000000
    11  H    1.096326   2.506122   2.506122   1.771270   1.771270
                   11
    11  H    0.000000
 Stoichiometry    C3H8
 Framework group  C2V[C2(C),SGV(C2H2),SGV'(H2),X(H4)]
 Deg. of freedom     9
 Full point group                 C2V     NOp   4
 Largest Abelian subgroup         C2V     NOp   4
 Largest concise Abelian subgroup C2V     NOp   4
                         Standard orientation:                         
 ---------------------------------------------------------------------
 Center     Atomic      Atomic             Coordinates (Angstroms)
 Number     Number       Type             X           Y           Z
 ---------------------------------------------------------------------
      1          6           0       -0.000000    1.277362   -0.259782
      2          1           0       -0.000000    2.176441    0.367583
      3          1           0        0.884678    1.322476   -0.907362
      4          1           0       -0.884678    1.322476   -0.907362
      5          6           0       -0.000000   -0.000000    0.586245
      6          6           0        0.000000   -1.277362   -0.259782
      7          1           0        0.877613   -0.000000    1.247099
      8          1           0       -0.877613    0.000000    1.247099
      9          1           0        0.884678   -1.322476   -0.907362
     10          1           0       -0.884678   -1.322476   -0.907362
     11          1           0        0.000000   -2.176441    0.367583
 ---------------------------------------------------------------------
 Rotational constants (GHZ):          29.4268438           8.3581068           7.4075723

 **********************************************************************

            Population analysis using the SCF Density.

 **********************************************************************

 Orbital symmetries:
       Occupied  (A1) (B2) (A1) (A1) (B2) (A1) (B1) (A1) (B2) (A2)
                 (B2) (A1) (B1)
       Virtual   (A1) (B1) (B2) (A1) (A1) (B1) (A2) (B2) (A1) (B2)
                 (A1) (B2) (B1) (A1) (A2) (A1) (B2) (B1) (B2) (B1)
                 (A1) (B2) (A2) (A1) (B1) (A1) (B2) (A1) (B2) (A2)
                 (A1) (A1) (B2) (B1) (B2) (A1) (A2) (A1) (B1) (B2)
                 (B1) (A2) (A1) (A1) (B2) (A1) (B2) (A1)
 The electronic state is 1-A1.
 Alpha  occ. eigenvalues --  -10.17831 -10.17005 -10.17004  -0.77395  -0.67562
 Alpha  occ. eigenvalues --   -0.58023  -0.45152  -0.43102  -0.39331  -0.37662
 Alpha  occ. eigenvalues --   -0.33326  -0.33247  -0.32442
 Alpha virt. eigenvalues --    0.09605   0.14800   0.14991   0.15009   0.17040
 Alpha virt. eigenvalues --    0.19385   0.19429   0.19677   0.22791   0.26666
 Alpha virt. eigenvalues --    0.51157   0.51873   0.54797   0.56044   0.58395
 Alpha virt. eigenvalues --    0.66794   0.70227   0.73915   0.78931   0.87369
 Alpha virt. eigenvalues --    0.88488   0.89051   0.91300   0.92160   0.95756
 Alpha virt. eigenvalues --    0.96912   0.98222   1.03538   1.38584   1.46470
 Alpha virt. eigenvalues --    1.48156   1.56429   1.74218   1.90402   1.92506
 Alpha virt. eigenvalues --    1.97095   2.03823   2.09297   2.23368   2.25567
 Alpha virt. eigenvalues --    2.32783   2.38623   2.41505   2.57173   2.67264
 Alpha virt. eigenvalues --    4.13681   4.27831   4.45970
          Condensed to atoms (all electrons):
               1          2          3          4          5          6
     1  C    5.054516   0.373457   0.377870   0.377870   0.384391  -0.050854
     2  H    0.373457   0.577863  -0.031293  -0.031293  -0.028659   0.004603
     3  H    0.377870  -0.031293   0.580583  -0.033151  -0.035661  -0.004009
     4  H    0.377870  -0.031293  -0.033151   0.580583  -0.035661  -0.004009
     5  C    0.384391  -0.028659  -0.035661  -0.035661   4.909115   0.384391
     6  C   -0.050854   0.004603  -0.004009  -0.004009   0.384391   5.054516
     7  H   -0.039560  -0.002751  -0.004598   0.005322   0.381542  -0.039560
     8  H   -0.039560  -0.002751   0.005322  -0.004598   0.381542  -0.039560
     9  H   -0.004009  -0.000025   0.004744  -0.000349  -0.035661   0.377870
    10  H   -0.004009  -0.000025  -0.000349   0.004744  -0.035661   0.377870
    11  H    0.004603  -0.000174  -0.000025  -0.000025  -0.028659   0.373457
               7          8          9         10         11
     1  C   -0.039560  -0.039560  -0.004009  -0.004009   0.004603
     2  H   -0.002751  -0.002751  -0.000025  -0.000025  -0.000174
     3  H   -0.004598   0.005322   0.004744  -0.000349  -0.000025
     4  H    0.005322  -0.004598  -0.000349   0.004744  -0.000025
     5  C    0.381542   0.381542  -0.035661  -0.035661  -0.028659
     6  C   -0.039560  -0.039560   0.377870   0.377870   0.373457
     7  H    0.608355  -0.039760  -0.004598   0.005322  -0.002751
     8  H   -0.039760   0.608355   0.005322  -0.004598  -0.002751
     9  H   -0.004598   0.005322   0.580583  -0.033151  -0.031293
    10  H    0.005322  -0.004598  -0.033151   0.580583  -0.031293
    11  H   -0.002751  -0.002751  -0.031293  -0.031293   0.577863
 Mulliken charges:
               1
     1  C   -0.434713
     2  H    0.141049
     3  H    0.140568
     4  H    0.140568
     5  C   -0.241018
     6  C   -0.434713
     7  H    0.133038
     8  H    0.133038
     9  H    0.140568
    10  H    0.140568
    11  H    0.141049
 Sum of Mulliken charges =  -0.00000
 Mulliken charges with hydrogens summed into heavy atoms:
               1
     1  C   -0.012529
     5  C    0.025057
     6  C   -0.012529
 Electronic spatial extent (au):  <R**2>=            227.6096
 Charge=             -0.0000 electrons
 Dipole moment (field-independent basis, Debye):
    X=              0.0000    Y=             -0.0000    Z=              0.0553  Tot=              0.0553
 Quadrupole moment (field-independent basis, Debye-Ang):
   XX=            -21.2367   YY=            -21.8845   ZZ=            -21.5819
   XY=             -0.0000   XZ=              0.0000   YZ=             -0.0000
 Traceless Quadrupole moment (field-independent basis, Debye-Ang):
   XX=              0.3310   YY=             -0.3168   ZZ=             -0.0142
   XY=             -0.0000   XZ=              0.0000   YZ=             -0.0000
 Octapole moment (field-independent basis, Debye-Ang**2):
  XXX=              0.0000  YYY=             -0.0000  ZZZ=              0.1890  XYY=             -0.0000
  XXY=              0.0000  XXZ=             -0.4662  XZZ=             -0.0000  YZZ=              0.0000
  YYZ=              1.2481  XYZ=             -0.0000
 Hexadecapole moment (field-independent basis, Debye-Ang**3):
 XXXX=            -42.5103 YYYY=           -201.0423 ZZZZ=            -69.1638 XXXY=              0.0000
 XXXZ=              0.0000 YYYX=             -0.0000 YYYZ=             -0.0000 ZZZX=              0.0000
 ZZZY=             -0.0000 XXYY=            -41.3542 XXZZ=            -16.8204 YYZZ=            -44.7407
 XXYZ=             -0.0000 YYXZ=              0.0000 ZZXY=             -0.0000
 N-N= 8.225032528268D+01 E-N=-4.390822348537D+02  KE= 1.178857140248D+02
 Symmetry A1   KE= 7.295465107453D+01
 Symmetry A2   KE= 2.017124677019D+00
 Symmetry B1   KE= 3.845925561839D+00
 Symmetry B2   KE= 3.906801271139D+01
 ******************************Gaussian NBO Version 3.1******************************
             N A T U R A L   A T O M I C   O R B I T A L   A N D
          N A T U R A L   B O N D   O R B I T A L   A N A L Y S I S
 ******************************Gaussian NBO Version 3.1******************************
       /RESON  / : Allow strongly delocalized NBO set

 Analyzing the SCF density

 Job title: Propane-dft-6-31G(D)                                            

 Storage needed:     11598 in NPA,     15203 in NBO (1342176565 available)


 NATURAL POPULATIONS:  Natural atomic orbital occupancies 
                                                          
   NAO  Atom  No  lang   Type(AO)    Occupancy      Energy
 ----------------------------------------------------------
     1    C    1  S      Cor( 1S)     1.99946     -10.04139
     2    C    1  S      Val( 2S)     1.10403      -0.24803
     3    C    1  S      Ryd( 3S)     0.00039       1.25209
     4    C    1  S      Ryd( 4S)     0.00002       4.23157
     5    C    1  px     Val( 2p)     1.23726      -0.07100
     6    C    1  px     Ryd( 3p)     0.00098       0.64393
     7    C    1  py     Val( 2p)     1.13611      -0.06469
     8    C    1  py     Ryd( 3p)     0.00150       0.62368
     9    C    1  pz     Val( 2p)     1.19155      -0.06735
    10    C    1  pz     Ryd( 3p)     0.00123       0.63125
    11    C    1  dxy    Ryd( 3d)     0.00013       1.81327
    12    C    1  dxz    Ryd( 3d)     0.00123       2.20313
    13    C    1  dyz    Ryd( 3d)     0.00085       2.23426
    14    C    1  dx2y2  Ryd( 3d)     0.00099       2.22477
    15    C    1  dz2    Ryd( 3d)     0.00012       1.79942
 
    16    H    2  S      Val( 1S)     0.76917       0.09521
    17    H    2  S      Ryd( 2S)     0.00080       0.65134
 
    18    H    3  S      Val( 1S)     0.77558       0.09051
    19    H    3  S      Ryd( 2S)     0.00113       0.66158
 
    20    H    4  S      Val( 1S)     0.77558       0.09051
    21    H    4  S      Ryd( 2S)     0.00113       0.66158
 
    22    C    5  S      Cor( 1S)     1.99938     -10.04616
    23    C    5  S      Val( 2S)     1.04103      -0.23121
    24    C    5  S      Ryd( 3S)     0.00072       1.33808
    25    C    5  S      Ryd( 4S)     0.00002       4.29332
    26    C    5  px     Val( 2p)     1.23535      -0.06725
    27    C    5  px     Ryd( 3p)     0.00248       0.75373
    28    C    5  py     Val( 2p)     1.02901      -0.05754
    29    C    5  py     Ryd( 3p)     0.00135       0.60930
    30    C    5  pz     Val( 2p)     1.14192      -0.06369
    31    C    5  pz     Ryd( 3p)     0.00084       0.61509
    32    C    5  dxy    Ryd( 3d)     0.00025       1.85446
    33    C    5  dxz    Ryd( 3d)     0.00142       2.22177
    34    C    5  dyz    Ryd( 3d)     0.00067       2.28528
    35    C    5  dx2y2  Ryd( 3d)     0.00099       2.25345
    36    C    5  dz2    Ryd( 3d)     0.00020       1.85741
 
    37    C    6  S      Cor( 1S)     1.99946     -10.04139
    38    C    6  S      Val( 2S)     1.10403      -0.24803
    39    C    6  S      Ryd( 3S)     0.00039       1.25209
    40    C    6  S      Ryd( 4S)     0.00002       4.23157
    41    C    6  px     Val( 2p)     1.23726      -0.07100
    42    C    6  px     Ryd( 3p)     0.00098       0.64393
    43    C    6  py     Val( 2p)     1.13611      -0.06469
    44    C    6  py     Ryd( 3p)     0.00150       0.62368
    45    C    6  pz     Val( 2p)     1.19155      -0.06735
    46    C    6  pz     Ryd( 3p)     0.00123       0.63125
    47    C    6  dxy    Ryd( 3d)     0.00013       1.81327
    48    C    6  dxz    Ryd( 3d)     0.00123       2.20313
    49    C    6  dyz    Ryd( 3d)     0.00085       2.23426
    50    C    6  dx2y2  Ryd( 3d)     0.00099       2.22477
    51    C    6  dz2    Ryd( 3d)     0.00012       1.79942
 
    52    H    7  S      Val( 1S)     0.77139       0.09666
    53    H    7  S      Ryd( 2S)     0.00155       0.65958
 
    54    H    8  S      Val( 1S)     0.77139       0.09666
    55    H    8  S      Ryd( 2S)     0.00155       0.65958
 
    56    H    9  S      Val( 1S)     0.77558       0.09051
    57    H    9  S      Ryd( 2S)     0.00113       0.66158
 
    58    H   10  S      Val( 1S)     0.77558       0.09051
    59    H   10  S      Ryd( 2S)     0.00113       0.66158
 
    60    H   11  S      Val( 1S)     0.76917       0.09521
    61    H   11  S      Ryd( 2S)     0.00080       0.65134


 Summary of Natural Population Analysis:                  
                                                          
                                       Natural Population 
                Natural  -----------------------------------------------
    Atom  No    Charge         Core      Valence    Rydberg      Total
 -----------------------------------------------------------------------
      C    1   -0.67586      1.99946     4.66896    0.00743     6.67586
      H    2    0.23003      0.00000     0.76917    0.00080     0.76997
      H    3    0.22329      0.00000     0.77558    0.00113     0.77671
      H    4    0.22329      0.00000     0.77558    0.00113     0.77671
      C    5   -0.45563      1.99938     4.44732    0.00893     6.45563
      C    6   -0.67586      1.99946     4.66896    0.00743     6.67586
      H    7    0.22705      0.00000     0.77139    0.00155     0.77295
      H    8    0.22705      0.00000     0.77139    0.00155     0.77295
      H    9    0.22329      0.00000     0.77558    0.00113     0.77671
      H   10    0.22329      0.00000     0.77558    0.00113     0.77671
      H   11    0.23003      0.00000     0.76917    0.00080     0.76997
 =======================================================================
   * Total *    0.00000      5.99831    19.96867    0.03302    26.00000

                                 Natural Population      
 --------------------------------------------------------
   Core                       5.99831 ( 99.9718% of   6)
   Valence                   19.96867 ( 99.8434% of  20)
   Natural Minimal Basis     25.96698 ( 99.8730% of  26)
   Natural Rydberg Basis      0.03302 (  0.1270% of  26)
 --------------------------------------------------------

    Atom  No          Natural Electron Configuration
 ----------------------------------------------------------------------------
      C    1      [core]2S( 1.10)2p( 3.56)
      H    2            1S( 0.77)
      H    3            1S( 0.78)
      H    4            1S( 0.78)
      C    5      [core]2S( 1.04)2p( 3.41)
      C    6      [core]2S( 1.10)2p( 3.56)
      H    7            1S( 0.77)
      H    8            1S( 0.77)
      H    9            1S( 0.78)
      H   10            1S( 0.78)
      H   11            1S( 0.77)


 NATURAL BOND ORBITAL ANALYSIS:

                       Occupancies       Lewis Structure    Low   High
           Occ.    -------------------  -----------------   occ   occ
  Cycle   Thresh.   Lewis   Non-Lewis     CR  BD  3C  LP    (L)   (NL)   Dev
 =============================================================================
   1(1)    1.90    25.89078   0.10922      3  10   0   0     0      0    0.03
 -----------------------------------------------------------------------------

 Structure accepted: No low occupancy Lewis orbitals

 --------------------------------------------------------
   Core                      5.99831 ( 99.972% of   6)
   Valence Lewis            19.89247 ( 99.462% of  20)
  ==================       ============================
   Total Lewis              25.89078 ( 99.580% of  26)
  -----------------------------------------------------
   Valence non-Lewis         0.08713 (  0.335% of  26)
   Rydberg non-Lewis         0.02209 (  0.085% of  26)
  ==================       ============================
   Total non-Lewis           0.10922 (  0.420% of  26)
 --------------------------------------------------------


       (Occupancy)   Bond orbital/ Coefficients/ Hybrids
 ---------------------------------------------------------------------------------
     1. (1.99047) BD ( 1) C   1 - H   2  
                ( 61.52%)   0.7843* C   1 s( 24.04%)p 3.16( 75.89%)d 0.00(  0.06%)
                                            0.0000  0.4903  0.0007 -0.0007  0.0000
                                            0.0000  0.7091  0.0018  0.5059 -0.0122
                                            0.0000 -0.0000  0.0209 -0.0143 -0.0004
                ( 38.48%)   0.6203* H   2 s(100.00%)
                                            1.0000  0.0003
     2. (1.99122) BD ( 1) C   1 - H   3  
                ( 61.30%)   0.7829* C   1 s( 23.73%)p 3.21( 76.21%)d 0.00(  0.06%)
                                            0.0000  0.4871  0.0038 -0.0007  0.7068
                                           -0.0046  0.0283  0.0136 -0.5114 -0.0027
                                            0.0015 -0.0210 -0.0007  0.0143  0.0007
                ( 38.70%)   0.6221* H   3 s(100.00%)
                                            1.0000  0.0013
     3. (1.99122) BD ( 1) C   1 - H   4  
                ( 61.30%)   0.7829* C   1 s( 23.73%)p 3.21( 76.21%)d 0.00(  0.06%)
                                           -0.0000 -0.4871 -0.0038  0.0007  0.7068
                                           -0.0046 -0.0283 -0.0136  0.5114  0.0027
                                            0.0015 -0.0210  0.0007 -0.0143 -0.0007
                ( 38.70%)   0.6221* H   4 s(100.00%)
                                           -1.0000 -0.0013
     4. (1.99162) BD ( 1) C   1 - C   5  
                ( 49.92%)   0.7066* C   1 s( 28.49%)p 2.51( 71.47%)d 0.00(  0.04%)
                                            0.0003  0.5337 -0.0101  0.0023  0.0000
                                            0.0000 -0.7033 -0.0008  0.4690  0.0117
                                            0.0000 -0.0000 -0.0152 -0.0116 -0.0011
                ( 50.08%)   0.7076* C   5 s( 27.07%)p 2.69( 72.89%)d 0.00(  0.04%)
                                            0.0001  0.5201 -0.0115  0.0008  0.0000
                                            0.0000  0.7068  0.0143 -0.4787  0.0049
                                            0.0000  0.0000 -0.0163 -0.0115 -0.0005
     5. (1.99162) BD ( 1) C   5 - C   6  
                ( 50.08%)   0.7076* C   5 s( 27.07%)p 2.69( 72.89%)d 0.00(  0.04%)
                                            0.0001  0.5201 -0.0115  0.0008  0.0000
                                            0.0000 -0.7068 -0.0143 -0.4787  0.0049
                                            0.0000  0.0000  0.0163 -0.0115 -0.0005
                ( 49.92%)   0.7066* C   6 s( 28.49%)p 2.51( 71.47%)d 0.00(  0.04%)
                                            0.0003  0.5337 -0.0101  0.0023 -0.0000
                                            0.0000  0.7033  0.0008  0.4690  0.0117
                                            0.0000  0.0000  0.0152 -0.0116 -0.0011
     6. (1.98171) BD ( 1) C   5 - H   7  
                ( 61.50%)   0.7842* C   5 s( 22.95%)p 3.35( 76.98%)d 0.00(  0.07%)
                                           -0.0001  0.4790  0.0100 -0.0007  0.7066
                                           -0.0150 -0.0000  0.0000  0.5198  0.0040
                                            0.0000  0.0217 -0.0000  0.0149  0.0010
                ( 38.50%)   0.6205* H   7 s(100.00%)
                                            1.0000  0.0023
     7. (1.98171) BD ( 1) C   5 - H   8  
                ( 61.50%)   0.7842* C   5 s( 22.95%)p 3.35( 76.98%)d 0.00(  0.07%)
                                            0.0001 -0.4790 -0.0100  0.0007  0.7066
                                           -0.0150  0.0000 -0.0000 -0.5198 -0.0040
                                            0.0000  0.0217  0.0000 -0.0149 -0.0010
                ( 38.50%)   0.6205* H   8 s(100.00%)
                                           -1.0000 -0.0023
     8. (1.99122) BD ( 1) C   6 - H   9  
                ( 61.30%)   0.7829* C   6 s( 23.73%)p 3.21( 76.21%)d 0.00(  0.06%)
                                            0.0000  0.4871  0.0038 -0.0007  0.7068
                                           -0.0046 -0.0283 -0.0136 -0.5114 -0.0027
                                           -0.0015 -0.0210  0.0007  0.0143  0.0007
                ( 38.70%)   0.6221* H   9 s(100.00%)
                                            1.0000  0.0013
     9. (1.99122) BD ( 1) C   6 - H  10  
                ( 61.30%)   0.7829* C   6 s( 23.73%)p 3.21( 76.21%)d 0.00(  0.06%)
                                           -0.0000 -0.4871 -0.0038  0.0007  0.7068
                                           -0.0046  0.0283  0.0136  0.5114  0.0027
                                           -0.0015 -0.0210 -0.0007 -0.0143 -0.0007
                ( 38.70%)   0.6221* H  10 s(100.00%)
                                           -1.0000 -0.0013
    10. (1.99047) BD ( 1) C   6 - H  11  
                ( 61.52%)   0.7843* C   6 s( 24.04%)p 3.16( 75.89%)d 0.00(  0.06%)
                                           -0.0000 -0.4903 -0.0007  0.0007 -0.0000
                                            0.0000  0.7091  0.0018 -0.5059  0.0122
                                           -0.0000  0.0000  0.0209  0.0143  0.0004
                ( 38.48%)   0.6203* H  11 s(100.00%)
                                           -1.0000 -0.0003
    11. (1.99946) CR ( 1) C   1           s(100.00%)p 0.00(  0.00%)
                                            1.0000 -0.0001  0.0000 -0.0000  0.0000
                                           -0.0000  0.0002  0.0000 -0.0001 -0.0000
                                            0.0000 -0.0000  0.0000  0.0000  0.0000
    12. (1.99938) CR ( 1) C   5           s(100.00%)p 0.00(  0.00%)
                                            1.0000 -0.0001  0.0000 -0.0000 -0.0000
                                            0.0000  0.0000 -0.0000  0.0002 -0.0000
                                            0.0000 -0.0000  0.0000  0.0000  0.0000
    13. (1.99946) CR ( 1) C   6           s(100.00%)p 0.00(  0.00%)
                                            1.0000 -0.0001  0.0000 -0.0000 -0.0000
                                            0.0000 -0.0002 -0.0000 -0.0001 -0.0000
                                            0.0000  0.0000 -0.0000  0.0000  0.0000
    14. (0.00212) RY*( 1) C   1           s(  4.31%)p19.31( 83.15%)d 2.91( 12.55%)
                                            0.0000 -0.0075  0.2071  0.0098 -0.0000
                                            0.0000  0.0115  0.6802  0.0165  0.6070
                                           -0.0000 -0.0000 -0.1735  0.2177  0.2190
    15. (0.00126) RY*( 2) C   1           s(  0.00%)p 1.00( 75.26%)d 0.33( 24.74%)
                                            0.0000 -0.0000  0.0000 -0.0000  0.0179
                                            0.8674 -0.0000 -0.0000  0.0000  0.0000
                                           -0.3077  0.3908  0.0000 -0.0000  0.0000
    16. (0.00027) RY*( 3) C   1           s( 23.89%)p 3.02( 72.24%)d 0.16(  3.87%)
                                           -0.0000 -0.0083  0.4881 -0.0245 -0.0000
                                            0.0000 -0.0184  0.5383  0.0094 -0.6575
                                           -0.0000  0.0000  0.0745 -0.0986 -0.1530
    17. (0.00016) RY*( 4) C   1           s( 64.65%)p 0.41( 26.21%)d 0.14(  9.14%)
                                           -0.0000  0.0070  0.7705  0.2297 -0.0000
                                            0.0000 -0.0024 -0.3836 -0.0053  0.3390
                                           -0.0000  0.0000  0.1389 -0.1683 -0.2092
    18. (0.00001) RY*( 5) C   1           s(  7.40%)p 1.54( 11.41%)d10.98( 81.19%)
    19. (0.00000) RY*( 6) C   1           s(  0.00%)p 1.00( 11.18%)d 7.94( 88.82%)
    20. (0.00000) RY*( 7) C   1           s(  0.00%)p 1.00( 13.64%)d 6.33( 86.36%)
    21. (0.00000) RY*( 8) C   1           s(  2.19%)p 2.20(  4.80%)d42.56( 93.02%)
    22. (0.00000) RY*( 9) C   1           s(  0.22%)p 0.37(  0.08%)d99.99( 99.70%)
    23. (0.00000) RY*(10) C   1           s( 97.36%)p 0.02(  2.25%)d 0.00(  0.40%)
    24. (0.00080) RY*( 1) H   2           s(100.00%)
                                           -0.0003  1.0000
    25. (0.00113) RY*( 1) H   3           s(100.00%)
                                           -0.0013  1.0000
    26. (0.00113) RY*( 1) H   4           s(100.00%)
                                           -0.0013  1.0000
    27. (0.00244) RY*( 1) C   5           s(  0.00%)p 1.00( 85.53%)d 0.17( 14.47%)
                                           -0.0000 -0.0000  0.0000  0.0000  0.0312
                                            0.9243 -0.0000 -0.0000 -0.0000 -0.0000
                                            0.0000 -0.3804 -0.0000  0.0000  0.0000
    28. (0.00119) RY*( 2) C   5           s(  9.79%)p 6.08( 59.56%)d 3.13( 30.65%)
                                           -0.0000  0.0066  0.3084  0.0528 -0.0000
                                           -0.0000 -0.0000  0.0000 -0.0182 -0.7715
                                           -0.0000  0.0000  0.0000  0.4012  0.3814
    29. (0.00099) RY*( 3) C   5           s(  0.00%)p 1.00( 94.95%)d 0.05(  5.05%)
                                            0.0000 -0.0000 -0.0000  0.0000  0.0000
                                            0.0000 -0.0145  0.9743  0.0000  0.0000
                                            0.0000 -0.0000  0.2246  0.0000 -0.0000
    30. (0.00025) RY*( 4) C   5           s(  0.00%)p 0.00(  0.00%)d 1.00(100.00%)
                                            0.0000  0.0000  0.0000  0.0000  0.0000
                                            0.0000  0.0000  0.0000  0.0000  0.0000
                                            1.0000  0.0000  0.0000  0.0000  0.0000
    31. (0.00016) RY*( 5) C   5           s( 65.50%)p 0.41( 26.70%)d 0.12(  7.80%)
                                           -0.0000 -0.0033  0.8093 -0.0052  0.0000
                                           -0.0000  0.0000  0.0000 -0.0238  0.5162
                                            0.0000  0.0000 -0.0000  0.2479  0.1286
    32. (0.00010) RY*( 6) C   5           s(  0.00%)p 1.00(  5.10%)d18.61( 94.90%)
                                           -0.0000  0.0000  0.0000 -0.0000  0.0000
                                           -0.0000  0.0270 -0.2242 -0.0000 -0.0000
                                            0.0000  0.0000  0.9742 -0.0000  0.0000
    33. (0.00007) RY*( 7) C   5           s( 38.30%)p 0.25(  9.73%)d 1.36( 51.97%)
    34. (0.00000) RY*( 8) C   5           s( 85.65%)p 0.05(  4.01%)d 0.12( 10.34%)
    35. (0.00000) RY*( 9) C   5           s(  0.00%)p 1.00( 14.57%)d 5.86( 85.43%)
    36. (0.00000) RY*(10) C   5           s(  0.71%)p 0.15(  0.11%)d99.99( 99.18%)
    37. (0.00212) RY*( 1) C   6           s(  4.31%)p19.31( 83.15%)d 2.91( 12.55%)
                                            0.0000 -0.0075  0.2071  0.0098 -0.0000
                                            0.0000 -0.0115 -0.6802  0.0165  0.6070
                                           -0.0000  0.0000  0.1735  0.2177  0.2190
    38. (0.00126) RY*( 2) C   6           s(  0.00%)p 1.00( 75.26%)d 0.33( 24.74%)
                                           -0.0000  0.0000  0.0000 -0.0000  0.0179
                                            0.8674 -0.0000 -0.0000 -0.0000 -0.0000
                                            0.3077  0.3908  0.0000  0.0000 -0.0000
    39. (0.00027) RY*( 3) C   6           s( 23.89%)p 3.02( 72.24%)d 0.16(  3.87%)
                                           -0.0000 -0.0083  0.4881 -0.0245 -0.0000
                                            0.0000  0.0184 -0.5383  0.0094 -0.6575
                                           -0.0000  0.0000 -0.0745 -0.0986 -0.1530
    40. (0.00016) RY*( 4) C   6           s( 64.65%)p 0.41( 26.21%)d 0.14(  9.14%)
                                           -0.0000  0.0070  0.7705  0.2297 -0.0000
                                            0.0000  0.0024  0.3836 -0.0053  0.3390
                                            0.0000  0.0000 -0.1389 -0.1683 -0.2092
    41. (0.00001) RY*( 5) C   6           s(  7.40%)p 1.54( 11.41%)d10.98( 81.19%)
    42. (0.00000) RY*( 6) C   6           s(  0.00%)p 1.00( 11.18%)d 7.94( 88.82%)
    43. (0.00000) RY*( 7) C   6           s(  0.00%)p 1.00( 13.64%)d 6.33( 86.36%)
    44. (0.00000) RY*( 8) C   6           s(  2.19%)p 2.20(  4.80%)d42.56( 93.02%)
    45. (0.00000) RY*( 9) C   6           s(  0.22%)p 0.37(  0.08%)d99.99( 99.70%)
    46. (0.00000) RY*(10) C   6           s( 97.36%)p 0.02(  2.25%)d 0.00(  0.40%)
    47. (0.00156) RY*( 1) H   7           s(100.00%)
                                           -0.0023  1.0000
    48. (0.00156) RY*( 1) H   8           s(100.00%)
                                           -0.0023  1.0000
    49. (0.00113) RY*( 1) H   9           s(100.00%)
                                           -0.0013  1.0000
    50. (0.00113) RY*( 1) H  10           s(100.00%)
                                           -0.0013  1.0000
    51. (0.00080) RY*( 1) H  11           s(100.00%)
                                           -0.0003  1.0000
    52. (0.00520) BD*( 1) C   1 - H   2  
                ( 38.48%)   0.6203* C   1 s( 24.04%)p 3.16( 75.89%)d 0.00(  0.06%)
                                           -0.0000 -0.4903 -0.0007  0.0007 -0.0000
                                           -0.0000 -0.7091 -0.0018 -0.5059  0.0122
                                           -0.0000  0.0000 -0.0209  0.0143  0.0004
                ( 61.52%)  -0.7843* H   2 s(100.00%)
                                           -1.0000 -0.0003
    53. (0.00810) BD*( 1) C   1 - H   3  
                ( 38.70%)   0.6221* C   1 s( 23.73%)p 3.21( 76.21%)d 0.00(  0.06%)
                                           -0.0000 -0.4871 -0.0038  0.0007 -0.7068
                                            0.0046 -0.0283 -0.0136  0.5114  0.0027
                                           -0.0015  0.0210  0.0007 -0.0143 -0.0007
                ( 61.30%)  -0.7829* H   3 s(100.00%)
                                           -1.0000 -0.0013
    54. (0.00810) BD*( 1) C   1 - H   4  
                ( 38.70%)   0.6221* C   1 s( 23.73%)p 3.21( 76.21%)d 0.00(  0.06%)
                                            0.0000  0.4871  0.0038 -0.0007 -0.7068
                                            0.0046  0.0283  0.0136 -0.5114 -0.0027
                                           -0.0015  0.0210 -0.0007  0.0143  0.0007
                ( 61.30%)  -0.7829* H   4 s(100.00%)
                                            1.0000  0.0013
    55. (0.00855) BD*( 1) C   1 - C   5  
                ( 50.08%)   0.7076* C   1 s( 28.49%)p 2.51( 71.47%)d 0.00(  0.04%)
                                            0.0003  0.5337 -0.0101  0.0023  0.0000
                                            0.0000 -0.7033 -0.0008  0.4690  0.0117
                                            0.0000 -0.0000 -0.0152 -0.0116 -0.0011
                ( 49.92%)  -0.7066* C   5 s( 27.07%)p 2.69( 72.89%)d 0.00(  0.04%)
                                            0.0001  0.5201 -0.0115  0.0008  0.0000
                                            0.0000  0.7068  0.0143 -0.4787  0.0049
                                            0.0000  0.0000 -0.0163 -0.0115 -0.0005
    56. (0.00855) BD*( 1) C   5 - C   6  
                ( 49.92%)   0.7066* C   5 s( 27.07%)p 2.69( 72.89%)d 0.00(  0.04%)
                                           -0.0001 -0.5201  0.0115 -0.0008 -0.0000
                                           -0.0000  0.7068  0.0143  0.4787 -0.0049
                                           -0.0000 -0.0000 -0.0163  0.0115  0.0005
                ( 50.08%)  -0.7076* C   6 s( 28.49%)p 2.51( 71.47%)d 0.00(  0.04%)
                                           -0.0003 -0.5337  0.0101 -0.0023  0.0000
                                           -0.0000 -0.7033 -0.0008 -0.4690 -0.0117
                                           -0.0000 -0.0000 -0.0152  0.0116  0.0011
    57. (0.01361) BD*( 1) C   5 - H   7  
                ( 38.50%)   0.6205* C   5 s( 22.95%)p 3.35( 76.98%)d 0.00(  0.07%)
                                            0.0001 -0.4790 -0.0100  0.0007 -0.7066
                                            0.0150  0.0000 -0.0000 -0.5198 -0.0040
                                           -0.0000 -0.0217  0.0000 -0.0149 -0.0010
                ( 61.50%)  -0.7842* H   7 s(100.00%)
                                           -1.0000 -0.0023
    58. (0.01361) BD*( 1) C   5 - H   8  
                ( 38.50%)   0.6205* C   5 s( 22.95%)p 3.35( 76.98%)d 0.00(  0.07%)
                                           -0.0001  0.4790  0.0100 -0.0007 -0.7066
                                            0.0150 -0.0000  0.0000  0.5198  0.0040
                                           -0.0000 -0.0217 -0.0000  0.0149  0.0010
                ( 61.50%)  -0.7842* H   8 s(100.00%)
                                            1.0000  0.0023
    59. (0.00810) BD*( 1) C   6 - H   9  
                ( 38.70%)   0.6221* C   6 s( 23.73%)p 3.21( 76.21%)d 0.00(  0.06%)
                                           -0.0000 -0.4871 -0.0038  0.0007 -0.7068
                                            0.0046  0.0283  0.0136  0.5114  0.0027
                                            0.0015  0.0210 -0.0007 -0.0143 -0.0007
                ( 61.30%)  -0.7829* H   9 s(100.00%)
                                           -1.0000 -0.0013
    60. (0.00810) BD*( 1) C   6 - H  10  
                ( 38.70%)   0.6221* C   6 s( 23.73%)p 3.21( 76.21%)d 0.00(  0.06%)
                                            0.0000  0.4871  0.0038 -0.0007 -0.7068
                                            0.0046 -0.0283 -0.0136 -0.5114 -0.0027
                                            0.0015  0.0210  0.0007  0.0143  0.0007
                ( 61.30%)  -0.7829* H  10 s(100.00%)
                                            1.0000  0.0013
    61. (0.00520) BD*( 1) C   6 - H  11  
                ( 38.48%)   0.6203* C   6 s( 24.04%)p 3.16( 75.89%)d 0.00(  0.06%)
                                            0.0000  0.4903  0.0007 -0.0007  0.0000
                                           -0.0000 -0.7091 -0.0018  0.5059 -0.0122
                                            0.0000 -0.0000 -0.0209 -0.0143 -0.0004
                ( 61.52%)  -0.7843* H  11 s(100.00%)
                                            1.0000  0.0003


 NHO Directionality and "Bond Bending" (deviations from line of nuclear centers)

         [Thresholds for printing:  angular deviation  >  1.0 degree]
                                    hybrid p-character > 25.0%
                                    orbital occupancy  >  0.10e

                                Line of Centers        Hybrid 1              Hybrid 2
                                ---------------  -------------------   ------------------
                NBO               Theta   Phi    Theta   Phi    Dev    Theta   Phi    Dev
 ========================================================================================
    None exceeding thresholds


 Second Order Perturbation Theory Analysis of Fock Matrix in NBO Basis

     Threshold for printing:   0.50 kcal/mol
                                                                              E(2)  E(j)-E(i) F(i,j)
         Donor NBO (i)                     Acceptor NBO (j)                 kcal/mol   a.u.    a.u. 
 ===================================================================================================

 within unit  1
   1. BD (   1) C   1 - H   2        / 28. RY*(   2) C   5                    0.55    1.65    0.027
   1. BD (   1) C   1 - H   2        / 56. BD*(   1) C   5 - C   6            3.11    0.88    0.047
   2. BD (   1) C   1 - H   3        / 58. BD*(   1) C   5 - H   8            2.59    0.95    0.044
   3. BD (   1) C   1 - H   4        / 57. BD*(   1) C   5 - H   7            2.59    0.95    0.044
   4. BD (   1) C   1 - C   5        / 37. RY*(   1) C   6                    0.98    1.51    0.034
   4. BD (   1) C   1 - C   5        / 52. BD*(   1) C   1 - H   2            0.52    1.04    0.021
   4. BD (   1) C   1 - C   5        / 56. BD*(   1) C   5 - C   6            0.54    0.98    0.021
   4. BD (   1) C   1 - C   5        / 61. BD*(   1) C   6 - H  11            1.66    1.04    0.037
   5. BD (   1) C   5 - C   6        / 14. RY*(   1) C   1                    0.98    1.51    0.034
   5. BD (   1) C   5 - C   6        / 52. BD*(   1) C   1 - H   2            1.66    1.04    0.037
   5. BD (   1) C   5 - C   6        / 55. BD*(   1) C   1 - C   5            0.54    0.98    0.021
   5. BD (   1) C   5 - C   6        / 61. BD*(   1) C   6 - H  11            0.52    1.04    0.021
   6. BD (   1) C   5 - H   7        / 15. RY*(   2) C   1                    0.51    1.51    0.025
   6. BD (   1) C   5 - H   7        / 38. RY*(   2) C   6                    0.51    1.51    0.025
   6. BD (   1) C   5 - H   7        / 54. BD*(   1) C   1 - H   4            2.85    0.93    0.046
   6. BD (   1) C   5 - H   7        / 60. BD*(   1) C   6 - H  10            2.85    0.93    0.046
   7. BD (   1) C   5 - H   8        / 15. RY*(   2) C   1                    0.51    1.51    0.025
   7. BD (   1) C   5 - H   8        / 38. RY*(   2) C   6                    0.51    1.51    0.025
   7. BD (   1) C   5 - H   8        / 53. BD*(   1) C   1 - H   3            2.85    0.93    0.046
   7. BD (   1) C   5 - H   8        / 59. BD*(   1) C   6 - H   9            2.85    0.93    0.046
   8. BD (   1) C   6 - H   9        / 58. BD*(   1) C   5 - H   8            2.59    0.95    0.044
   9. BD (   1) C   6 - H  10        / 57. BD*(   1) C   5 - H   7            2.59    0.95    0.044
  10. BD (   1) C   6 - H  11        / 28. RY*(   2) C   5                    0.55    1.65    0.027
  10. BD (   1) C   6 - H  11        / 55. BD*(   1) C   1 - C   5            3.11    0.88    0.047
  11. CR (   1) C   1                / 29. RY*(   3) C   5                    0.94   10.75    0.090
  11. CR (   1) C   1                / 31. RY*(   5) C   5                    0.51   11.22    0.068
  12. CR (   1) C   5                / 16. RY*(   3) C   1                    1.14   10.82    0.099
  12. CR (   1) C   5                / 39. RY*(   3) C   6                    1.14   10.82    0.099
  13. CR (   1) C   6                / 29. RY*(   3) C   5                    0.94   10.75    0.090
  13. CR (   1) C   6                / 31. RY*(   5) C   5                    0.51   11.22    0.068


 Natural Bond Orbitals (Summary):

                                                            Principal Delocalizations
           NBO                        Occupancy    Energy   (geminal,vicinal,remote)
 ====================================================================================
 Molecular unit  1  (C3H8)
     1. BD (   1) C   1 - H   2          1.99047    -0.48370  56(v),28(v)
     2. BD (   1) C   1 - H   3          1.99122    -0.48290  58(v)
     3. BD (   1) C   1 - H   4          1.99122    -0.48290  57(v)
     4. BD (   1) C   1 - C   5          1.99162    -0.57847  61(v),37(v),56(g),52(g)
     5. BD (   1) C   5 - C   6          1.99162    -0.57847  52(v),14(v),55(g),61(g)
     6. BD (   1) C   5 - H   7          1.98171    -0.47552  54(v),60(v),15(v),38(v)
     7. BD (   1) C   5 - H   8          1.98171    -0.47552  53(v),59(v),15(v),38(v)
     8. BD (   1) C   6 - H   9          1.99122    -0.48290  58(v)
     9. BD (   1) C   6 - H  10          1.99122    -0.48290  57(v)
    10. BD (   1) C   6 - H  11          1.99047    -0.48370  55(v),28(v)
    11. CR (   1) C   1                  1.99946   -10.04116  29(v),31(v)
    12. CR (   1) C   5                  1.99938   -10.04602  16(v),39(v)
    13. CR (   1) C   6                  1.99946   -10.04116  29(v),31(v)
    14. RY*(   1) C   1                  0.00212     0.93521   
    15. RY*(   2) C   1                  0.00126     1.03320   
    16. RY*(   3) C   1                  0.00027     0.77814   
    17. RY*(   4) C   1                  0.00016     1.34382   
    18. RY*(   5) C   1                  0.00001     1.87429   
    19. RY*(   6) C   1                  0.00000     1.71954   
    20. RY*(   7) C   1                  0.00000     1.90307   
    21. RY*(   8) C   1                  0.00000     2.11388   
    22. RY*(   9) C   1                  0.00000     1.99310   
    23. RY*(  10) C   1                  0.00000     3.94707   
    24. RY*(   1) H   2                  0.00080     0.65117   
    25. RY*(   1) H   3                  0.00113     0.66085   
    26. RY*(   1) H   4                  0.00113     0.66085   
    27. RY*(   1) C   5                  0.00244     1.05133   
    28. RY*(   2) C   5                  0.00119     1.16308   
    29. RY*(   3) C   5                  0.00099     0.70773   
    30. RY*(   4) C   5                  0.00025     1.85446   
    31. RY*(   5) C   5                  0.00016     1.17768   
    32. RY*(   6) C   5                  0.00010     2.17932   
    33. RY*(   7) C   5                  0.00007     2.26272   
    34. RY*(   8) C   5                  0.00000     3.73788   
    35. RY*(   9) C   5                  0.00000     1.92001   
    36. RY*(  10) C   5                  0.00000     2.00966   
    37. RY*(   1) C   6                  0.00212     0.93521   
    38. RY*(   2) C   6                  0.00126     1.03320   
    39. RY*(   3) C   6                  0.00027     0.77814   
    40. RY*(   4) C   6                  0.00016     1.34382   
    41. RY*(   5) C   6                  0.00001     1.87429   
    42. RY*(   6) C   6                  0.00000     1.71954   
    43. RY*(   7) C   6                  0.00000     1.90307   
    44. RY*(   8) C   6                  0.00000     2.11388   
    45. RY*(   9) C   6                  0.00000     1.99310   
    46. RY*(  10) C   6                  0.00000     3.94707   
    47. RY*(   1) H   7                  0.00156     0.65824   
    48. RY*(   1) H   8                  0.00156     0.65824   
    49. RY*(   1) H   9                  0.00113     0.66085   
    50. RY*(   1) H  10                  0.00113     0.66085   
    51. RY*(   1) H  11                  0.00080     0.65117   
    52. BD*(   1) C   1 - H   2          0.00520     0.46419   
    53. BD*(   1) C   1 - H   3          0.00810     0.45810   
    54. BD*(   1) C   1 - H   4          0.00810     0.45810   
    55. BD*(   1) C   1 - C   5          0.00855     0.39989   
    56. BD*(   1) C   5 - C   6          0.00855     0.39989   
    57. BD*(   1) C   5 - H   7          0.01361     0.46292   
    58. BD*(   1) C   5 - H   8          0.01361     0.46292   
    59. BD*(   1) C   6 - H   9          0.00810     0.45810   
    60. BD*(   1) C   6 - H  10          0.00810     0.45810   
    61. BD*(   1) C   6 - H  11          0.00520     0.46419   
       -------------------------------
              Total Lewis   25.89078  ( 99.5799%)
        Valence non-Lewis    0.08713  (  0.3351%)
        Rydberg non-Lewis    0.02209  (  0.0850%)
       -------------------------------
            Total unit  1   26.00000  (100.0000%)
           Charge unit  1    0.00000
 Unable to Open any file for archive entry.
 1\1\GINC-LOCALHOST\FOpt\RB3LYP\6-31G(d)\C3H8\USER\21-Mar-2026\0\\# opt
  freq b3lyp/6-31g(d) pop=nbo geom=connectivity\\Propane-dft-6-31G(D)\\
 0,1\C,-0.8669467575,-0.038903479,-0.715761348\H,-0.9936795808,0.189614
 1655,0.3489677994\H,-0.1140826183,0.6508249436,-1.1176578526\H,-1.8167
 828149,0.1806352898,-1.219412718\C,-0.4511882129,-1.497397699,-0.93337
 51521\C,-0.2649874887,-1.8516260795,-2.4123166215\H,0.4830199767,-1.69
 54659626,-0.3902757843\H,-1.2060827046,-2.1619007504,-0.4912180501\H,0
 .5091365689,-1.2259191559,-2.8741318427\H,-1.1935636277,-1.6961088097,
 -2.975886708\H,0.0319722079,-2.899003743,-2.5417177357\\Version=ES64L-
 G16RevC.02\State=1-A1\HF=-119.1442428\RMSD=9.872e-09\RMSF=5.163e-05\Di
 pole=0.0029527,-0.0142035,0.0162236\Quadrupole=0.2146376,-0.1057096,-0
 .1089279,0.1032535,0.0494158,-0.1021165\PG=C02V [C2(C1),SGV(C2H2),SGV'
 (H2),X(H4)]\\@
 The archive entry for this job was punched.


 A leading authority is anyone who has guessed right more than once.
 -- Frank A. Clark
 Job cpu time:       0 days  0 hours  1 minutes 29.0 seconds.
 Elapsed time:       0 days  0 hours  0 minutes  5.4 seconds.
 File lengths (MBytes):  RWF=      6 Int=      0 D2E=      0 Chk=      2 Scr=      1
 Normal termination of Gaussian 16 at Sat Mar 21 10:17:01 2026.
 Link1:  Proceeding to internal job step number  2.
 --------------------------------------------------------------------
 #N Geom=AllCheck Guess=TCheck SCRF=Check GenChk RB3LYP/6-31G(d) Freq
 --------------------------------------------------------------------
 1/10=4,29=7,30=1,38=1,40=1/1,3;
 2/12=2,40=1/2;
 3/5=1,6=6,7=1,11=2,14=-4,25=1,30=1,70=2,71=2,74=-5,116=1,140=1/1,2,3;
 4/5=101/1;
 5/5=2,38=6,98=1/2;
 8/6=4,10=90,11=11/1;
 11/6=1,8=1,9=11,15=111,16=1/1,2,10;
 10/6=1/2;
 6/7=2,8=2,9=2,10=2,28=1,40=1/1,7;
 7/8=1,10=1,25=1/1,2,3,16;
 1/10=4,30=1/3;
 99//99;
 Structure from the checkpoint file:  "Propane-DFT-6-31G(D).chk"
 --------------------
 Propane-dft-6-31G(D)
 --------------------
 Charge =  0 Multiplicity = 1
 Redundant internal coordinates found in file.  (old form).
 C,0,-0.8669467575,-0.038903479,-0.715761348
 H,0,-0.9936795808,0.1896141655,0.3489677994
 H,0,-0.1140826183,0.6508249436,-1.1176578526
 H,0,-1.8167828149,0.1806352898,-1.219412718
 C,0,-0.4511882129,-1.497397699,-0.9333751521
 C,0,-0.2649874887,-1.8516260795,-2.4123166215
 H,0,0.4830199767,-1.6954659626,-0.3902757843
 H,0,-1.2060827046,-2.1619007504,-0.4912180501
 H,0,0.5091365689,-1.2259191559,-2.8741318427
 H,0,-1.1935636277,-1.6961088097,-2.975886708
 H,0,0.0319722079,-2.899003743,-2.5417177357
 Recover connectivity data from disk.

 GradGradGradGradGradGradGradGradGradGradGradGradGradGradGradGradGradGrad
 Berny optimization.
 Initialization pass.
                           ----------------------------
                           !    Initial Parameters    !
                           ! (Angstroms and Degrees)  !
 --------------------------                            --------------------------
 ! Name  Definition              Value          Derivative Info.                !
 --------------------------------------------------------------------------------
 ! R1    R(1,2)                  1.0963         calculate D2E/DX2 analytically  !
 ! R2    R(1,3)                  1.0973         calculate D2E/DX2 analytically  !
 ! R3    R(1,4)                  1.0973         calculate D2E/DX2 analytically  !
 ! R4    R(1,5)                  1.5321         calculate D2E/DX2 analytically  !
 ! R5    R(5,6)                  1.5321         calculate D2E/DX2 analytically  !
 ! R6    R(5,7)                  1.0986         calculate D2E/DX2 analytically  !
 ! R7    R(5,8)                  1.0986         calculate D2E/DX2 analytically  !
 ! R8    R(6,9)                  1.0973         calculate D2E/DX2 analytically  !
 ! R9    R(6,10)                 1.0973         calculate D2E/DX2 analytically  !
 ! R10   R(6,11)                 1.0963         calculate D2E/DX2 analytically  !
 ! A1    A(2,1,3)              107.698          calculate D2E/DX2 analytically  !
 ! A2    A(2,1,4)              107.698          calculate D2E/DX2 analytically  !
 ! A3    A(2,1,5)              111.5757         calculate D2E/DX2 analytically  !
 ! A4    A(3,1,4)              107.4598         calculate D2E/DX2 analytically  !
 ! A5    A(3,1,5)              111.11           calculate D2E/DX2 analytically  !
 ! A6    A(4,1,5)              111.11           calculate D2E/DX2 analytically  !
 ! A7    A(1,5,6)              112.9651         calculate D2E/DX2 analytically  !
 ! A8    A(1,5,7)              109.4002         calculate D2E/DX2 analytically  !
 ! A9    A(1,5,8)              109.4002         calculate D2E/DX2 analytically  !
 ! A10   A(6,5,7)              109.4002         calculate D2E/DX2 analytically  !
 ! A11   A(6,5,8)              109.4002         calculate D2E/DX2 analytically  !
 ! A12   A(7,5,8)              106.0395         calculate D2E/DX2 analytically  !
 ! A13   A(5,6,9)              111.11           calculate D2E/DX2 analytically  !
 ! A14   A(5,6,10)             111.11           calculate D2E/DX2 analytically  !
 ! A15   A(5,6,11)             111.5757         calculate D2E/DX2 analytically  !
 ! A16   A(9,6,10)             107.4598         calculate D2E/DX2 analytically  !
 ! A17   A(9,6,11)             107.698          calculate D2E/DX2 analytically  !
 ! A18   A(10,6,11)            107.698          calculate D2E/DX2 analytically  !
 ! D1    D(2,1,5,6)           -180.0            calculate D2E/DX2 analytically  !
 ! D2    D(2,1,5,7)            -57.8794         calculate D2E/DX2 analytically  !
 ! D3    D(2,1,5,8)             57.8794         calculate D2E/DX2 analytically  !
 ! D4    D(3,1,5,6)            -59.7955         calculate D2E/DX2 analytically  !
 ! D5    D(3,1,5,7)             62.3251         calculate D2E/DX2 analytically  !
 ! D6    D(3,1,5,8)            178.0839         calculate D2E/DX2 analytically  !
 ! D7    D(4,1,5,6)             59.7955         calculate D2E/DX2 analytically  !
 ! D8    D(4,1,5,7)           -178.0839         calculate D2E/DX2 analytically  !
 ! D9    D(4,1,5,8)            -62.3251         calculate D2E/DX2 analytically  !
 ! D10   D(1,5,6,9)             59.7955         calculate D2E/DX2 analytically  !
 ! D11   D(1,5,6,10)           -59.7955         calculate D2E/DX2 analytically  !
 ! D12   D(1,5,6,11)          -180.0            calculate D2E/DX2 analytically  !
 ! D13   D(7,5,6,9)            -62.3251         calculate D2E/DX2 analytically  !
 ! D14   D(7,5,6,10)           178.0839         calculate D2E/DX2 analytically  !
 ! D15   D(7,5,6,11)            57.8794         calculate D2E/DX2 analytically  !
 ! D16   D(8,5,6,9)           -178.0839         calculate D2E/DX2 analytically  !
 ! D17   D(8,5,6,10)            62.3251         calculate D2E/DX2 analytically  !
 ! D18   D(8,5,6,11)           -57.8794         calculate D2E/DX2 analytically  !
 --------------------------------------------------------------------------------
 Trust Radius=3.00D-01 FncErr=1.00D-07 GrdErr=1.00D-07 EigMax=2.50D+02 EigMin=1.00D-04
 Number of steps in this run=      2 maximum allowed number of steps=      2.
 GradGradGradGradGradGradGradGradGradGradGradGradGradGradGradGradGradGrad

                          Input orientation:                          
 ---------------------------------------------------------------------
 Center     Atomic      Atomic             Coordinates (Angstroms)
 Number     Number       Type             X           Y           Z
 ---------------------------------------------------------------------
      1          6           0       -0.866947   -0.038903   -0.715761
      2          1           0       -0.993680    0.189614    0.348968
      3          1           0       -0.114083    0.650825   -1.117658
      4          1           0       -1.816783    0.180635   -1.219413
      5          6           0       -0.451188   -1.497398   -0.933375
      6          6           0       -0.264987   -1.851626   -2.412317
      7          1           0        0.483020   -1.695466   -0.390276
      8          1           0       -1.206083   -2.161901   -0.491218
      9          1           0        0.509137   -1.225919   -2.874132
     10          1           0       -1.193564   -1.696109   -2.975887
     11          1           0        0.031972   -2.899004   -2.541718
 ---------------------------------------------------------------------
                    Distance matrix (angstroms):
                    1          2          3          4          5
     1  C    0.000000
     2  H    1.096326   0.000000
     3  H    1.097292   1.771270   0.000000
     4  H    1.097292   1.771270   1.769356   0.000000
     5  C    1.532128   2.187398   2.182306   2.182306   0.000000
     6  C    2.554725   3.510320   2.821555   2.821555   1.532128
     7  H    2.161608   2.506122   2.527983   3.081609   1.098605
     8  H    2.161608   2.506122   3.081609   2.527983   1.098605
     9  H    2.821555   3.827605   2.644952   3.182199   2.182306
    10  H    2.821555   3.827605   3.182199   2.644952   2.182306
    11  H    3.510320   4.352882   3.827605   3.827605   2.187398
                    6          7          8          9         10
     6  C    0.000000
     7  H    2.161608   0.000000
     8  H    2.161608   1.755226   0.000000
     9  H    1.097292   2.527983   3.081609   0.000000
    10  H    1.097292   3.081609   2.527983   1.769356   0.000000
    11  H    1.096326   2.506122   2.506122   1.771270   1.771270
                   11
    11  H    0.000000
 Stoichiometry    C3H8
 Framework group  C2V[C2(C),SGV(C2H2),SGV'(H2),X(H4)]
 Deg. of freedom     9
 Full point group                 C2V     NOp   4
 Largest Abelian subgroup         C2V     NOp   4
 Largest concise Abelian subgroup C2V     NOp   4
                         Standard orientation:                         
 ---------------------------------------------------------------------
 Center     Atomic      Atomic             Coordinates (Angstroms)
 Number     Number       Type             X           Y           Z
 ---------------------------------------------------------------------
      1          6           0       -0.000000    1.277362   -0.259782
      2          1           0       -0.000000    2.176441    0.367583
      3          1           0        0.884678    1.322476   -0.907362
      4          1           0       -0.884678    1.322476   -0.907362
      5          6           0        0.000000    0.000000    0.586245
      6          6           0        0.000000   -1.277362   -0.259782
      7          1           0        0.877613   -0.000000    1.247099
      8          1           0       -0.877613    0.000000    1.247099
      9          1           0        0.884678   -1.322476   -0.907362
     10          1           0       -0.884678   -1.322476   -0.907362
     11          1           0        0.000000   -2.176441    0.367583
 ---------------------------------------------------------------------
 Rotational constants (GHZ):          29.4268438           8.3581068           7.4075723
 Standard basis: 6-31G(d) (6D, 7F)
 There are    25 symmetry adapted cartesian basis functions of A1  symmetry.
 There are     7 symmetry adapted cartesian basis functions of A2  symmetry.
 There are    11 symmetry adapted cartesian basis functions of B1  symmetry.
 There are    18 symmetry adapted cartesian basis functions of B2  symmetry.
 There are    25 symmetry adapted basis functions of A1  symmetry.
 There are     7 symmetry adapted basis functions of A2  symmetry.
 There are    11 symmetry adapted basis functions of B1  symmetry.
 There are    18 symmetry adapted basis functions of B2  symmetry.
    61 basis functions,   116 primitive gaussians,    61 cartesian basis functions
    13 alpha electrons       13 beta electrons
       nuclear repulsion energy        82.2503252827 Hartrees.
 NAtoms=   11 NActive=   11 NUniq=    5 SFac= 4.00D+00 NAtFMM=   60 NAOKFM=F Big=F
 Integral buffers will be    131072 words long.
 Raffenetti 2 integral format.
 Two-electron integral symmetry is turned on.
 One-electron integrals computed using PRISM.
 NBasis=    61 RedAO= T EigKep=  6.27D-03  NBF=    25     7    11    18
 NBsUse=    61 1.00D-06 EigRej= -1.00D+00 NBFU=    25     7    11    18
 Initial guess from the checkpoint file:  "Propane-DFT-6-31G(D).chk"
 B after Tr=    -0.000000   -0.000000    0.000000
         Rot=    1.000000    0.000000    0.000000   -0.000000 Ang=   0.00 deg.
 Initial guess orbital symmetries:
       Occupied  (A1) (B2) (A1) (A1) (B2) (A1) (B1) (A1) (B2) (A2)
                 (B2) (A1) (B1)
       Virtual   (A1) (B1) (B2) (A1) (A1) (B1) (A2) (B2) (A1) (B2)
                 (A1) (B2) (B1) (A1) (A2) (A1) (B2) (B1) (B2) (B1)
                 (A1) (B2) (A2) (A1) (B1) (A1) (B2) (A1) (B2) (A2)
                 (A1) (A1) (B2) (B1) (B2) (A1) (A2) (A1) (B1) (B2)
                 (B1) (A2) (A1) (A1) (B2) (A1) (B2) (A1)
 Keep R1 ints in memory in symmetry-blocked form, NReq=23039808.
 Requested convergence on RMS density matrix=1.00D-08 within 128 cycles.
 Requested convergence on MAX density matrix=1.00D-06.
 Requested convergence on             energy=1.00D-06.
 No special actions if energy rises.
 SCF Done:  E(RB3LYP) =  -119.144242812     A.U. after    1 cycles
            NFock=  1  Conv=0.20D-08     -V/T= 2.0107
 DoSCS=F DFT=T ScalE2(SS,OS)=  1.000000  1.000000
 Range of M.O.s used for correlation:     1    61
 NBasis=    61 NAE=    13 NBE=    13 NFC=     0 NFV=     0
 NROrb=     61 NOA=    13 NOB=    13 NVA=    48 NVB=    48
 Symmetrizing basis deriv contribution to polar:
 IMax=3 JMax=2 DiffMx= 0.00D+00
 G2DrvN: will do    12 centers at a time, making    1 passes.
 Calling FoFCou, ICntrl=  3107 FMM=F I1Cent=   0 AccDes= 0.00D+00.
 End of G2Drv F.D. properties file   721 does not exist.
 End of G2Drv F.D. properties file   722 does not exist.
 End of G2Drv F.D. properties file   788 does not exist.
          IDoAtm=11111111111
          Differentiating once with respect to electric field.
                with respect to dipole field.
          Differentiating once with respect to nuclear coordinates.
 Keep R1 ints in memory in symmetry-blocked form, NReq=22966293.
          There are    18 degrees of freedom in the 1st order CPHF.  IDoFFX=4 NUNeed=    18.
     18 vectors produced by pass  0 Test12= 3.47D-15 5.56D-09 XBig12= 1.86D+01 2.21D+00.
 AX will form    18 AO Fock derivatives at one time.
     18 vectors produced by pass  1 Test12= 3.47D-15 5.56D-09 XBig12= 5.96D-01 2.21D-01.
     18 vectors produced by pass  2 Test12= 3.47D-15 5.56D-09 XBig12= 5.19D-03 2.09D-02.
     18 vectors produced by pass  3 Test12= 3.47D-15 5.56D-09 XBig12= 3.34D-05 1.10D-03.
     18 vectors produced by pass  4 Test12= 3.47D-15 5.56D-09 XBig12= 4.68D-08 4.35D-05.
     10 vectors produced by pass  5 Test12= 3.47D-15 5.56D-09 XBig12= 3.34D-11 1.05D-06.
      3 vectors produced by pass  6 Test12= 3.47D-15 5.56D-09 XBig12= 2.28D-14 3.40D-08.
 InvSVY:  IOpt=1 It=  1 EMax= 1.78D-15
 Solved reduced A of dimension   103 with    18 vectors.
 Isotropic polarizability for W=    0.000000       33.46 Bohr**3.
 End of Minotr F.D. properties file   721 does not exist.
 End of Minotr F.D. properties file   722 does not exist.
 End of Minotr F.D. properties file   788 does not exist.

 **********************************************************************

            Population analysis using the SCF Density.

 **********************************************************************

 Orbital symmetries:
       Occupied  (A1) (B2) (A1) (A1) (B2) (A1) (B1) (A1) (B2) (A2)
                 (B2) (A1) (B1)
       Virtual   (A1) (B1) (B2) (A1) (A1) (B1) (A2) (B2) (A1) (B2)
                 (A1) (B2) (B1) (A1) (A2) (A1) (B2) (B1) (B2) (B1)
                 (A1) (B2) (A2) (A1) (B1) (A1) (B2) (A1) (B2) (A2)
                 (A1) (A1) (B2) (B1) (B2) (A1) (A2) (A1) (B1) (B2)
                 (B1) (A2) (A1) (A1) (B2) (A1) (B2) (A1)
 The electronic state is 1-A1.
 Alpha  occ. eigenvalues --  -10.17831 -10.17005 -10.17004  -0.77395  -0.67562
 Alpha  occ. eigenvalues --   -0.58023  -0.45152  -0.43102  -0.39331  -0.37662
 Alpha  occ. eigenvalues --   -0.33326  -0.33247  -0.32442
 Alpha virt. eigenvalues --    0.09605   0.14800   0.14991   0.15009   0.17040
 Alpha virt. eigenvalues --    0.19385   0.19429   0.19677   0.22791   0.26666
 Alpha virt. eigenvalues --    0.51157   0.51873   0.54797   0.56044   0.58395
 Alpha virt. eigenvalues --    0.66794   0.70227   0.73915   0.78931   0.87369
 Alpha virt. eigenvalues --    0.88488   0.89051   0.91300   0.92160   0.95756
 Alpha virt. eigenvalues --    0.96912   0.98222   1.03538   1.38584   1.46470
 Alpha virt. eigenvalues --    1.48156   1.56429   1.74218   1.90402   1.92506
 Alpha virt. eigenvalues --    1.97095   2.03823   2.09297   2.23368   2.25567
 Alpha virt. eigenvalues --    2.32783   2.38623   2.41505   2.57173   2.67264
 Alpha virt. eigenvalues --    4.13681   4.27831   4.45970
          Condensed to atoms (all electrons):
               1          2          3          4          5          6
     1  C    5.054516   0.373457   0.377870   0.377870   0.384391  -0.050854
     2  H    0.373457   0.577863  -0.031293  -0.031293  -0.028659   0.004603
     3  H    0.377870  -0.031293   0.580583  -0.033151  -0.035661  -0.004009
     4  H    0.377870  -0.031293  -0.033151   0.580583  -0.035661  -0.004009
     5  C    0.384391  -0.028659  -0.035661  -0.035661   4.909115   0.384391
     6  C   -0.050854   0.004603  -0.004009  -0.004009   0.384391   5.054516
     7  H   -0.039560  -0.002751  -0.004598   0.005322   0.381542  -0.039560
     8  H   -0.039560  -0.002751   0.005322  -0.004598   0.381542  -0.039560
     9  H   -0.004009  -0.000025   0.004744  -0.000349  -0.035661   0.377870
    10  H   -0.004009  -0.000025  -0.000349   0.004744  -0.035661   0.377870
    11  H    0.004603  -0.000174  -0.000025  -0.000025  -0.028659   0.373457
               7          8          9         10         11
     1  C   -0.039560  -0.039560  -0.004009  -0.004009   0.004603
     2  H   -0.002751  -0.002751  -0.000025  -0.000025  -0.000174
     3  H   -0.004598   0.005322   0.004744  -0.000349  -0.000025
     4  H    0.005322  -0.004598  -0.000349   0.004744  -0.000025
     5  C    0.381542   0.381542  -0.035661  -0.035661  -0.028659
     6  C   -0.039560  -0.039560   0.377870   0.377870   0.373457
     7  H    0.608355  -0.039760  -0.004598   0.005322  -0.002751
     8  H   -0.039760   0.608355   0.005322  -0.004598  -0.002751
     9  H   -0.004598   0.005322   0.580583  -0.033151  -0.031293
    10  H    0.005322  -0.004598  -0.033151   0.580583  -0.031293
    11  H   -0.002751  -0.002751  -0.031293  -0.031293   0.577863
 Mulliken charges:
               1
     1  C   -0.434713
     2  H    0.141049
     3  H    0.140568
     4  H    0.140568
     5  C   -0.241018
     6  C   -0.434713
     7  H    0.133038
     8  H    0.133038
     9  H    0.140568
    10  H    0.140568
    11  H    0.141049
 Sum of Mulliken charges =   0.00000
 Mulliken charges with hydrogens summed into heavy atoms:
               1
     1  C   -0.012529
     5  C    0.025057
     6  C   -0.012529
 APT charges:
               1
     1  C    0.088463
     2  H   -0.037733
     3  H   -0.032994
     4  H   -0.032994
     5  C    0.157377
     6  C    0.088463
     7  H   -0.063430
     8  H   -0.063430
     9  H   -0.032994
    10  H   -0.032994
    11  H   -0.037733
 Sum of APT charges =   0.00000
 APT charges with hydrogens summed into heavy atoms:
               1
     1  C   -0.015258
     5  C    0.030517
     6  C   -0.015258
 Electronic spatial extent (au):  <R**2>=            227.6096
 Charge=             -0.0000 electrons
 Dipole moment (field-independent basis, Debye):
    X=             -0.0000    Y=              0.0000    Z=              0.0553  Tot=              0.0553
 Quadrupole moment (field-independent basis, Debye-Ang):
   XX=            -21.2367   YY=            -21.8845   ZZ=            -21.5819
   XY=              0.0000   XZ=             -0.0000   YZ=              0.0000
 Traceless Quadrupole moment (field-independent basis, Debye-Ang):
   XX=              0.3310   YY=             -0.3168   ZZ=             -0.0142
   XY=              0.0000   XZ=             -0.0000   YZ=              0.0000
 Octapole moment (field-independent basis, Debye-Ang**2):
  XXX=             -0.0000  YYY=             -0.0000  ZZZ=              0.1890  XYY=             -0.0000
  XXY=             -0.0000  XXZ=             -0.4662  XZZ=             -0.0000  YZZ=             -0.0000
  YYZ=              1.2481  XYZ=             -0.0000
 Hexadecapole moment (field-independent basis, Debye-Ang**3):
 XXXX=            -42.5103 YYYY=           -201.0423 ZZZZ=            -69.1638 XXXY=              0.0000
 XXXZ=             -0.0000 YYYX=              0.0000 YYYZ=              0.0000 ZZZX=             -0.0000
 ZZZY=             -0.0000 XXYY=            -41.3542 XXZZ=            -16.8204 YYZZ=            -44.7407
 XXYZ=              0.0000 YYXZ=             -0.0000 ZZXY=              0.0000
 N-N= 8.225032528268D+01 E-N=-4.390822355504D+02  KE= 1.178857142584D+02
 Symmetry A1   KE= 7.295465113984D+01
 Symmetry A2   KE= 2.017124706895D+00
 Symmetry B1   KE= 3.845925598208D+00
 Symmetry B2   KE= 3.906801281341D+01
  Exact polarizability:      31.778       0.000      36.103       0.000      -0.000      32.506
 Approx polarizability:      43.181      -0.000      42.005       0.000       0.000      42.424
 ******************************Gaussian NBO Version 3.1******************************
             N A T U R A L   A T O M I C   O R B I T A L   A N D
          N A T U R A L   B O N D   O R B I T A L   A N A L Y S I S
 ******************************Gaussian NBO Version 3.1******************************
       /RESON  / : Allow strongly delocalized NBO set

 Analyzing the SCF density

 Job title: Propane-dft-6-31G(D)                                            

 Storage needed:     11598 in NPA,     15203 in NBO (1342176565 available)


 NATURAL POPULATIONS:  Natural atomic orbital occupancies 
                                                          
   NAO  Atom  No  lang   Type(AO)    Occupancy      Energy
 ----------------------------------------------------------
     1    C    1  S      Cor( 1S)     1.99946     -10.04139
     2    C    1  S      Val( 2S)     1.10403      -0.24803
     3    C    1  S      Ryd( 3S)     0.00039       1.25209
     4    C    1  S      Ryd( 4S)     0.00002       4.23157
     5    C    1  px     Val( 2p)     1.23726      -0.07100
     6    C    1  px     Ryd( 3p)     0.00098       0.64393
     7    C    1  py     Val( 2p)     1.13611      -0.06469
     8    C    1  py     Ryd( 3p)     0.00150       0.62368
     9    C    1  pz     Val( 2p)     1.19155      -0.06735
    10    C    1  pz     Ryd( 3p)     0.00123       0.63125
    11    C    1  dxy    Ryd( 3d)     0.00013       1.81327
    12    C    1  dxz    Ryd( 3d)     0.00123       2.20313
    13    C    1  dyz    Ryd( 3d)     0.00085       2.23426
    14    C    1  dx2y2  Ryd( 3d)     0.00099       2.22477
    15    C    1  dz2    Ryd( 3d)     0.00012       1.79942
 
    16    H    2  S      Val( 1S)     0.76917       0.09521
    17    H    2  S      Ryd( 2S)     0.00080       0.65134
 
    18    H    3  S      Val( 1S)     0.77558       0.09051
    19    H    3  S      Ryd( 2S)     0.00113       0.66158
 
    20    H    4  S      Val( 1S)     0.77558       0.09051
    21    H    4  S      Ryd( 2S)     0.00113       0.66158
 
    22    C    5  S      Cor( 1S)     1.99938     -10.04616
    23    C    5  S      Val( 2S)     1.04103      -0.23121
    24    C    5  S      Ryd( 3S)     0.00072       1.33808
    25    C    5  S      Ryd( 4S)     0.00002       4.29332
    26    C    5  px     Val( 2p)     1.23535      -0.06725
    27    C    5  px     Ryd( 3p)     0.00248       0.75373
    28    C    5  py     Val( 2p)     1.02901      -0.05754
    29    C    5  py     Ryd( 3p)     0.00135       0.60930
    30    C    5  pz     Val( 2p)     1.14192      -0.06369
    31    C    5  pz     Ryd( 3p)     0.00084       0.61509
    32    C    5  dxy    Ryd( 3d)     0.00025       1.85446
    33    C    5  dxz    Ryd( 3d)     0.00142       2.22177
    34    C    5  dyz    Ryd( 3d)     0.00067       2.28528
    35    C    5  dx2y2  Ryd( 3d)     0.00099       2.25345
    36    C    5  dz2    Ryd( 3d)     0.00020       1.85741
 
    37    C    6  S      Cor( 1S)     1.99946     -10.04139
    38    C    6  S      Val( 2S)     1.10403      -0.24803
    39    C    6  S      Ryd( 3S)     0.00039       1.25209
    40    C    6  S      Ryd( 4S)     0.00002       4.23157
    41    C    6  px     Val( 2p)     1.23726      -0.07100
    42    C    6  px     Ryd( 3p)     0.00098       0.64393
    43    C    6  py     Val( 2p)     1.13611      -0.06469
    44    C    6  py     Ryd( 3p)     0.00150       0.62368
    45    C    6  pz     Val( 2p)     1.19155      -0.06735
    46    C    6  pz     Ryd( 3p)     0.00123       0.63125
    47    C    6  dxy    Ryd( 3d)     0.00013       1.81327
    48    C    6  dxz    Ryd( 3d)     0.00123       2.20313
    49    C    6  dyz    Ryd( 3d)     0.00085       2.23426
    50    C    6  dx2y2  Ryd( 3d)     0.00099       2.22477
    51    C    6  dz2    Ryd( 3d)     0.00012       1.79942
 
    52    H    7  S      Val( 1S)     0.77139       0.09666
    53    H    7  S      Ryd( 2S)     0.00155       0.65958
 
    54    H    8  S      Val( 1S)     0.77139       0.09666
    55    H    8  S      Ryd( 2S)     0.00155       0.65958
 
    56    H    9  S      Val( 1S)     0.77558       0.09051
    57    H    9  S      Ryd( 2S)     0.00113       0.66158
 
    58    H   10  S      Val( 1S)     0.77558       0.09051
    59    H   10  S      Ryd( 2S)     0.00113       0.66158
 
    60    H   11  S      Val( 1S)     0.76917       0.09521
    61    H   11  S      Ryd( 2S)     0.00080       0.65134


 Summary of Natural Population Analysis:                  
                                                          
                                       Natural Population 
                Natural  -----------------------------------------------
    Atom  No    Charge         Core      Valence    Rydberg      Total
 -----------------------------------------------------------------------
      C    1   -0.67586      1.99946     4.66896    0.00743     6.67586
      H    2    0.23003      0.00000     0.76917    0.00080     0.76997
      H    3    0.22329      0.00000     0.77558    0.00113     0.77671
      H    4    0.22329      0.00000     0.77558    0.00113     0.77671
      C    5   -0.45563      1.99938     4.44732    0.00893     6.45563
      C    6   -0.67586      1.99946     4.66896    0.00743     6.67586
      H    7    0.22705      0.00000     0.77139    0.00155     0.77295
      H    8    0.22705      0.00000     0.77139    0.00155     0.77295
      H    9    0.22329      0.00000     0.77558    0.00113     0.77671
      H   10    0.22329      0.00000     0.77558    0.00113     0.77671
      H   11    0.23003      0.00000     0.76917    0.00080     0.76997
 =======================================================================
   * Total *    0.00000      5.99831    19.96867    0.03302    26.00000

                                 Natural Population      
 --------------------------------------------------------
   Core                       5.99831 ( 99.9718% of   6)
   Valence                   19.96867 ( 99.8434% of  20)
   Natural Minimal Basis     25.96698 ( 99.8730% of  26)
   Natural Rydberg Basis      0.03302 (  0.1270% of  26)
 --------------------------------------------------------

    Atom  No          Natural Electron Configuration
 ----------------------------------------------------------------------------
      C    1      [core]2S( 1.10)2p( 3.56)
      H    2            1S( 0.77)
      H    3            1S( 0.78)
      H    4            1S( 0.78)
      C    5      [core]2S( 1.04)2p( 3.41)
      C    6      [core]2S( 1.10)2p( 3.56)
      H    7            1S( 0.77)
      H    8            1S( 0.77)
      H    9            1S( 0.78)
      H   10            1S( 0.78)
      H   11            1S( 0.77)


 NATURAL BOND ORBITAL ANALYSIS:

                       Occupancies       Lewis Structure    Low   High
           Occ.    -------------------  -----------------   occ   occ
  Cycle   Thresh.   Lewis   Non-Lewis     CR  BD  3C  LP    (L)   (NL)   Dev
 =============================================================================
   1(1)    1.90    25.89078   0.10922      3  10   0   0     0      0    0.03
 -----------------------------------------------------------------------------

 Structure accepted: No low occupancy Lewis orbitals

 --------------------------------------------------------
   Core                      5.99831 ( 99.972% of   6)
   Valence Lewis            19.89247 ( 99.462% of  20)
  ==================       ============================
   Total Lewis              25.89078 ( 99.580% of  26)
  -----------------------------------------------------
   Valence non-Lewis         0.08713 (  0.335% of  26)
   Rydberg non-Lewis         0.02209 (  0.085% of  26)
  ==================       ============================
   Total non-Lewis           0.10922 (  0.420% of  26)
 --------------------------------------------------------


       (Occupancy)   Bond orbital/ Coefficients/ Hybrids
 ---------------------------------------------------------------------------------
     1. (1.99047) BD ( 1) C   1 - H   2  
                ( 61.52%)   0.7843* C   1 s( 24.04%)p 3.16( 75.89%)d 0.00(  0.06%)
                                            0.0000  0.4903  0.0007 -0.0007  0.0000
                                            0.0000  0.7091  0.0018  0.5059 -0.0122
                                            0.0000 -0.0000  0.0209 -0.0143 -0.0004
                ( 38.48%)   0.6203* H   2 s(100.00%)
                                            1.0000  0.0003
     2. (1.99122) BD ( 1) C   1 - H   3  
                ( 61.30%)   0.7829* C   1 s( 23.73%)p 3.21( 76.21%)d 0.00(  0.06%)
                                            0.0000  0.4871  0.0038 -0.0007  0.7068
                                           -0.0046  0.0283  0.0136 -0.5114 -0.0027
                                            0.0015 -0.0210 -0.0007  0.0143  0.0007
                ( 38.70%)   0.6221* H   3 s(100.00%)
                                            1.0000  0.0013
     3. (1.99122) BD ( 1) C   1 - H   4  
                ( 61.30%)   0.7829* C   1 s( 23.73%)p 3.21( 76.21%)d 0.00(  0.06%)
                                           -0.0000 -0.4871 -0.0038  0.0007  0.7068
                                           -0.0046 -0.0283 -0.0136  0.5114  0.0027
                                            0.0015 -0.0210  0.0007 -0.0143 -0.0007
                ( 38.70%)   0.6221* H   4 s(100.00%)
                                           -1.0000 -0.0013
     4. (1.99162) BD ( 1) C   1 - C   5  
                ( 49.92%)   0.7066* C   1 s( 28.49%)p 2.51( 71.47%)d 0.00(  0.04%)
                                            0.0003  0.5337 -0.0101  0.0023  0.0000
                                            0.0000 -0.7033 -0.0008  0.4690  0.0117
                                            0.0000  0.0000 -0.0152 -0.0116 -0.0011
                ( 50.08%)   0.7076* C   5 s( 27.07%)p 2.69( 72.89%)d 0.00(  0.04%)
                                            0.0001  0.5201 -0.0115  0.0008 -0.0000
                                            0.0000  0.7068  0.0143 -0.4787  0.0049
                                            0.0000 -0.0000 -0.0163 -0.0115 -0.0005
     5. (1.99162) BD ( 1) C   5 - C   6  
                ( 50.08%)   0.7076* C   5 s( 27.07%)p 2.69( 72.89%)d 0.00(  0.04%)
                                            0.0001  0.5201 -0.0115  0.0008 -0.0000
                                            0.0000 -0.7068 -0.0143 -0.4787  0.0049
                                            0.0000 -0.0000  0.0163 -0.0115 -0.0005
                ( 49.92%)   0.7066* C   6 s( 28.49%)p 2.51( 71.47%)d 0.00(  0.04%)
                                            0.0003  0.5337 -0.0101  0.0023 -0.0000
                                            0.0000  0.7033  0.0008  0.4690  0.0117
                                            0.0000  0.0000  0.0152 -0.0116 -0.0011
     6. (1.98171) BD ( 1) C   5 - H   7  
                ( 61.50%)   0.7842* C   5 s( 22.95%)p 3.35( 76.98%)d 0.00(  0.07%)
                                           -0.0001  0.4790  0.0100 -0.0007  0.7066
                                           -0.0150  0.0000  0.0000  0.5198  0.0040
                                            0.0000  0.0217 -0.0000  0.0149  0.0010
                ( 38.50%)   0.6205* H   7 s(100.00%)
                                            1.0000  0.0023
     7. (1.98171) BD ( 1) C   5 - H   8  
                ( 61.50%)   0.7842* C   5 s( 22.95%)p 3.35( 76.98%)d 0.00(  0.07%)
                                            0.0001 -0.4790 -0.0100  0.0007  0.7066
                                           -0.0150 -0.0000 -0.0000 -0.5198 -0.0040
                                            0.0000  0.0217  0.0000 -0.0149 -0.0010
                ( 38.50%)   0.6205* H   8 s(100.00%)
                                           -1.0000 -0.0023
     8. (1.99122) BD ( 1) C   6 - H   9  
                ( 61.30%)   0.7829* C   6 s( 23.73%)p 3.21( 76.21%)d 0.00(  0.06%)
                                            0.0000  0.4871  0.0038 -0.0007  0.7068
                                           -0.0046 -0.0283 -0.0136 -0.5114 -0.0027
                                           -0.0015 -0.0210  0.0007  0.0143  0.0007
                ( 38.70%)   0.6221* H   9 s(100.00%)
                                            1.0000  0.0013
     9. (1.99122) BD ( 1) C   6 - H  10  
                ( 61.30%)   0.7829* C   6 s( 23.73%)p 3.21( 76.21%)d 0.00(  0.06%)
                                           -0.0000 -0.4871 -0.0038  0.0007  0.7068
                                           -0.0046  0.0283  0.0136  0.5114  0.0027
                                           -0.0015 -0.0210 -0.0007 -0.0143 -0.0007
                ( 38.70%)   0.6221* H  10 s(100.00%)
                                           -1.0000 -0.0013
    10. (1.99047) BD ( 1) C   6 - H  11  
                ( 61.52%)   0.7843* C   6 s( 24.04%)p 3.16( 75.89%)d 0.00(  0.06%)
                                           -0.0000 -0.4903 -0.0007  0.0007 -0.0000
                                            0.0000  0.7091  0.0018 -0.5059  0.0122
                                            0.0000  0.0000  0.0209  0.0143  0.0004
                ( 38.48%)   0.6203* H  11 s(100.00%)
                                           -1.0000 -0.0003
    11. (1.99946) CR ( 1) C   1           s(100.00%)p 0.00(  0.00%)
                                            1.0000 -0.0001  0.0000 -0.0000 -0.0000
                                            0.0000  0.0002  0.0000 -0.0001 -0.0000
                                           -0.0000  0.0000  0.0000  0.0000  0.0000
    12. (1.99938) CR ( 1) C   5           s(100.00%)p 0.00(  0.00%)
                                            1.0000 -0.0001  0.0000 -0.0000 -0.0000
                                            0.0000  0.0000  0.0000  0.0002 -0.0000
                                            0.0000 -0.0000 -0.0000  0.0000  0.0000
    13. (1.99946) CR ( 1) C   6           s(100.00%)p 0.00(  0.00%)
                                            1.0000 -0.0001  0.0000 -0.0000 -0.0000
                                            0.0000 -0.0002 -0.0000 -0.0001 -0.0000
                                            0.0000  0.0000 -0.0000  0.0000  0.0000
    14. (0.00212) RY*( 1) C   1           s(  4.31%)p19.31( 83.15%)d 2.91( 12.55%)
                                            0.0000 -0.0075  0.2071  0.0098 -0.0000
                                           -0.0000  0.0115  0.6802  0.0165  0.6070
                                           -0.0000  0.0000 -0.1735  0.2177  0.2190
    15. (0.00126) RY*( 2) C   1           s(  0.00%)p 1.00( 75.26%)d 0.33( 24.74%)
                                           -0.0000 -0.0000  0.0000 -0.0000  0.0179
                                            0.8674 -0.0000 -0.0000  0.0000  0.0000
                                           -0.3077  0.3908  0.0000 -0.0000 -0.0000
    16. (0.00027) RY*( 3) C   1           s( 23.89%)p 3.02( 72.24%)d 0.16(  3.87%)
                                           -0.0000 -0.0083  0.4881 -0.0245  0.0000
                                           -0.0000 -0.0184  0.5383  0.0094 -0.6575
                                           -0.0000 -0.0000  0.0745 -0.0986 -0.1530
    17. (0.00016) RY*( 4) C   1           s( 64.65%)p 0.41( 26.21%)d 0.14(  9.14%)
                                           -0.0000  0.0070  0.7705  0.2297 -0.0000
                                            0.0000 -0.0024 -0.3836 -0.0053  0.3390
                                           -0.0000  0.0000  0.1389 -0.1683 -0.2092
    18. (0.00001) RY*( 5) C   1           s(  7.40%)p 1.54( 11.41%)d10.98( 81.19%)
    19. (0.00000) RY*( 6) C   1           s(  0.00%)p 1.00( 11.18%)d 7.94( 88.82%)
    20. (0.00000) RY*( 7) C   1           s(  0.00%)p 1.00( 13.64%)d 6.33( 86.36%)
    21. (0.00000) RY*( 8) C   1           s(  2.19%)p 2.20(  4.80%)d42.56( 93.02%)
    22. (0.00000) RY*( 9) C   1           s(  0.22%)p 0.37(  0.08%)d99.99( 99.70%)
    23. (0.00000) RY*(10) C   1           s( 97.36%)p 0.02(  2.25%)d 0.00(  0.40%)
    24. (0.00080) RY*( 1) H   2           s(100.00%)
                                           -0.0003  1.0000
    25. (0.00113) RY*( 1) H   3           s(100.00%)
                                           -0.0013  1.0000
    26. (0.00113) RY*( 1) H   4           s(100.00%)
                                           -0.0013  1.0000
    27. (0.00244) RY*( 1) C   5           s(  0.00%)p 1.00( 85.53%)d 0.17( 14.47%)
                                            0.0000 -0.0000 -0.0000  0.0000  0.0312
                                            0.9243  0.0000  0.0000 -0.0000 -0.0000
                                            0.0000 -0.3804 -0.0000 -0.0000 -0.0000
    28. (0.00119) RY*( 2) C   5           s(  9.79%)p 6.08( 59.56%)d 3.13( 30.65%)
                                           -0.0000  0.0066  0.3084  0.0528  0.0000
                                           -0.0000  0.0000  0.0000 -0.0182 -0.7715
                                           -0.0000  0.0000 -0.0000  0.4012  0.3814
    29. (0.00099) RY*( 3) C   5           s(  0.00%)p 1.00( 94.95%)d 0.05(  5.05%)
                                           -0.0000 -0.0000  0.0000 -0.0000 -0.0000
                                            0.0000 -0.0145  0.9743  0.0000 -0.0000
                                            0.0000  0.0000  0.2246  0.0000  0.0000
    30. (0.00025) RY*( 4) C   5           s(  0.00%)p 0.00(  0.00%)d 1.00(100.00%)
                                            0.0000  0.0000  0.0000  0.0000  0.0000
                                            0.0000  0.0000  0.0000  0.0000  0.0000
                                            1.0000  0.0000  0.0000  0.0000  0.0000
    31. (0.00016) RY*( 5) C   5           s( 65.50%)p 0.41( 26.70%)d 0.12(  7.80%)
                                           -0.0000 -0.0033  0.8093 -0.0052  0.0000
                                           -0.0000  0.0000  0.0000 -0.0238  0.5162
                                            0.0000  0.0000 -0.0000  0.2479  0.1286
    32. (0.00010) RY*( 6) C   5           s(  0.00%)p 1.00(  5.10%)d18.61( 94.90%)
                                            0.0000  0.0000 -0.0000  0.0000 -0.0000
                                            0.0000  0.0270 -0.2242 -0.0000  0.0000
                                            0.0000 -0.0000  0.9742 -0.0000 -0.0000
    33. (0.00007) RY*( 7) C   5           s( 38.30%)p 0.25(  9.73%)d 1.36( 51.97%)
    34. (0.00000) RY*( 8) C   5           s( 85.65%)p 0.05(  4.01%)d 0.12( 10.34%)
    35. (0.00000) RY*( 9) C   5           s(  0.00%)p 1.00( 14.57%)d 5.86( 85.43%)
    36. (0.00000) RY*(10) C   5           s(  0.71%)p 0.15(  0.11%)d99.99( 99.18%)
    37. (0.00212) RY*( 1) C   6           s(  4.31%)p19.31( 83.15%)d 2.91( 12.55%)
                                            0.0000 -0.0075  0.2071  0.0098  0.0000
                                           -0.0000 -0.0115 -0.6802  0.0165  0.6070
                                           -0.0000 -0.0000  0.1735  0.2177  0.2190
    38. (0.00126) RY*( 2) C   6           s(  0.00%)p 1.00( 75.26%)d 0.33( 24.74%)
                                           -0.0000  0.0000  0.0000 -0.0000  0.0179
                                            0.8674 -0.0000 -0.0000 -0.0000 -0.0000
                                            0.3077  0.3908 -0.0000  0.0000  0.0000
    39. (0.00027) RY*( 3) C   6           s( 23.89%)p 3.02( 72.24%)d 0.16(  3.87%)
                                           -0.0000 -0.0083  0.4881 -0.0245  0.0000
                                           -0.0000  0.0184 -0.5383  0.0094 -0.6575
                                           -0.0000 -0.0000 -0.0745 -0.0986 -0.1530
    40. (0.00016) RY*( 4) C   6           s( 64.65%)p 0.41( 26.21%)d 0.14(  9.14%)
                                           -0.0000  0.0070  0.7705  0.2297  0.0000
                                           -0.0000  0.0024  0.3836 -0.0053  0.3390
                                           -0.0000 -0.0000 -0.1389 -0.1683 -0.2092
    41. (0.00001) RY*( 5) C   6           s(  7.40%)p 1.54( 11.41%)d10.98( 81.19%)
    42. (0.00000) RY*( 6) C   6           s(  0.00%)p 1.00( 11.18%)d 7.94( 88.82%)
    43. (0.00000) RY*( 7) C   6           s(  0.00%)p 1.00( 13.64%)d 6.33( 86.36%)
    44. (0.00000) RY*( 8) C   6           s(  2.19%)p 2.20(  4.80%)d42.56( 93.02%)
    45. (0.00000) RY*( 9) C   6           s(  0.22%)p 0.37(  0.08%)d99.99( 99.70%)
    46. (0.00000) RY*(10) C   6           s( 97.36%)p 0.02(  2.25%)d 0.00(  0.40%)
    47. (0.00156) RY*( 1) H   7           s(100.00%)
                                           -0.0023  1.0000
    48. (0.00156) RY*( 1) H   8           s(100.00%)
                                           -0.0023  1.0000
    49. (0.00113) RY*( 1) H   9           s(100.00%)
                                           -0.0013  1.0000
    50. (0.00113) RY*( 1) H  10           s(100.00%)
                                           -0.0013  1.0000
    51. (0.00080) RY*( 1) H  11           s(100.00%)
                                           -0.0003  1.0000
    52. (0.00520) BD*( 1) C   1 - H   2  
                ( 38.48%)   0.6203* C   1 s( 24.04%)p 3.16( 75.89%)d 0.00(  0.06%)
                                           -0.0000 -0.4903 -0.0007  0.0007 -0.0000
                                           -0.0000 -0.7091 -0.0018 -0.5059  0.0122
                                           -0.0000  0.0000 -0.0209  0.0143  0.0004
                ( 61.52%)  -0.7843* H   2 s(100.00%)
                                           -1.0000 -0.0003
    53. (0.00810) BD*( 1) C   1 - H   3  
                ( 38.70%)   0.6221* C   1 s( 23.73%)p 3.21( 76.21%)d 0.00(  0.06%)
                                           -0.0000 -0.4871 -0.0038  0.0007 -0.7068
                                            0.0046 -0.0283 -0.0136  0.5114  0.0027
                                           -0.0015  0.0210  0.0007 -0.0143 -0.0007
                ( 61.30%)  -0.7829* H   3 s(100.00%)
                                           -1.0000 -0.0013
    54. (0.00810) BD*( 1) C   1 - H   4  
                ( 38.70%)   0.6221* C   1 s( 23.73%)p 3.21( 76.21%)d 0.00(  0.06%)
                                            0.0000  0.4871  0.0038 -0.0007 -0.7068
                                            0.0046  0.0283  0.0136 -0.5114 -0.0027
                                           -0.0015  0.0210 -0.0007  0.0143  0.0007
                ( 61.30%)  -0.7829* H   4 s(100.00%)
                                            1.0000  0.0013
    55. (0.00855) BD*( 1) C   1 - C   5  
                ( 50.08%)   0.7076* C   1 s( 28.49%)p 2.51( 71.47%)d 0.00(  0.04%)
                                            0.0003  0.5337 -0.0101  0.0023  0.0000
                                            0.0000 -0.7033 -0.0008  0.4690  0.0117
                                            0.0000  0.0000 -0.0152 -0.0116 -0.0011
                ( 49.92%)  -0.7066* C   5 s( 27.07%)p 2.69( 72.89%)d 0.00(  0.04%)
                                            0.0001  0.5201 -0.0115  0.0008 -0.0000
                                            0.0000  0.7068  0.0143 -0.4787  0.0049
                                            0.0000 -0.0000 -0.0163 -0.0115 -0.0005
    56. (0.00855) BD*( 1) C   5 - C   6  
                ( 49.92%)   0.7066* C   5 s( 27.07%)p 2.69( 72.89%)d 0.00(  0.04%)
                                           -0.0001 -0.5201  0.0115 -0.0008  0.0000
                                           -0.0000  0.7068  0.0143  0.4787 -0.0049
                                           -0.0000  0.0000 -0.0163  0.0115  0.0005
                ( 50.08%)  -0.7076* C   6 s( 28.49%)p 2.51( 71.47%)d 0.00(  0.04%)
                                           -0.0003 -0.5337  0.0101 -0.0023  0.0000
                                           -0.0000 -0.7033 -0.0008 -0.4690 -0.0117
                                           -0.0000 -0.0000 -0.0152  0.0116  0.0011
    57. (0.01361) BD*( 1) C   5 - H   7  
                ( 38.50%)   0.6205* C   5 s( 22.95%)p 3.35( 76.98%)d 0.00(  0.07%)
                                            0.0001 -0.4790 -0.0100  0.0007 -0.7066
                                            0.0150 -0.0000 -0.0000 -0.5198 -0.0040
                                           -0.0000 -0.0217  0.0000 -0.0149 -0.0010
                ( 61.50%)  -0.7842* H   7 s(100.00%)
                                           -1.0000 -0.0023
    58. (0.01361) BD*( 1) C   5 - H   8  
                ( 38.50%)   0.6205* C   5 s( 22.95%)p 3.35( 76.98%)d 0.00(  0.07%)
                                           -0.0001  0.4790  0.0100 -0.0007 -0.7066
                                            0.0150  0.0000  0.0000  0.5198  0.0040
                                           -0.0000 -0.0217 -0.0000  0.0149  0.0010
                ( 61.50%)  -0.7842* H   8 s(100.00%)
                                            1.0000  0.0023
    59. (0.00810) BD*( 1) C   6 - H   9  
                ( 38.70%)   0.6221* C   6 s( 23.73%)p 3.21( 76.21%)d 0.00(  0.06%)
                                           -0.0000 -0.4871 -0.0038  0.0007 -0.7068
                                            0.0046  0.0283  0.0136  0.5114  0.0027
                                            0.0015  0.0210 -0.0007 -0.0143 -0.0007
                ( 61.30%)  -0.7829* H   9 s(100.00%)
                                           -1.0000 -0.0013
    60. (0.00810) BD*( 1) C   6 - H  10  
                ( 38.70%)   0.6221* C   6 s( 23.73%)p 3.21( 76.21%)d 0.00(  0.06%)
                                            0.0000  0.4871  0.0038 -0.0007 -0.7068
                                            0.0046 -0.0283 -0.0136 -0.5114 -0.0027
                                            0.0015  0.0210  0.0007  0.0143  0.0007
                ( 61.30%)  -0.7829* H  10 s(100.00%)
                                            1.0000  0.0013
    61. (0.00520) BD*( 1) C   6 - H  11  
                ( 38.48%)   0.6203* C   6 s( 24.04%)p 3.16( 75.89%)d 0.00(  0.06%)
                                            0.0000  0.4903  0.0007 -0.0007  0.0000
                                           -0.0000 -0.7091 -0.0018  0.5059 -0.0122
                                           -0.0000 -0.0000 -0.0209 -0.0143 -0.0004
                ( 61.52%)  -0.7843* H  11 s(100.00%)
                                            1.0000  0.0003


 NHO Directionality and "Bond Bending" (deviations from line of nuclear centers)

         [Thresholds for printing:  angular deviation  >  1.0 degree]
                                    hybrid p-character > 25.0%
                                    orbital occupancy  >  0.10e

                                Line of Centers        Hybrid 1              Hybrid 2
                                ---------------  -------------------   ------------------
                NBO               Theta   Phi    Theta   Phi    Dev    Theta   Phi    Dev
 ========================================================================================
    None exceeding thresholds


 Second Order Perturbation Theory Analysis of Fock Matrix in NBO Basis

     Threshold for printing:   0.50 kcal/mol
                                                                              E(2)  E(j)-E(i) F(i,j)
         Donor NBO (i)                     Acceptor NBO (j)                 kcal/mol   a.u.    a.u. 
 ===================================================================================================

 within unit  1
   1. BD (   1) C   1 - H   2        / 28. RY*(   2) C   5                    0.55    1.65    0.027
   1. BD (   1) C   1 - H   2        / 56. BD*(   1) C   5 - C   6            3.11    0.88    0.047
   2. BD (   1) C   1 - H   3        / 58. BD*(   1) C   5 - H   8            2.59    0.95    0.044
   3. BD (   1) C   1 - H   4        / 57. BD*(   1) C   5 - H   7            2.59    0.95    0.044
   4. BD (   1) C   1 - C   5        / 37. RY*(   1) C   6                    0.98    1.51    0.034
   4. BD (   1) C   1 - C   5        / 52. BD*(   1) C   1 - H   2            0.52    1.04    0.021
   4. BD (   1) C   1 - C   5        / 56. BD*(   1) C   5 - C   6            0.54    0.98    0.021
   4. BD (   1) C   1 - C   5        / 61. BD*(   1) C   6 - H  11            1.66    1.04    0.037
   5. BD (   1) C   5 - C   6        / 14. RY*(   1) C   1                    0.98    1.51    0.034
   5. BD (   1) C   5 - C   6        / 52. BD*(   1) C   1 - H   2            1.66    1.04    0.037
   5. BD (   1) C   5 - C   6        / 55. BD*(   1) C   1 - C   5            0.54    0.98    0.021
   5. BD (   1) C   5 - C   6        / 61. BD*(   1) C   6 - H  11            0.52    1.04    0.021
   6. BD (   1) C   5 - H   7        / 15. RY*(   2) C   1                    0.51    1.51    0.025
   6. BD (   1) C   5 - H   7        / 38. RY*(   2) C   6                    0.51    1.51    0.025
   6. BD (   1) C   5 - H   7        / 54. BD*(   1) C   1 - H   4            2.85    0.93    0.046
   6. BD (   1) C   5 - H   7        / 60. BD*(   1) C   6 - H  10            2.85    0.93    0.046
   7. BD (   1) C   5 - H   8        / 15. RY*(   2) C   1                    0.51    1.51    0.025
   7. BD (   1) C   5 - H   8        / 38. RY*(   2) C   6                    0.51    1.51    0.025
   7. BD (   1) C   5 - H   8        / 53. BD*(   1) C   1 - H   3            2.85    0.93    0.046
   7. BD (   1) C   5 - H   8        / 59. BD*(   1) C   6 - H   9            2.85    0.93    0.046
   8. BD (   1) C   6 - H   9        / 58. BD*(   1) C   5 - H   8            2.59    0.95    0.044
   9. BD (   1) C   6 - H  10        / 57. BD*(   1) C   5 - H   7            2.59    0.95    0.044
  10. BD (   1) C   6 - H  11        / 28. RY*(   2) C   5                    0.55    1.65    0.027
  10. BD (   1) C   6 - H  11        / 55. BD*(   1) C   1 - C   5            3.11    0.88    0.047
  11. CR (   1) C   1                / 29. RY*(   3) C   5                    0.94   10.75    0.090
  11. CR (   1) C   1                / 31. RY*(   5) C   5                    0.51   11.22    0.068
  12. CR (   1) C   5                / 16. RY*(   3) C   1                    1.14   10.82    0.099
  12. CR (   1) C   5                / 39. RY*(   3) C   6                    1.14   10.82    0.099
  13. CR (   1) C   6                / 29. RY*(   3) C   5                    0.94   10.75    0.090
  13. CR (   1) C   6                / 31. RY*(   5) C   5                    0.51   11.22    0.068


 Natural Bond Orbitals (Summary):

                                                            Principal Delocalizations
           NBO                        Occupancy    Energy   (geminal,vicinal,remote)
 ====================================================================================
 Molecular unit  1  (C3H8)
     1. BD (   1) C   1 - H   2          1.99047    -0.48370  56(v),28(v)
     2. BD (   1) C   1 - H   3          1.99122    -0.48290  58(v)
     3. BD (   1) C   1 - H   4          1.99122    -0.48290  57(v)
     4. BD (   1) C   1 - C   5          1.99162    -0.57847  61(v),37(v),56(g),52(g)
     5. BD (   1) C   5 - C   6          1.99162    -0.57847  52(v),14(v),55(g),61(g)
     6. BD (   1) C   5 - H   7          1.98171    -0.47552  54(v),60(v),15(v),38(v)
     7. BD (   1) C   5 - H   8          1.98171    -0.47552  53(v),59(v),15(v),38(v)
     8. BD (   1) C   6 - H   9          1.99122    -0.48290  58(v)
     9. BD (   1) C   6 - H  10          1.99122    -0.48290  57(v)
    10. BD (   1) C   6 - H  11          1.99047    -0.48370  55(v),28(v)
    11. CR (   1) C   1                  1.99946   -10.04116  29(v),31(v)
    12. CR (   1) C   5                  1.99938   -10.04602  16(v),39(v)
    13. CR (   1) C   6                  1.99946   -10.04116  29(v),31(v)
    14. RY*(   1) C   1                  0.00212     0.93521   
    15. RY*(   2) C   1                  0.00126     1.03320   
    16. RY*(   3) C   1                  0.00027     0.77814   
    17. RY*(   4) C   1                  0.00016     1.34382   
    18. RY*(   5) C   1                  0.00001     1.87429   
    19. RY*(   6) C   1                  0.00000     1.71954   
    20. RY*(   7) C   1                  0.00000     1.90307   
    21. RY*(   8) C   1                  0.00000     2.11388   
    22. RY*(   9) C   1                  0.00000     1.99310   
    23. RY*(  10) C   1                  0.00000     3.94707   
    24. RY*(   1) H   2                  0.00080     0.65117   
    25. RY*(   1) H   3                  0.00113     0.66085   
    26. RY*(   1) H   4                  0.00113     0.66085   
    27. RY*(   1) C   5                  0.00244     1.05133   
    28. RY*(   2) C   5                  0.00119     1.16308   
    29. RY*(   3) C   5                  0.00099     0.70773   
    30. RY*(   4) C   5                  0.00025     1.85446   
    31. RY*(   5) C   5                  0.00016     1.17768   
    32. RY*(   6) C   5                  0.00010     2.17932   
    33. RY*(   7) C   5                  0.00007     2.26272   
    34. RY*(   8) C   5                  0.00000     3.73788   
    35. RY*(   9) C   5                  0.00000     1.92001   
    36. RY*(  10) C   5                  0.00000     2.00966   
    37. RY*(   1) C   6                  0.00212     0.93521   
    38. RY*(   2) C   6                  0.00126     1.03320   
    39. RY*(   3) C   6                  0.00027     0.77814   
    40. RY*(   4) C   6                  0.00016     1.34382   
    41. RY*(   5) C   6                  0.00001     1.87429   
    42. RY*(   6) C   6                  0.00000     1.71954   
    43. RY*(   7) C   6                  0.00000     1.90307   
    44. RY*(   8) C   6                  0.00000     2.11388   
    45. RY*(   9) C   6                  0.00000     1.99310   
    46. RY*(  10) C   6                  0.00000     3.94707   
    47. RY*(   1) H   7                  0.00156     0.65824   
    48. RY*(   1) H   8                  0.00156     0.65824   
    49. RY*(   1) H   9                  0.00113     0.66085   
    50. RY*(   1) H  10                  0.00113     0.66085   
    51. RY*(   1) H  11                  0.00080     0.65117   
    52. BD*(   1) C   1 - H   2          0.00520     0.46419   
    53. BD*(   1) C   1 - H   3          0.00810     0.45810   
    54. BD*(   1) C   1 - H   4          0.00810     0.45810   
    55. BD*(   1) C   1 - C   5          0.00855     0.39989   
    56. BD*(   1) C   5 - C   6          0.00855     0.39989   
    57. BD*(   1) C   5 - H   7          0.01361     0.46292   
    58. BD*(   1) C   5 - H   8          0.01361     0.46292   
    59. BD*(   1) C   6 - H   9          0.00810     0.45810   
    60. BD*(   1) C   6 - H  10          0.00810     0.45810   
    61. BD*(   1) C   6 - H  11          0.00520     0.46419   
       -------------------------------
              Total Lewis   25.89078  ( 99.5799%)
        Valence non-Lewis    0.08713  (  0.3351%)
        Rydberg non-Lewis    0.02209  (  0.0850%)
       -------------------------------
            Total unit  1   26.00000  (100.0000%)
           Charge unit  1    0.00000
 Calling FoFJK, ICntrl=    100127 FMM=F ISym2X=1 I1Cent= 0 IOpClX= 0 NMat=1 NMatS=1 NMatT=0.
 Full mass-weighted force constant matrix:
 Low frequencies ---   -0.0003    0.0007    0.0011    8.4007   11.7759   16.3386
 Low frequencies ---  227.1468  276.5976  367.5716
 Diagonal vibrational polarizability:
        0.6086426       0.3996001       0.4380788
 Harmonic frequencies (cm**-1), IR intensities (KM/Mole), Raman scattering
 activities (A**4/AMU), depolarization ratios for plane and unpolarized
 incident light, reduced masses (AMU), force constants (mDyne/A),
 and normal coordinates:
                      1                      2                      3
                     A2                     B1                     A1
 Frequencies --    227.1449               276.5959               367.5716
 Red. masses --      1.0276                 1.1371                 2.0657
 Frc consts  --      0.0312                 0.0513                 0.1644
 IR Inten    --      0.0000                 0.0008                 0.1324
  Atom  AN      X      Y      Z        X      Y      Z        X      Y      Z
     1   6    -0.03  -0.00  -0.00     0.04   0.00   0.00    -0.00   0.17   0.06
     2   1     0.37  -0.00  -0.00     0.46   0.00  -0.00     0.00  -0.02   0.34
     3   1    -0.24  -0.18  -0.30    -0.10  -0.26  -0.21     0.01   0.39   0.08
     4   1    -0.24   0.18   0.30    -0.10   0.26   0.21    -0.01   0.39   0.08
     5   6    -0.00  -0.00   0.00    -0.09  -0.00  -0.00     0.00  -0.00  -0.17
     6   6     0.03   0.00  -0.00     0.04   0.00   0.00     0.00  -0.17   0.06
     7   1    -0.00   0.01   0.00    -0.16  -0.00   0.09    -0.01   0.00  -0.15
     8   1    -0.00  -0.01  -0.00    -0.16   0.00  -0.09     0.01  -0.00  -0.15
     9   1     0.24  -0.18   0.30    -0.10   0.26  -0.21     0.01  -0.39   0.08
    10   1     0.24   0.18  -0.30    -0.10  -0.26   0.21    -0.01  -0.39   0.08
    11   1    -0.37   0.00  -0.00     0.46   0.00   0.00    -0.00   0.02   0.34
                      4                      5                      6
                     B1                     A1                     A2
 Frequencies --    758.1093               880.3596               920.2877
 Red. masses --      1.0794                 2.5696                 1.0997
 Frc consts  --      0.3655                 1.1734                 0.5488
 IR Inten    --      3.5569                 0.7587                 0.0000
  Atom  AN      X      Y      Z        X      Y      Z        X      Y      Z
     1   6     0.02   0.00  -0.00     0.00   0.22  -0.06    -0.06   0.00  -0.00
     2   1    -0.11   0.00  -0.00    -0.00   0.45  -0.40     0.19   0.00  -0.00
     3   1    -0.13   0.21  -0.19    -0.02  -0.00  -0.11     0.13  -0.31   0.23
     4   1    -0.13  -0.21   0.19     0.02  -0.00  -0.11     0.13   0.31  -0.23
     5   6     0.08  -0.00   0.00    -0.00  -0.00   0.20     0.00   0.00   0.00
     6   6     0.02  -0.00  -0.00    -0.00  -0.22  -0.06     0.06  -0.00  -0.00
     7   1    -0.28   0.00   0.46     0.00  -0.00   0.19     0.00   0.36   0.00
     8   1    -0.28  -0.00  -0.46    -0.00   0.00   0.19     0.00  -0.36   0.00
     9   1    -0.13  -0.21  -0.19    -0.02   0.00  -0.11    -0.13  -0.31  -0.23
    10   1    -0.13   0.21   0.19     0.02   0.00  -0.11    -0.13   0.31   0.23
    11   1    -0.11   0.00   0.00     0.00  -0.45  -0.40    -0.19  -0.00  -0.00
                      7                      8                      9
                     B2                     B2                     A1
 Frequencies --    941.4068              1067.3424              1190.4396
 Red. masses --      1.2005                 2.4114                 1.7712
 Frc consts  --      0.6268                 1.6185                 1.4789
 IR Inten    --      2.1398                 0.4300                 1.2471
  Atom  AN      X      Y      Z        X      Y      Z        X      Y      Z
     1   6     0.00  -0.02  -0.09     0.00  -0.14   0.10    -0.00  -0.04  -0.13
     2   1     0.00  -0.33   0.36    -0.00  -0.18   0.16     0.00  -0.31   0.28
     3   1     0.03   0.33  -0.01     0.02  -0.13   0.13     0.06   0.36  -0.01
     4   1    -0.03   0.33  -0.01    -0.02  -0.13   0.13    -0.06   0.36  -0.01
     5   6    -0.00  -0.05  -0.00    -0.00   0.26   0.00     0.00  -0.00   0.18
     6   6     0.00  -0.02   0.09     0.00  -0.14  -0.10    -0.00   0.04  -0.13
     7   1     0.00   0.20  -0.00     0.00   0.56   0.00     0.01   0.00   0.17
     8   1     0.00   0.20  -0.00    -0.00   0.56  -0.00    -0.01  -0.00   0.17
     9   1    -0.03   0.33   0.01    -0.02  -0.13  -0.13     0.06  -0.36  -0.01
    10   1     0.03   0.33   0.01     0.02  -0.13  -0.13    -0.06  -0.36  -0.01
    11   1     0.00  -0.33  -0.36    -0.00  -0.18  -0.16     0.00   0.31   0.28
                     10                     11                     12
                     B1                     A2                     B2
 Frequencies --   1229.2791              1331.7440              1386.7568
 Red. masses --      1.6616                 1.1234                 1.4077
 Frc consts  --      1.4794                 1.1739                 1.5950
 IR Inten    --      0.2256                 0.0000                 5.2842
  Atom  AN      X      Y      Z        X      Y      Z        X      Y      Z
     1   6    -0.12  -0.00   0.00     0.07   0.00  -0.00     0.00   0.02   0.05
     2   1     0.22   0.00  -0.00    -0.10  -0.00   0.00    -0.00   0.19  -0.19
     3   1     0.10  -0.25   0.26    -0.04   0.13  -0.14    -0.10   0.03  -0.10
     4   1     0.10   0.25  -0.26    -0.04  -0.13   0.14     0.10   0.03  -0.10
     5   6     0.18  -0.00  -0.00     0.00   0.00   0.00    -0.00  -0.17  -0.00
     6   6    -0.12  -0.00   0.00    -0.07  -0.00  -0.00     0.00   0.02  -0.05
     7   1    -0.10   0.00   0.36     0.00   0.64  -0.00     0.00   0.61  -0.00
     8   1    -0.10   0.00  -0.36    -0.00  -0.64  -0.00     0.00   0.61   0.00
     9   1     0.10   0.25   0.26     0.04   0.13   0.14     0.10   0.03   0.10
    10   1     0.10  -0.25  -0.26     0.04  -0.13  -0.14    -0.10   0.03   0.10
    11   1     0.22   0.00   0.00     0.10  -0.00   0.00    -0.00   0.19   0.19
                     13                     14                     15
                     B2                     A1                     A1
 Frequencies --   1433.7694              1450.0161              1520.1433
 Red. masses --      1.2859                 1.2335                 1.0484
 Frc consts  --      1.5575                 1.5281                 1.4274
 IR Inten    --      3.0315                 1.5265                 0.0245
  Atom  AN      X      Y      Z        X      Y      Z        X      Y      Z
     1   6     0.00  -0.10   0.04    -0.00   0.08  -0.06    -0.00   0.01   0.01
     2   1     0.00   0.18  -0.33    -0.00  -0.21   0.35     0.00  -0.08   0.13
     3   1    -0.10   0.38  -0.09     0.15  -0.35   0.14    -0.15  -0.04  -0.21
     4   1     0.10   0.38  -0.09    -0.15  -0.35   0.14     0.15  -0.04  -0.21
     5   6    -0.00   0.06   0.00     0.00  -0.00   0.01    -0.00  -0.00  -0.06
     6   6     0.00  -0.10  -0.04    -0.00  -0.08  -0.06     0.00  -0.01   0.01
     7   1     0.00  -0.17  -0.00    -0.01  -0.00   0.02    -0.36   0.00   0.46
     8   1     0.00  -0.17   0.00     0.01   0.00   0.02     0.36  -0.00   0.46
     9   1     0.10   0.38   0.09     0.15   0.35   0.14    -0.15   0.04  -0.21
    10   1    -0.10   0.38   0.09    -0.15   0.35   0.14     0.15   0.04  -0.21
    11   1     0.00   0.18   0.33     0.00   0.21   0.35    -0.00   0.08   0.13
                     16                     17                     18
                     A2                     B2                     B1
 Frequencies --   1520.8367              1528.4095              1538.0952
 Red. masses --      1.0401                 1.0517                 1.0412
 Frc consts  --      1.4174                 1.4475                 1.4513
 IR Inten    --      0.0000                 1.5849                10.5896
  Atom  AN      X      Y      Z        X      Y      Z        X      Y      Z
     1   6    -0.04  -0.00  -0.00     0.00  -0.01  -0.04    -0.03  -0.00  -0.00
     2   1     0.50   0.00  -0.00    -0.00   0.13  -0.22     0.50   0.00  -0.00
     3   1     0.04   0.33   0.10     0.28   0.07   0.36     0.03   0.34   0.10
     4   1     0.04  -0.33  -0.10    -0.28   0.07   0.36     0.03  -0.34  -0.10
     5   6     0.00   0.00   0.00     0.00  -0.03   0.00    -0.03  -0.00  -0.00
     6   6     0.04   0.00  -0.00     0.00  -0.01   0.04    -0.03   0.00   0.00
     7   1     0.00   0.04  -0.00     0.00   0.08  -0.00    -0.00   0.00  -0.04
     8   1    -0.00  -0.04  -0.00    -0.00   0.08  -0.00    -0.00   0.00   0.04
     9   1    -0.04   0.33  -0.10    -0.28   0.07  -0.36     0.03  -0.34   0.10
    10   1    -0.04  -0.33   0.10     0.28   0.07  -0.36     0.03   0.34  -0.10
    11   1    -0.50  -0.00  -0.00    -0.00   0.13   0.22     0.50   0.00   0.00
                     19                     20                     21
                     A1                     A1                     B2
 Frequencies --   1544.3790              3032.6839              3036.5668
 Red. masses --      1.0784                 1.0607                 1.0353
 Frc consts  --      1.5154                 5.7477                 5.6244
 IR Inten    --      3.1695                26.7735                36.0992
  Atom  AN      X      Y      Z        X      Y      Z        X      Y      Z
     1   6     0.00  -0.02  -0.02     0.00   0.00   0.01    -0.00  -0.03   0.02
     2   1    -0.00   0.12  -0.21    -0.00  -0.04  -0.04     0.00   0.29   0.22
     3   1     0.22   0.08   0.30     0.06   0.00  -0.04     0.35   0.01  -0.25
     4   1    -0.22   0.08   0.30    -0.06   0.00  -0.04    -0.35   0.01  -0.25
     5   6     0.00  -0.00  -0.07    -0.00  -0.00  -0.07     0.00   0.00   0.00
     6   6    -0.00   0.02  -0.02    -0.00  -0.00   0.01    -0.00  -0.03  -0.02
     7   1    -0.25  -0.00   0.29     0.57   0.00   0.40    -0.00  -0.00  -0.00
     8   1     0.25   0.00   0.29    -0.57  -0.00   0.40    -0.00  -0.00   0.00
     9   1     0.22  -0.08   0.30     0.06  -0.00  -0.04    -0.35   0.01   0.25
    10   1    -0.22  -0.08   0.30    -0.06  -0.00  -0.04     0.35   0.01   0.25
    11   1     0.00  -0.12  -0.21     0.00   0.04  -0.04     0.00   0.29  -0.22
                     22                     23                     24
                     A1                     B1                     A2
 Frequencies --   3040.6874              3057.6307              3097.8226
 Red. masses --      1.0358                 1.1026                 1.1026
 Frc consts  --      5.6426                 6.0735                 6.2345
 IR Inten    --     23.1693                 6.9967                 0.0000
  Atom  AN      X      Y      Z        X      Y      Z        X      Y      Z
     1   6     0.00  -0.03   0.02     0.02   0.00   0.00    -0.07   0.00   0.00
     2   1     0.00   0.30   0.22     0.01  -0.00  -0.00    -0.02  -0.00  -0.00
     3   1     0.34   0.01  -0.24    -0.15  -0.00   0.11     0.40   0.01  -0.30
     4   1    -0.34   0.01  -0.24    -0.15   0.00  -0.11     0.40  -0.01   0.30
     5   6    -0.00   0.00   0.00    -0.09   0.00   0.00     0.00   0.00   0.00
     6   6    -0.00   0.03   0.02     0.02   0.00  -0.00     0.07  -0.00   0.00
     7   1    -0.05   0.00  -0.03     0.52  -0.00   0.39    -0.00  -0.00  -0.00
     8   1     0.05  -0.00  -0.03     0.52  -0.00  -0.39     0.00   0.00  -0.00
     9   1     0.34  -0.01  -0.24    -0.15   0.00   0.11    -0.40   0.01   0.30
    10   1    -0.34  -0.01  -0.24    -0.15  -0.00  -0.11    -0.40  -0.01  -0.30
    11   1    -0.00  -0.30   0.22     0.01  -0.00   0.00     0.02   0.00  -0.00
                     25                     26                     27
                     B2                     B1                     A1
 Frequencies --   3107.0477              3108.6773              3109.4686
 Red. masses --      1.1025                 1.1031                 1.1012
 Frc consts  --      6.2706                 6.2807                 6.2731
 IR Inten    --     31.2879               106.7256                57.6019
  Atom  AN      X      Y      Z        X      Y      Z        X      Y      Z
     1   6     0.00  -0.04  -0.05    -0.06  -0.00  -0.00     0.00  -0.04  -0.05
     2   1     0.00   0.50   0.35    -0.01   0.00   0.00    -0.00   0.48   0.34
     3   1    -0.21  -0.01   0.14     0.37   0.02  -0.28    -0.21  -0.02   0.14
     4   1     0.21  -0.01   0.14     0.37  -0.02   0.28     0.21  -0.02   0.14
     5   6     0.00  -0.00   0.00    -0.04  -0.00  -0.00     0.00  -0.00  -0.01
     6   6     0.00  -0.04   0.05    -0.06  -0.00   0.00     0.00   0.04  -0.05
     7   1    -0.00  -0.00  -0.00     0.22  -0.00   0.16     0.08  -0.00   0.06
     8   1    -0.00  -0.00   0.00     0.22  -0.00  -0.16    -0.08   0.00   0.06
     9   1     0.21  -0.01  -0.14     0.37  -0.02  -0.28    -0.21   0.02   0.14
    10   1    -0.21  -0.01  -0.14     0.37   0.02   0.28     0.21   0.02   0.14
    11   1     0.00   0.50  -0.35    -0.01   0.00  -0.00     0.00  -0.48   0.34

 -------------------
 - Thermochemistry -
 -------------------
 Temperature   298.150 Kelvin.  Pressure   1.00000 Atm.
 Atom     1 has atomic number  6 and mass  12.00000
 Atom     2 has atomic number  1 and mass   1.00783
 Atom     3 has atomic number  1 and mass   1.00783
 Atom     4 has atomic number  1 and mass   1.00783
 Atom     5 has atomic number  6 and mass  12.00000
 Atom     6 has atomic number  6 and mass  12.00000
 Atom     7 has atomic number  1 and mass   1.00783
 Atom     8 has atomic number  1 and mass   1.00783
 Atom     9 has atomic number  1 and mass   1.00783
 Atom    10 has atomic number  1 and mass   1.00783
 Atom    11 has atomic number  1 and mass   1.00783
 Molecular mass:    44.06260 amu.
 Principal axes and moments of inertia in atomic units:
                           1         2         3
     Eigenvalues --    61.32976 215.92703 243.63464
           X           -0.00000   0.00000   1.00000
           Y            1.00000   0.00000   0.00000
           Z           -0.00000   1.00000  -0.00000
 This molecule is an asymmetric top.
 Rotational symmetry number  2.
 Rotational temperatures (Kelvin)      1.41227     0.40113     0.35551
 Rotational constants (GHZ):          29.42684     8.35811     7.40757
 Zero-point vibrational energy     273366.3 (Joules/Mol)
                                   65.33611 (Kcal/Mol)
 Warning -- explicit consideration of   3 degrees of freedom as
           vibrations may cause significant error
 Vibrational temperatures:    326.81   397.96   528.85  1090.75  1266.64
          (Kelvin)           1324.09  1354.47  1535.67  1712.78  1768.66
                             1916.08  1995.23  2062.87  2086.25  2187.15
                             2188.14  2199.04  2212.98  2222.02  4363.36
                             4368.94  4374.87  4399.25  4457.08  4470.35
                             4472.69  4473.83
 
 Zero-point correction=                           0.104120 (Hartree/Particle)
 Thermal correction to Energy=                    0.108622
 Thermal correction to Enthalpy=                  0.109567
 Thermal correction to Gibbs Free Energy=         0.079132
 Sum of electronic and zero-point Energies=           -119.040123
 Sum of electronic and thermal Energies=              -119.035620
 Sum of electronic and thermal Enthalpies=            -119.034676
 Sum of electronic and thermal Free Energies=         -119.065111
 
                     E (Thermal)             CV                S
                      KCal/Mol        Cal/Mol-Kelvin    Cal/Mol-Kelvin
 Total                   68.162             14.658             64.056
 Electronic               0.000              0.000              0.000
 Translational            0.889              2.981             37.275
 Rotational               0.889              2.981             21.316
 Vibrational             66.384              8.696              5.464
 Vibration     1          0.651              1.800              1.901
 Vibration     2          0.678              1.717              1.555
 Vibration     3          0.740              1.539              1.090
                       Q            Log10(Q)             Ln(Q)
 Total Bot       0.399908D-36        -36.398040        -83.809585
 Total V=0       0.311646D+12         11.493661         26.465133
 Vib (Bot)       0.342158D-47        -47.465774       -109.293983
 Vib (Bot)    1  0.868181D+00         -0.061390         -0.141355
 Vib (Bot)    2  0.696341D+00         -0.157178         -0.361915
 Vib (Bot)    3  0.496121D+00         -0.304413         -0.700936
 Vib (V=0)       0.266642D+01          0.425928          0.980736
 Vib (V=0)    1  0.150187D+01          0.176632          0.406709
 Vib (V=0)    2  0.135726D+01          0.132662          0.305466
 Vib (V=0)    3  0.120437D+01          0.080760          0.185956
 Electronic      0.100000D+01          0.000000          0.000000
 Translational   0.114963D+08          7.060559         16.257538
 Rotational      0.101666D+05          4.007174          9.226860
 ***** Axes restored to original set *****
 -------------------------------------------------------------------
 Center     Atomic                   Forces (Hartrees/Bohr)
 Number     Number              X              Y              Z
 -------------------------------------------------------------------
      1        6          -0.000019978    0.000077744   -0.000024939
      2        1           0.000026262   -0.000073838   -0.000098261
      3        1          -0.000048072   -0.000023432    0.000024062
      4        1           0.000050285    0.000003729    0.000029940
      5        6           0.000021066   -0.000101336    0.000115749
      6        6           0.000000432    0.000016283   -0.000082461
      7        1          -0.000031883    0.000017086   -0.000029568
      8        1           0.000021703    0.000031883   -0.000026366
      9        1          -0.000043039   -0.000038588    0.000009877
     10        1           0.000055318   -0.000011427    0.000015755
     11        1          -0.000032095    0.000101897    0.000066212
 -------------------------------------------------------------------
 Cartesian Forces:  Max     0.000115749 RMS     0.000051627
 FormGI is forming the generalized inverse of G from B-inverse, IUseBI=4.

 GradGradGradGradGradGradGradGradGradGradGradGradGradGradGradGradGradGrad
 Berny optimization.
 Internal  Forces:  Max     0.000113856 RMS     0.000038848
 Search for a local minimum.
 Step number   1 out of a maximum of    2
 All quantities printed in internal units (Hartrees-Bohrs-Radians)
 Second derivative matrix not updated -- analytic derivatives used.
 ITU=  0
     Eigenvalues ---    0.00236   0.00277   0.03564   0.04068   0.04674
     Eigenvalues ---    0.04735   0.04786   0.04826   0.07277   0.10442
     Eigenvalues ---    0.12413   0.12824   0.13118   0.14597   0.15418
     Eigenvalues ---    0.16788   0.21788   0.29114   0.30155   0.32614
     Eigenvalues ---    0.33331   0.33458   0.33488   0.33668   0.33739
     Eigenvalues ---    0.34445   0.34613
 Angle between quadratic step and forces=  34.94 degrees.
 Linear search not attempted -- first point.
 Iteration  1 RMS(Cart)=  0.00032039 RMS(Int)=  0.00000009
 Iteration  2 RMS(Cart)=  0.00000010 RMS(Int)=  0.00000002
 ClnCor:  largest displacement from symmetrization is 1.02D-10 for atom     4.
 Variable       Old X    -DE/DX   Delta X   Delta X   Delta X     New X
                                 (Linear)    (Quad)   (Total)
    R1        2.07176  -0.00011   0.00000  -0.00031  -0.00031   2.07144
    R2        2.07358  -0.00006   0.00000  -0.00018  -0.00018   2.07340
    R3        2.07358  -0.00006   0.00000  -0.00018  -0.00018   2.07340
    R4        2.89530  -0.00003   0.00000  -0.00002  -0.00002   2.89528
    R5        2.89530  -0.00003   0.00000  -0.00002  -0.00002   2.89528
    R6        2.07606  -0.00004   0.00000  -0.00015  -0.00015   2.07591
    R7        2.07606  -0.00004   0.00000  -0.00015  -0.00015   2.07591
    R8        2.07358  -0.00006   0.00000  -0.00018  -0.00018   2.07340
    R9        2.07358  -0.00006   0.00000  -0.00018  -0.00018   2.07340
   R10        2.07176  -0.00011   0.00000  -0.00031  -0.00031   2.07144
    A1        1.87968   0.00002   0.00000   0.00008   0.00008   1.87977
    A2        1.87968   0.00002   0.00000   0.00008   0.00008   1.87977
    A3        1.94736  -0.00009   0.00000  -0.00063  -0.00063   1.94673
    A4        1.87553  -0.00002   0.00000   0.00003   0.00003   1.87556
    A5        1.93923   0.00003   0.00000   0.00023   0.00023   1.93946
    A6        1.93923   0.00003   0.00000   0.00023   0.00023   1.93946
    A7        1.97161  -0.00003   0.00000  -0.00002  -0.00002   1.97160
    A8        1.90939   0.00001   0.00000  -0.00005  -0.00005   1.90935
    A9        1.90939   0.00001   0.00000  -0.00005  -0.00005   1.90935
   A10        1.90939   0.00001   0.00000  -0.00005  -0.00005   1.90935
   A11        1.90939   0.00001   0.00000  -0.00005  -0.00005   1.90935
   A12        1.85074   0.00000   0.00000   0.00021   0.00021   1.85095
   A13        1.93923   0.00003   0.00000   0.00023   0.00023   1.93946
   A14        1.93923   0.00003   0.00000   0.00023   0.00023   1.93946
   A15        1.94736  -0.00009   0.00000  -0.00063  -0.00063   1.94673
   A16        1.87553  -0.00002   0.00000   0.00003   0.00003   1.87556
   A17        1.87968   0.00002   0.00000   0.00008   0.00008   1.87977
   A18        1.87968   0.00002   0.00000   0.00008   0.00008   1.87977
    D1        3.14159  -0.00000   0.00000  -0.00000   0.00000   3.14159
    D2       -1.01019  -0.00001   0.00000  -0.00010  -0.00010  -1.01029
    D3        1.01019   0.00001   0.00000   0.00010   0.00010   1.01029
    D4       -1.04363  -0.00001   0.00000  -0.00017  -0.00017  -1.04380
    D5        1.08778  -0.00002   0.00000  -0.00027  -0.00027   1.08751
    D6        3.10815  -0.00000   0.00000  -0.00007  -0.00007   3.10808
    D7        1.04363   0.00001   0.00000   0.00017   0.00017   1.04380
    D8       -3.10815   0.00000   0.00000   0.00007   0.00007  -3.10808
    D9       -1.08778   0.00002   0.00000   0.00027   0.00027  -1.08751
   D10        1.04363   0.00001   0.00000   0.00017   0.00017   1.04380
   D11       -1.04363  -0.00001   0.00000  -0.00017  -0.00017  -1.04380
   D12        3.14159  -0.00000   0.00000  -0.00000   0.00000   3.14159
   D13       -1.08778   0.00002   0.00000   0.00027   0.00027  -1.08751
   D14        3.10815  -0.00000   0.00000  -0.00007  -0.00007   3.10808
   D15        1.01019   0.00001   0.00000   0.00010   0.00010   1.01029
   D16       -3.10815   0.00000   0.00000   0.00007   0.00007  -3.10808
   D17        1.08778  -0.00002   0.00000  -0.00027  -0.00027   1.08751
   D18       -1.01019  -0.00001   0.00000  -0.00010  -0.00010  -1.01029
         Item               Value     Threshold  Converged?
 Maximum Force            0.000114     0.000450     YES
 RMS     Force            0.000039     0.000300     YES
 Maximum Displacement     0.001211     0.001800     YES
 RMS     Displacement     0.000320     0.001200     YES
 Predicted change in Energy=-1.498205D-07
 Optimization completed.
    -- Stationary point found.
                           ----------------------------
                           !   Optimized Parameters   !
                           ! (Angstroms and Degrees)  !
 --------------------------                            --------------------------
 ! Name  Definition              Value          Derivative Info.                !
 --------------------------------------------------------------------------------
 ! R1    R(1,2)                  1.0963         -DE/DX =   -0.0001              !
 ! R2    R(1,3)                  1.0973         -DE/DX =   -0.0001              !
 ! R3    R(1,4)                  1.0973         -DE/DX =   -0.0001              !
 ! R4    R(1,5)                  1.5321         -DE/DX =    0.0                 !
 ! R5    R(5,6)                  1.5321         -DE/DX =    0.0                 !
 ! R6    R(5,7)                  1.0986         -DE/DX =    0.0                 !
 ! R7    R(5,8)                  1.0986         -DE/DX =    0.0                 !
 ! R8    R(6,9)                  1.0973         -DE/DX =   -0.0001              !
 ! R9    R(6,10)                 1.0973         -DE/DX =   -0.0001              !
 ! R10   R(6,11)                 1.0963         -DE/DX =   -0.0001              !
 ! A1    A(2,1,3)              107.698          -DE/DX =    0.0                 !
 ! A2    A(2,1,4)              107.698          -DE/DX =    0.0                 !
 ! A3    A(2,1,5)              111.5757         -DE/DX =   -0.0001              !
 ! A4    A(3,1,4)              107.4598         -DE/DX =    0.0                 !
 ! A5    A(3,1,5)              111.11           -DE/DX =    0.0                 !
 ! A6    A(4,1,5)              111.11           -DE/DX =    0.0                 !
 ! A7    A(1,5,6)              112.9651         -DE/DX =    0.0                 !
 ! A8    A(1,5,7)              109.4002         -DE/DX =    0.0                 !
 ! A9    A(1,5,8)              109.4002         -DE/DX =    0.0                 !
 ! A10   A(6,5,7)              109.4002         -DE/DX =    0.0                 !
 ! A11   A(6,5,8)              109.4002         -DE/DX =    0.0                 !
 ! A12   A(7,5,8)              106.0395         -DE/DX =    0.0                 !
 ! A13   A(5,6,9)              111.11           -DE/DX =    0.0                 !
 ! A14   A(5,6,10)             111.11           -DE/DX =    0.0                 !
 ! A15   A(5,6,11)             111.5757         -DE/DX =   -0.0001              !
 ! A16   A(9,6,10)             107.4598         -DE/DX =    0.0                 !
 ! A17   A(9,6,11)             107.698          -DE/DX =    0.0                 !
 ! A18   A(10,6,11)            107.698          -DE/DX =    0.0                 !
 ! D1    D(2,1,5,6)            180.0            -DE/DX =    0.0                 !
 ! D2    D(2,1,5,7)            -57.8794         -DE/DX =    0.0                 !
 ! D3    D(2,1,5,8)             57.8794         -DE/DX =    0.0                 !
 ! D4    D(3,1,5,6)            -59.7955         -DE/DX =    0.0                 !
 ! D5    D(3,1,5,7)             62.3251         -DE/DX =    0.0                 !
 ! D6    D(3,1,5,8)            178.0839         -DE/DX =    0.0                 !
 ! D7    D(4,1,5,6)             59.7955         -DE/DX =    0.0                 !
 ! D8    D(4,1,5,7)           -178.0839         -DE/DX =    0.0                 !
 ! D9    D(4,1,5,8)            -62.3251         -DE/DX =    0.0                 !
 ! D10   D(1,5,6,9)             59.7955         -DE/DX =    0.0                 !
 ! D11   D(1,5,6,10)           -59.7955         -DE/DX =    0.0                 !
 ! D12   D(1,5,6,11)           180.0            -DE/DX =    0.0                 !
 ! D13   D(7,5,6,9)            -62.3251         -DE/DX =    0.0                 !
 ! D14   D(7,5,6,10)           178.0839         -DE/DX =    0.0                 !
 ! D15   D(7,5,6,11)            57.8794         -DE/DX =    0.0                 !
 ! D16   D(8,5,6,9)           -178.0839         -DE/DX =    0.0                 !
 ! D17   D(8,5,6,10)            62.3251         -DE/DX =    0.0                 !
 ! D18   D(8,5,6,11)           -57.8794         -DE/DX =    0.0                 !
 --------------------------------------------------------------------------------
 GradGradGradGradGradGradGradGradGradGradGradGradGradGradGradGradGradGrad


 ----------------------------------------------------------------------

 Electric dipole moment (input orientation):
 (Debye = 10**-18 statcoulomb cm , SI units = C m)
                  (au)            (Debye)         (10**-30 SI)
   Tot        0.217642D-01      0.553192D-01      0.184525D+00
   x          0.295271D-02      0.750505D-02      0.250341D-01
   y         -0.142037D-01     -0.361023D-01     -0.120424D+00
   z          0.162240D-01      0.412372D-01      0.137553D+00

 Dipole polarizability, Alpha (input orientation).
 (esu units = cm**3 , SI units = C**2 m**2 J**-1)
 Alpha(0;0):
               (au)            (10**-24 esu)      (10**-40 SI)
   iso        0.334623D+02      0.495859D+01      0.551718D+01
   aniso      0.401140D+01      0.594428D+00      0.661390D+00
   xx         0.320312D+02      0.474653D+01      0.528123D+01
   yx        -0.787680D+00     -0.116722D+00     -0.129871D+00
   yy         0.342656D+02      0.507764D+01      0.564964D+01
   zx        -0.603207D+00     -0.893861D-01     -0.994554D-01
   zy         0.168398D+01      0.249541D+00      0.277651D+00
   zz         0.340899D+02      0.505161D+01      0.562067D+01

 ----------------------------------------------------------------------

 Dipole orientation:
     6         -1.44124148         -1.02140920         -1.18256460
     1         -1.92927158          0.60600323          0.00298345
     1          0.13561578         -0.45953627         -2.40631392
     1         -3.06707521         -1.41996250         -2.40631392
     6         -0.74787489         -3.33354820          0.41619488
     6         -0.05450830         -5.64568720         -1.18256460
     1          0.84068249         -2.85717000          1.66502829
     1         -2.33643227         -3.80992640          1.66502829
     1          1.57132543         -5.24713391         -2.40631392
     1         -1.63136556         -6.20756014         -2.40631392
     1          0.43352180         -7.27309963          0.00298345

 Electric dipole moment (dipole orientation):
 (Debye = 10**-18 statcoulomb cm , SI units = C m)
                  (au)            (Debye)         (10**-30 SI)
   Tot        0.217642D-01      0.553192D-01      0.184525D+00
   x          0.000000D+00      0.000000D+00      0.000000D+00
   y          0.000000D+00      0.000000D+00      0.000000D+00
   z          0.217642D-01      0.553192D-01      0.184525D+00

 Dipole polarizability, Alpha (dipole orientation).
 (esu units = cm**3 , SI units = C**2 m**2 J**-1)
 Alpha(0;0):
               (au)            (10**-24 esu)      (10**-40 SI)
   iso        0.334623D+02      0.495859D+01      0.551718D+01
   aniso      0.401140D+01      0.594428D+00      0.661390D+00
   xx         0.321345D+02      0.476185D+01      0.529827D+01
   yx        -0.119015D+01     -0.176361D+00     -0.196229D+00
   yy         0.357464D+02      0.529706D+01      0.589378D+01
   zx         0.000000D+00      0.000000D+00      0.000000D+00
   zy         0.000000D+00      0.000000D+00      0.000000D+00
   zz         0.325059D+02      0.481687D+01      0.535949D+01

 ----------------------------------------------------------------------
 Unable to Open any file for archive entry.
 1\1\GINC-LOCALHOST\Freq\RB3LYP\6-31G(d)\C3H8\USER\21-Mar-2026\0\\#N Ge
 om=AllCheck Guess=TCheck SCRF=Check GenChk RB3LYP/6-31G(d) Freq\\Propa
 ne-dft-6-31G(D)\\0,1\C,-0.8669467575,-0.038903479,-0.715761348\H,-0.99
 36795808,0.1896141655,0.3489677994\H,-0.1140826183,0.6508249436,-1.117
 6578526\H,-1.8167828149,0.1806352898,-1.219412718\C,-0.4511882129,-1.4
 97397699,-0.9333751521\C,-0.2649874887,-1.8516260795,-2.4123166215\H,0
 .4830199767,-1.6954659626,-0.3902757843\H,-1.2060827046,-2.1619007504,
 -0.4912180501\H,0.5091365689,-1.2259191559,-2.8741318427\H,-1.19356362
 77,-1.6961088097,-2.975886708\H,0.0319722079,-2.899003743,-2.541717735
 7\\Version=ES64L-G16RevC.02\State=1-A1\HF=-119.1442428\RMSD=1.955e-09\
 RMSF=5.163e-05\ZeroPoint=0.1041197\Thermal=0.1086224\ETot=-119.0356204
 \HTot=-119.0346762\GTot=-119.0651111\Dipole=0.0029527,-0.0142037,0.016
 224\DipoleDeriv=0.1248918,0.0234898,0.0068993,0.021338,0.0576347,-0.01
 43955,0.0168425,-0.0504028,0.0828616,0.055566,0.0229341,0.0301343,0.02
 17564,-0.0022526,-0.0593044,0.0355759,-0.0790103,-0.1665133,-0.0574507
 ,-0.1003124,0.0589814,-0.067038,-0.0679534,0.0367242,0.0630429,0.06820
 24,0.0264224,-0.114659,0.0599649,-0.0833783,0.0302706,0.0075397,0.0041
 718,-0.103983,0.0326017,0.0081376,0.1669418,0.0025675,-0.0034068,0.002
 5675,0.154686,0.0160041,-0.0034068,0.0160041,0.1505032,0.1264047,0.015
 4213,0.0188669,0.0175731,0.0795502,-0.0526636,0.0089237,-0.0166562,0.0
 594332,-0.1218442,0.0644071,-0.1028591,0.0515826,-0.0075005,-0.0013582
 ,-0.0891565,0.0031921,-0.0609455,-0.0586413,-0.0917066,0.0863693,-0.07
 88821,-0.0914569,0.0420563,0.0726667,0.037506,-0.0401921,-0.0552283,-0
 .0861253,0.0771241,-0.1037297,-0.0203378,0.0666391,0.0563197,0.0296011
 ,-0.0234156,-0.110423,0.0240995,-0.1094221,0.0381238,0.0534808,0.02451
 37,-0.0720745,0.0016438,-0.0420396,0.0444422,0.0652602,0.0206912,0.066
 4378,-0.1633902,-0.0623876,0.0152495,-0.0426817,0.0057481\Polar=32.031
 1903,-0.7876797,34.265623,-0.6032071,1.6839838,34.0899422\Quadrupole=0
 .2146373,-0.1057095,-0.1089278,0.1032534,0.0494157,-0.1021162\PG=C02V 
 [C2(C1),SGV(C2H2),SGV'(H2),X(H4)]\NImag=0\\0.56432181,0.02433061,0.485
 34248,0.00245661,-0.01046006,0.57841390,-0.05328300,0.00541330,0.02844
 171,0.05214666,0.00536994,-0.05888321,-0.04921827,-0.00751111,0.063355
 27,0.02864204,-0.04994373,-0.29858546,-0.03177124,0.05553562,0.3231938
 4,-0.17540906,-0.11141646,0.06612948,-0.00237670,-0.00082989,0.0006891
 1,0.18737769,-0.11107447,-0.14711509,0.05869275,0.00560620,0.00448826,
 -0.00178796,0.12165503,0.16246005,0.06616637,0.05895496,-0.08574536,0.
 02330460,0.02073691,-0.01085688,-0.07382543,-0.06485048,0.08759126,-0.
 24474096,0.04113586,-0.10339633,0.00473275,-0.00163190,0.00201625,-0.0
 1951800,0.00441389,-0.01109248,0.26441193,0.04082402,-0.05775604,0.022
 10104,-0.00622348,0.00045797,-0.00224575,-0.01764804,0.00420988,-0.011
 08188,-0.04754774,0.06313728,-0.10357257,0.02234347,-0.10577251,-0.029
 12238,0.00609429,-0.01393604,0.01180749,-0.00343976,0.00624472,0.11495
 733,-0.02410231,0.10987979,-0.09047419,0.02930386,0.00312137,-0.002237
 28,0.00297859,-0.00009063,0.00761939,-0.02369735,-0.00374610,-0.007667
 08,0.03029953,0.00456954,0.58724195,0.02919756,-0.18549331,-0.01125422
 ,0.00095819,-0.00499942,0.00050526,0.00668987,-0.02144240,-0.00270241,
 0.00177959,-0.00672178,-0.00044728,0.02803612,0.50248141,0.00361257,-0
 .01303302,-0.08242299,0.00924524,-0.03330280,-0.00223826,-0.00402214,0
 .01227536,0.00101698,-0.00378271,0.01582065,0.00158283,0.01581915,-0.0
 3733353,0.50373297,-0.00108180,0.00329493,0.01014985,-0.00015804,0.001
 86588,0.00039549,0.00039460,-0.00096392,-0.00106510,0.00014032,0.00003
 245,0.00112706,-0.08358829,0.00237391,0.01233541,0.57051357,0.00498744
 ,-0.00998980,-0.03528729,0.00203786,-0.00664599,-0.00163062,-0.0000553
 5,0.00145617,-0.00057230,-0.00067135,0.00158060,0.00000043,0.00226761,
 -0.08574488,-0.02154409,0.00011536,0.57503568,0.00232908,-0.00696587,-
 0.00635066,-0.00039920,0.00124719,0.00129772,-0.00042492,0.00140014,0.
 00087870,-0.00045931,0.00145439,0.00100856,0.01282661,-0.02332288,-0.1
 8905730,0.01074183,-0.01971265,0.48252894,-0.00760293,0.00184623,-0.00
 365109,0.00000846,0.00008021,0.00048156,0.00094421,0.00024684,0.000060
 89,0.00126229,0.00189785,0.00077607,-0.23654182,0.03583244,-0.10511507
 ,0.00482508,-0.00110341,0.00292509,0.25499895,0.03000368,-0.00742119,0
 .01596798,-0.00045509,0.00137176,-0.00028743,-0.00063221,0.00138777,0.
 00044983,0.00189732,-0.00653926,-0.00109049,0.03540462,-0.05734691,0.0
 2234438,-0.00727707,0.00102581,-0.00424288,-0.04215622,0.06308620,0.00
 499068,-0.00094359,0.00256043,0.00022678,0.00051244,0.00050805,-0.0002
 8833,0.00031318,-0.00011829,0.00046328,-0.00142859,0.00078600,-0.10465
 796,0.02249617,-0.10936195,-0.02920576,0.00486857,-0.01831458,0.115253
 37,-0.02133426,0.12080657,0.00742747,0.00697892,-0.00433233,0.00028737
 ,-0.00080266,-0.00031439,0.00084402,0.00269767,-0.00001480,0.00090101,
 -0.00058191,-0.00018816,-0.17430764,-0.10568837,0.06817749,-0.00254821
 ,-0.00161200,0.00138244,-0.02055765,-0.01734266,0.01139182,0.18573181,
 -0.02312830,-0.02182202,0.01235661,-0.00017459,0.00118415,-0.00049507,
 0.00267034,-0.00607303,-0.00125579,0.00028688,0.00141601,0.00043669,-0
 .10526055,-0.14001643,0.06076470,0.00651143,0.00525522,-0.00372318,0.0
 0372761,0.00370326,-0.00310336,0.11488140,0.15509803,-0.00396463,-0.00
 335785,0.00193086,-0.00048834,0.00025760,0.00041675,0.00042675,-0.0013
 8398,0.00073804,0.00020849,0.00040156,-0.00010333,0.06772038,0.0606129
 0,-0.08892661,0.02450381,0.01979141,-0.01517070,-0.01112118,-0.0105793
 5,0.00691875,-0.07711385,-0.06392743,0.09806188,-0.00007017,-0.0004481
 3,-0.00029601,0.00019819,0.00029569,-0.00015414,0.00009758,0.00066513,
 0.00026099,-0.00007197,-0.00005407,0.00004498,-0.00249150,-0.00156095,
 0.00132249,-0.18048345,-0.10534258,0.07445615,0.00079177,0.00049209,0.
 00023188,0.00149426,0.00041225,0.00058006,0.19249358,0.00087967,0.0013
 0193,-0.00023941,-0.00005349,0.00013433,0.00016545,-0.00039352,0.00021
 938,0.00018698,0.00002534,-0.00003631,-0.00002485,0.00645133,0.0043041
 8,-0.00297670,-0.10549975,-0.13617705,0.06097372,0.00001651,0.00007814
 ,0.00068965,0.00078503,0.00059002,-0.00197380,0.11703926,0.14386697,-0
 .00010375,0.00158429,0.00149772,-0.00049288,0.00005529,0.00023510,-0.0
 0028481,-0.00115309,0.00023408,-0.00001068,-0.00019345,-0.00000733,0.0
 2495344,0.01993998,-0.01461871,0.07422179,0.06064592,-0.09160902,-0.00
 054843,0.00040985,0.00134378,0.00059411,-0.00224396,-0.00657524,-0.083
 42565,-0.06635125,0.10106845,0.00053448,-0.00020722,0.00026348,0.00023
 897,-0.00023679,0.00004018,-0.00008349,0.00004932,-0.00003275,0.000192
 56,-0.00053951,-0.00034138,0.00470772,-0.00069074,0.00253029,-0.238789
 37,0.03166146,-0.11068855,0.00155265,0.00050472,0.00143981,0.00086590,
 -0.00009366,-0.00061011,-0.01959638,0.00437443,-0.01150027,0.25742382,
 -0.00133025,0.00071209,-0.00022696,0.00010824,0.00002884,0.00022810,-0
 .00004652,-0.00002673,-0.00005042,0.00038049,0.00009322,0.00006533,-0.
 00683576,0.00032636,-0.00355603,0.03178847,-0.05598688,0.01901387,0.00
 010407,0.00042306,-0.00177805,0.00037165,0.00000880,0.00047714,-0.0169
 9552,0.00307450,-0.01102773,-0.03560992,0.05460953,-0.00087495,0.00137
 575,0.00148291,0.00039810,0.00026883,0.00029981,0.00009884,-0.00015684
 ,-0.00000539,0.00084508,-0.00091464,0.00026527,-0.02972895,0.00477299,
 -0.01784011,-0.11031483,0.01883701,-0.11349327,0.00155453,-0.00197418,
 -0.00646668,0.00021763,0.00058516,0.00133898,0.01200552,-0.00325967,0.
 00745849,0.12205232,-0.01980381,0.12539565,0.00037835,-0.00023189,0.00
 111324,0.00044262,0.00042205,0.00006577,0.00010976,0.00040166,-0.00001
 617,0.00035716,-0.00045912,-0.00005798,-0.00226126,0.00307238,-0.00012
 273,-0.06922440,0.06771496,0.00731079,0.00031899,-0.00043919,0.0001544
 3,-0.00013835,0.00016720,-0.00014139,0.00763809,-0.02362482,-0.0034028
 6,-0.00704686,0.02806505,0.00374671,0.06942590,-0.00005991,0.00112416,
 -0.00243217,0.00029397,-0.00049195,-0.00004388,0.00000676,0.00043574,0
 .00018461,-0.00006837,0.00015843,0.00016449,0.00105198,-0.00534683,0.0
 0054110,0.06775831,-0.28980889,-0.02612186,-0.00049213,0.00023136,-0.0
 0029217,0.00031292,0.00065600,-0.00031820,0.00549683,-0.01735608,-0.00
 166585,0.00078792,-0.00326279,0.00026939,-0.07508829,0.31366084,0.0003
 1855,0.00044564,-0.00700883,0.00065760,-0.00218710,-0.00033464,-0.0003
 0605,0.00009067,0.00002213,0.00025108,0.00018899,0.00005204,0.00921315
 ,-0.03326697,-0.00186687,0.00711046,-0.02539640,-0.05171839,-0.0006157
 4,0.00033655,0.00133791,0.00020005,0.00060561,0.00137062,-0.00502627,0
 .01280989,0.00097267,-0.00315303,0.01665855,0.00156433,-0.00864982,0.0
 2971455,0.05560903\\0.00001998,-0.00007774,0.00002494,-0.00002626,0.00
 007384,0.00009826,0.00004807,0.00002343,-0.00002406,-0.00005029,-0.000
 00373,-0.00002994,-0.00002107,0.00010134,-0.00011575,-0.00000043,-0.00
 001628,0.00008246,0.00003188,-0.00001709,0.00002957,-0.00002170,-0.000
 03188,0.00002637,0.00004304,0.00003859,-0.00000988,-0.00005532,0.00001
 143,-0.00001576,0.00003210,-0.00010190,-0.00006621\\\@
 The archive entry for this job was punched.


 ALMOST ANYTHING IS EASIER TO GET INTO THAN OUT OF.

                         -- AGNES ALLEN'S LAW FROM
                PAUL DICKSON'S "THE OFFICIAL RULES"
 Job cpu time:       0 days  0 hours  1 minutes 23.5 seconds.
 Elapsed time:       0 days  0 hours  0 minutes  4.2 seconds.
 File lengths (MBytes):  RWF=      6 Int=      0 D2E=      0 Chk=      2 Scr=      1
 Normal termination of Gaussian 16 at Sat Mar 21 10:17:06 2026.
