 Entering Gaussian System, Link 0=g09
 Input=CO2_b3lyp_ccpvdz.gjf
 Output=CO2_b3lyp_ccpvdz.log
 Initial command:
 /home/p20190052/g09/l1.exe "/home/p20190052/g09/scratch/Gau-176740.inp" -scrdir="/home/p20190052/g09/scratch/"
 Entering Link 1 = /home/p20190052/g09/l1.exe PID=    176741.
  
 Copyright (c) 1988,1990,1992,1993,1995,1998,2003,2009,2015,
            Gaussian, Inc.  All Rights Reserved.
  
 This is part of the Gaussian(R) 09 program.  It is based on
 the Gaussian(R) 03 system (copyright 2003, Gaussian, Inc.),
 the Gaussian(R) 98 system (copyright 1998, Gaussian, Inc.),
 the Gaussian(R) 94 system (copyright 1995, Gaussian, Inc.),
 the Gaussian 92(TM) system (copyright 1992, Gaussian, Inc.),
 the Gaussian 90(TM) system (copyright 1990, Gaussian, Inc.),
 the Gaussian 88(TM) system (copyright 1988, Gaussian, Inc.),
 the Gaussian 86(TM) system (copyright 1986, Carnegie Mellon
 University), and the Gaussian 82(TM) system (copyright 1983,
 Carnegie Mellon University). Gaussian is a federally registered
 trademark of Gaussian, Inc.
  
 This software contains proprietary and confidential information,
 including trade secrets, belonging to Gaussian, Inc.
  
 This software is provided under written license and may be
 used, copied, transmitted, or stored only in accord with that
 written license.
  
 The following legend is applicable only to US Government
 contracts under FAR:
  
                    RESTRICTED RIGHTS LEGEND
  
 Use, reproduction and disclosure by the US Government is
 subject to restrictions as set forth in subparagraphs (a)
 and (c) of the Commercial Computer Software - Restricted
 Rights clause in FAR 52.227-19.
  
 Gaussian, Inc.
 340 Quinnipiac St., Bldg. 40, Wallingford CT 06492
  
  
 ---------------------------------------------------------------
 Warning -- This program may not be used in any manner that
 competes with the business of Gaussian, Inc. or will provide
 assistance to any competitor of Gaussian, Inc.  The licensee
 of this program is prohibited from giving any competitor of
 Gaussian, Inc. access to this program.  By using this program,
 the user acknowledges that Gaussian, Inc. is engaged in the
 business of creating and licensing software in the field of
 computational chemistry and represents and warrants to the
 licensee that it is not a competitor of Gaussian, Inc. and that
 it will not use this program in any manner prohibited above.
 ---------------------------------------------------------------
  

 Cite this work as:
 Gaussian 09, Revision E.01,
 M. J. Frisch, G. W. Trucks, H. B. Schlegel, G. E. Scuseria, 
 M. A. Robb, J. R. Cheeseman, G. Scalmani, V. Barone, B. Mennucci, 
 G. A. Petersson, H. Nakatsuji, M. Caricato, X. Li, H. P. Hratchian, 
 A. F. Izmaylov, J. Bloino, G. Zheng, J. L. Sonnenberg, M. Hada, 
 M. Ehara, K. Toyota, R. Fukuda, J. Hasegawa, M. Ishida, T. Nakajima, 
 Y. Honda, O. Kitao, H. Nakai, T. Vreven, J. A. Montgomery, Jr., 
 J. E. Peralta, F. Ogliaro, M. Bearpark, J. J. Heyd, E. Brothers, 
 K. N. Kudin, V. N. Staroverov, T. Keith, R. Kobayashi, J. Normand, 
 K. Raghavachari, A. Rendell, J. C. Burant, S. S. Iyengar, J. Tomasi, 
 M. Cossi, N. Rega, J. M. Millam, M. Klene, J. E. Knox, J. B. Cross, 
 V. Bakken, C. Adamo, J. Jaramillo, R. Gomperts, R. E. Stratmann, 
 O. Yazyev, A. J. Austin, R. Cammi, C. Pomelli, J. W. Ochterski, 
 R. L. Martin, K. Morokuma, V. G. Zakrzewski, G. A. Voth, 
 P. Salvador, J. J. Dannenberg, S. Dapprich, A. D. Daniels, 
 O. Farkas, J. B. Foresman, J. V. Ortiz, J. Cioslowski, 
 and D. J. Fox, Gaussian, Inc., Wallingford CT, 2013.
 
 ******************************************
 Gaussian 09:  ES64L-G09RevE.01 30-Nov-2015
                 1-Jul-2026 
 ******************************************
 %mem=30GB
 %nprocs=40
 Will use up to   40 processors via shared memory.
 %chk=CO2_b3lyp_ccpvdz.chk
 --------------------------------------
 #p opt b3lyp/cc-pvdz geom=connectivity
 --------------------------------------
 1/14=-1,18=20,19=15,26=3,38=1,57=2/1,3;
 2/9=110,12=2,17=6,18=5,40=1/2;
 3/5=16,11=2,16=1,25=1,30=1,71=1,74=-5/1,2,3;
 4//1;
 5/5=2,38=5/2;
 6/7=2,8=2,9=2,10=2,28=1/1;
 7//1,2,3,16;
 1/14=-1,18=20,19=15,26=3/3(2);
 2/9=110/2;
 99//99;
 2/9=110/2;
 3/5=16,11=2,16=1,25=1,30=1,71=1,74=-5/1,2,3;
 4/5=5,16=3,69=1/1;
 5/5=2,38=5/2;
 7//1,2,3,16;
 1/14=-1,18=20,19=15,26=3/3(-5);
 2/9=110/2;
 6/7=2,8=2,9=2,10=2,19=2,28=1/1;
 99/9=1/99;
 Leave Link    1 at Wed Jul  1 22:03:14 2026, MaxMem=  4026531840 cpu:         1.3
 (Enter /home/p20190052/g09/l101.exe)
 ----------------
 CO2 b3lyp ccpvdz
 ----------------
 Symbolic Z-matrix:
 Charge =  0 Multiplicity = 1
 C                    -0.41185   0.48804  -1.62028 
 O                     0.13999   0.36121  -0.59737 
 O                    -0.96369   0.61488  -2.64319 
 
 NAtoms=      3 NQM=        3 NQMF=       0 NMMI=      0 NMMIF=      0
                NMic=       0 NMicF=      0.
                    Isotopes and Nuclear Properties:
 (Nuclear quadrupole moments (NQMom) in fm**2, nuclear magnetic moments (NMagM)
  in nuclear magnetons)

  Atom         1           2           3
 IAtWgt=          12          16          16
 AtmWgt=  12.0000000  15.9949146  15.9949146
 NucSpn=           0           0           0
 AtZEff=   0.0000000   0.0000000   0.0000000
 NQMom=    0.0000000   0.0000000   0.0000000
 NMagM=    0.0000000   0.0000000   0.0000000
 AtZNuc=   6.0000000   8.0000000   8.0000000
 Leave Link  101 at Wed Jul  1 22:03:14 2026, MaxMem=  4026531840 cpu:        12.3
 (Enter /home/p20190052/g09/l103.exe)

 GradGradGradGradGradGradGradGradGradGradGradGradGradGradGradGradGradGrad
 Berny optimization.
 Initialization pass.
                           ----------------------------
                           !    Initial Parameters    !
                           ! (Angstroms and Degrees)  !
 --------------------------                            --------------------------
 ! Name  Definition              Value          Derivative Info.                !
 --------------------------------------------------------------------------------
 ! R1    R(1,2)                  1.1692         estimate D2E/DX2                !
 ! R2    R(1,3)                  1.1692         estimate D2E/DX2                !
 ! A1    L(2,1,3,-2,-1)        180.0            estimate D2E/DX2                !
 ! A2    L(2,1,3,-1,-2)        180.0            estimate D2E/DX2                !
 --------------------------------------------------------------------------------
 Trust Radius=3.00D-01 FncErr=1.00D-07 GrdErr=1.00D-06
 Number of steps in this run=     20 maximum allowed number of steps=    100.
 GradGradGradGradGradGradGradGradGradGradGradGradGradGradGradGradGradGrad

 Leave Link  103 at Wed Jul  1 22:03:14 2026, MaxMem=  4026531840 cpu:         0.2
 (Enter /home/p20190052/g09/l202.exe)
                          Input orientation:                          
 ---------------------------------------------------------------------
 Center     Atomic      Atomic             Coordinates (Angstroms)
 Number     Number       Type             X           Y           Z
 ---------------------------------------------------------------------
      1          6           0       -0.411850    0.488044   -1.620285
      2          8           0        0.139989    0.361212   -0.597374
      3          8           0       -0.963690    0.614876   -2.643195
 ---------------------------------------------------------------------
                    Distance matrix (angstroms):
                    1          2          3
     1  C    0.000000
     2  O    1.169170   0.000000
     3  O    1.169170   2.338340   0.000000
 Stoichiometry    CO2
 Framework group  D*H[O(C),C*(O.O)]
 Deg. of freedom     1
 Full point group                 D*H     NOp   8
 Largest Abelian subgroup         D2H     NOp   8
 Largest concise Abelian subgroup C2      NOp   2
                         Standard orientation:                         
 ---------------------------------------------------------------------
 Center     Atomic      Atomic             Coordinates (Angstroms)
 Number     Number       Type             X           Y           Z
 ---------------------------------------------------------------------
      1          6           0        0.000000    0.000000    0.000000
      2          8           0        0.000000    0.000000    1.169170
      3          8           0        0.000000    0.000000   -1.169170
 ---------------------------------------------------------------------
 Rotational constants (GHZ):      0.0000000     11.5571286     11.5571286
 Leave Link  202 at Wed Jul  1 22:03:14 2026, MaxMem=  4026531840 cpu:         1.0
 (Enter /home/p20190052/g09/l301.exe)
 Standard basis: CC-pVDZ (5D, 7F)
 Ernie: Thresh=  0.10000D-02 Tol=  0.10000D-05 Strict=F.
 Ernie:  6 primitive shells out of 66 were deleted.
 There are    14 symmetry adapted cartesian basis functions of AG  symmetry.
 There are     2 symmetry adapted cartesian basis functions of B1G symmetry.
 There are     4 symmetry adapted cartesian basis functions of B2G symmetry.
 There are     4 symmetry adapted cartesian basis functions of B3G symmetry.
 There are     1 symmetry adapted cartesian basis functions of AU  symmetry.
 There are    10 symmetry adapted cartesian basis functions of B1U symmetry.
 There are     5 symmetry adapted cartesian basis functions of B2U symmetry.
 There are     5 symmetry adapted cartesian basis functions of B3U symmetry.
 There are    12 symmetry adapted basis functions of AG  symmetry.
 There are     2 symmetry adapted basis functions of B1G symmetry.
 There are     4 symmetry adapted basis functions of B2G symmetry.
 There are     4 symmetry adapted basis functions of B3G symmetry.
 There are     1 symmetry adapted basis functions of AU  symmetry.
 There are     9 symmetry adapted basis functions of B1U symmetry.
 There are     5 symmetry adapted basis functions of B2U symmetry.
 There are     5 symmetry adapted basis functions of B3U symmetry.
    42 basis functions,    99 primitive gaussians,    45 cartesian basis functions
    11 alpha electrons       11 beta electrons
       nuclear repulsion energy        57.9339896448 Hartrees.
 IExCor=  402 DFT=T Ex+Corr=B3LYP ExCW=0 ScaHFX=  0.200000
 ScaDFX=  0.800000  0.720000  1.000000  0.810000 ScalE2=  1.000000  1.000000
 IRadAn=      0 IRanWt=     -1 IRanGd=            0 ICorTp=0 IEmpDi=  4
 NAtoms=    3 NActive=    3 NUniq=    2 SFac= 2.25D+00 NAtFMM=   60 NAOKFM=F Big=F
 Integral buffers will be    131072 words long.
 Raffenetti 2 integral format.
 Two-electron integral symmetry is turned on.
 Leave Link  301 at Wed Jul  1 22:03:15 2026, MaxMem=  4026531840 cpu:         2.0
 (Enter /home/p20190052/g09/l302.exe)
 NPDir=0 NMtPBC=     1 NCelOv=     1 NCel=       1 NClECP=     1 NCelD=      1
         NCelK=      1 NCelE2=     1 NClLst=     1 CellRange=     0.0.
 One-electron integrals computed using PRISM.
 One-electron integral symmetry used in STVInt
 NBasis=    42 RedAO= T EigKep=  2.93D-02  NBF=    12     2     4     4     1     9     5     5
 NBsUse=    42 1.00D-06 EigRej= -1.00D+00 NBFU=    12     2     4     4     1     9     5     5
 Precomputing XC quadrature grid using
 IXCGrd= 4 IRadAn=           0 IRanWt=          -1 IRanGd=           0 AccXCQ= 0.00D+00.
 Generated NRdTot=       0 NPtTot=           0 NUsed=           0 NTot=          32
 NSgBfM=    45    45    45    45    45 MxSgAt=     3 MxSgA2=     3.
 Leave Link  302 at Wed Jul  1 22:03:15 2026, MaxMem=  4026531840 cpu:        15.6
 (Enter /home/p20190052/g09/l303.exe)
 DipDrv:  MaxL=1.
 Leave Link  303 at Wed Jul  1 22:03:15 2026, MaxMem=  4026531840 cpu:         1.1
 (Enter /home/p20190052/g09/l401.exe)
 ExpMin= 1.52D-01 ExpMax= 1.17D+04 ExpMxC= 4.01D+02 IAcc=1 IRadAn=         1 AccDes= 0.00D+00
 Harris functional with IExCor=  402 and IRadAn=       1 diagonalized for initial guess.
 HarFok:  IExCor=  402 AccDes= 0.00D+00 IRadAn=         1 IDoV= 1 UseB2=F ITyADJ=14
 ICtDFT=  3500011 ScaDFX=  1.000000  1.000000  1.000000  1.000000
 FoFCou: FMM=F IPFlag=           0 FMFlag=      100000 FMFlg1=           0
         NFxFlg=           0 DoJE=T BraDBF=F KetDBF=T FulRan=T
         wScrn=  0.000000 ICntrl=     500 IOpCl=  0 I1Cent=   200000004 NGrid=           0
         NMat0=    1 NMatS0=      1 NMatT0=    0 NMatD0=    1 NMtDS0=    0 NMtDT0=    0
 Petite list used in FoFCou.
 Harris En= -188.605434018231    
 JPrj=0 DoOrth=F DoCkMO=F.
 Initial guess orbital symmetries:
       Occupied  (SGU) (SGG) (SGG) (SGG) (SGU) (SGG) (SGU) (PIU)
                 (PIU) (PIG) (PIG)
       Virtual   (PIU) (PIU) (SGG) (SGU) (PIU) (PIU) (SGG) (SGU)
                 (SGG) (PIG) (PIG) (SGU) (PIU) (PIU) (DLTG) (DLTG)
                 (PIG) (PIG) (SGG) (SGU) (DLTU) (DLTU) (DLTG) (DLTG)
                 (SGG) (PIU) (PIU) (SGG) (PIG) (PIG) (SGU)
 The electronic state of the initial guess is 1-SGG.
 Leave Link  401 at Wed Jul  1 22:03:16 2026, MaxMem=  4026531840 cpu:        19.7
 (Enter /home/p20190052/g09/l502.exe)
 Closed shell SCF:
 Using DIIS extrapolation, IDIIS=  1040.
 Integral symmetry usage will be decided dynamically.
 Keep R1 ints in memory in symmetry-blocked form, NReq=1304667.
 IVT=       26957 IEndB=       26957 NGot=  4026531840 MDV=  4026444206
 LenX=  4026444206 LenY=  4026441740
 Requested convergence on RMS density matrix=1.00D-08 within 128 cycles.
 Requested convergence on MAX density matrix=1.00D-06.
 Requested convergence on             energy=1.00D-06.
 No special actions if energy rises.
 FoFCou: FMM=F IPFlag=           0 FMFlag=           0 FMFlg1=           0
         NFxFlg=           0 DoJE=F BraDBF=F KetDBF=F FulRan=T
         wScrn=  0.000000 ICntrl=     600 IOpCl=  0 I1Cent=           0 NGrid=           0
         NMat0=    1 NMatS0=    903 NMatT0=    0 NMatD0=    1 NMtDS0=    0 NMtDT0=    0
 Petite list used in FoFCou.
 Integral accuracy reduced to 1.0D-05 until final iterations.

 Cycle   1  Pass 0  IDiag  1:
 E= -188.521592787861    
 DIIS: error= 4.57D-02 at cycle   1 NSaved=   1.
 NSaved= 1 IEnMin= 1 EnMin= -188.521592787861     IErMin= 1 ErrMin= 4.57D-02
 ErrMax= 4.57D-02  0.00D+00 EMaxC= 1.00D-01 BMatC= 1.10D-01 BMatP= 1.10D-01
 IDIUse=3 WtCom= 5.43D-01 WtEn= 4.57D-01
 Coeff-Com:  0.100D+01
 Coeff-En:   0.100D+01
 Coeff:      0.100D+01
 Gap=     0.312 Goal=   None    Shift=    0.000
 GapD=    0.312 DampG=1.000 DampE=0.500 DampFc=0.5000 IDamp=-1.
 Damping current iteration by 5.00D-01
 RMSDP=1.06D-02 MaxDP=1.21D-01              OVMax= 2.10D-01

 Cycle   2  Pass 0  IDiag  1:
 E= -188.534904598776     Delta-E=       -0.013311810915 Rises=F Damp=T
 DIIS: error= 2.18D-02 at cycle   2 NSaved=   2.
 NSaved= 2 IEnMin= 2 EnMin= -188.534904598776     IErMin= 2 ErrMin= 2.18D-02
 ErrMax= 2.18D-02  0.00D+00 EMaxC= 1.00D-01 BMatC= 1.68D-02 BMatP= 1.10D-01
 IDIUse=3 WtCom= 7.82D-01 WtEn= 2.18D-01
 Coeff-Com:  0.268D+00 0.732D+00
 Coeff-En:   0.427D+00 0.573D+00
 Coeff:      0.303D+00 0.697D+00
 Gap=     0.390 Goal=   None    Shift=    0.000
 RMSDP=1.79D-03 MaxDP=3.20D-02 DE=-1.33D-02 OVMax= 1.38D-01

 Cycle   3  Pass 0  IDiag  1:
 E= -188.597819740289     Delta-E=       -0.062915141514 Rises=F Damp=F
 DIIS: error= 4.12D-03 at cycle   3 NSaved=   3.
 NSaved= 3 IEnMin= 3 EnMin= -188.597819740289     IErMin= 3 ErrMin= 4.12D-03
 ErrMax= 4.12D-03  0.00D+00 EMaxC= 1.00D-01 BMatC= 8.34D-04 BMatP= 1.68D-02
 IDIUse=3 WtCom= 9.59D-01 WtEn= 4.12D-02
 Coeff-Com:  0.102D+00 0.172D+00 0.726D+00
 Coeff-En:   0.000D+00 0.000D+00 0.100D+01
 Coeff:      0.980D-01 0.165D+00 0.737D+00
 Gap=     0.399 Goal=   None    Shift=    0.000
 RMSDP=5.95D-04 MaxDP=4.83D-03 DE=-6.29D-02 OVMax= 5.96D-03

 Cycle   4  Pass 0  IDiag  1:
 E= -188.598442186375     Delta-E=       -0.000622446085 Rises=F Damp=F
 DIIS: error= 8.50D-04 at cycle   4 NSaved=   4.
 NSaved= 4 IEnMin= 4 EnMin= -188.598442186375     IErMin= 4 ErrMin= 8.50D-04
 ErrMax= 8.50D-04  0.00D+00 EMaxC= 1.00D-01 BMatC= 2.81D-05 BMatP= 8.34D-04
 IDIUse=3 WtCom= 9.92D-01 WtEn= 8.50D-03
 Coeff-Com:  0.606D-02-0.129D-01 0.180D+00 0.827D+00
 Coeff-En:   0.000D+00 0.000D+00 0.000D+00 0.100D+01
 Coeff:      0.601D-02-0.128D-01 0.178D+00 0.828D+00
 Gap=     0.399 Goal=   None    Shift=    0.000
 RMSDP=9.73D-05 MaxDP=1.11D-03 DE=-6.22D-04 OVMax= 1.34D-03

 Cycle   5  Pass 0  IDiag  1:
 E= -188.598467825595     Delta-E=       -0.000025639220 Rises=F Damp=F
 DIIS: error= 5.16D-05 at cycle   5 NSaved=   5.
 NSaved= 5 IEnMin= 5 EnMin= -188.598467825595     IErMin= 5 ErrMin= 5.16D-05
 ErrMax= 5.16D-05  0.00D+00 EMaxC= 1.00D-01 BMatC= 7.35D-08 BMatP= 2.81D-05
 IDIUse=1 WtCom= 1.00D+00 WtEn= 0.00D+00
 Coeff-Com:  0.533D-03-0.266D-02 0.285D-01 0.147D+00 0.827D+00
 Coeff:      0.533D-03-0.266D-02 0.285D-01 0.147D+00 0.827D+00
 Gap=     0.399 Goal=   None    Shift=    0.000
 RMSDP=2.93D-06 MaxDP=2.02D-05 DE=-2.56D-05 OVMax= 3.93D-05

 Initial convergence to 1.0D-05 achieved.  Increase integral accuracy.
 Cycle   6  Pass 1  IDiag  1:
 E= -188.598456206660     Delta-E=        0.000011618935 Rises=F Damp=F
 DIIS: error= 6.96D-06 at cycle   1 NSaved=   1.
 NSaved= 1 IEnMin= 1 EnMin= -188.598456206660     IErMin= 1 ErrMin= 6.96D-06
 ErrMax= 6.96D-06  0.00D+00 EMaxC= 1.00D-01 BMatC= 1.97D-09 BMatP= 1.97D-09
 IDIUse=1 WtCom= 1.00D+00 WtEn= 0.00D+00
 Coeff-Com:  0.100D+01
 Coeff:      0.100D+01
 Gap=     0.399 Goal=   None    Shift=    0.000
 RMSDP=2.93D-06 MaxDP=2.02D-05 DE= 1.16D-05 OVMax= 2.50D-05

 Cycle   7  Pass 1  IDiag  1:
 E= -188.598456205060     Delta-E=        0.000000001599 Rises=F Damp=F
 DIIS: error= 1.08D-05 at cycle   2 NSaved=   2.
 NSaved= 2 IEnMin= 1 EnMin= -188.598456206660     IErMin= 1 ErrMin= 6.96D-06
 ErrMax= 1.08D-05  0.00D+00 EMaxC= 1.00D-01 BMatC= 4.36D-09 BMatP= 1.97D-09
 IDIUse=1 WtCom= 1.00D+00 WtEn= 0.00D+00
 Coeff-Com:  0.607D+00 0.393D+00
 Coeff:      0.607D+00 0.393D+00
 Gap=     0.399 Goal=   None    Shift=    0.000
 RMSDP=8.81D-07 MaxDP=1.16D-05 DE= 1.60D-09 OVMax= 1.87D-05

 Cycle   8  Pass 1  IDiag  1:
 E= -188.598456208172     Delta-E=       -0.000000003112 Rises=F Damp=F
 DIIS: error= 9.98D-07 at cycle   3 NSaved=   3.
 NSaved= 3 IEnMin= 3 EnMin= -188.598456208172     IErMin= 3 ErrMin= 9.98D-07
 ErrMax= 9.98D-07  0.00D+00 EMaxC= 1.00D-01 BMatC= 4.96D-11 BMatP= 1.97D-09
 IDIUse=1 WtCom= 1.00D+00 WtEn= 0.00D+00
 Coeff-Com: -0.108D-01 0.904D-01 0.920D+00
 Coeff:     -0.108D-01 0.904D-01 0.920D+00
 Gap=     0.399 Goal=   None    Shift=    0.000
 RMSDP=9.36D-08 MaxDP=1.04D-06 DE=-3.11D-09 OVMax= 1.44D-06

 Cycle   9  Pass 1  IDiag  1:
 E= -188.598456208207     Delta-E=       -0.000000000035 Rises=F Damp=F
 DIIS: error= 1.12D-07 at cycle   4 NSaved=   4.
 NSaved= 4 IEnMin= 4 EnMin= -188.598456208207     IErMin= 4 ErrMin= 1.12D-07
 ErrMax= 1.12D-07  0.00D+00 EMaxC= 1.00D-01 BMatC= 6.67D-13 BMatP= 4.96D-11
 IDIUse=1 WtCom= 1.00D+00 WtEn= 0.00D+00
 Coeff-Com: -0.800D-02 0.323D-01 0.343D+00 0.633D+00
 Coeff:     -0.800D-02 0.323D-01 0.343D+00 0.633D+00
 Gap=     0.399 Goal=   None    Shift=    0.000
 RMSDP=1.59D-08 MaxDP=1.61D-07 DE=-3.48D-11 OVMax= 1.97D-07

 Cycle  10  Pass 1  IDiag  1:
 E= -188.598456208207     Delta-E=       -0.000000000001 Rises=F Damp=F
 DIIS: error= 7.87D-09 at cycle   5 NSaved=   5.
 NSaved= 5 IEnMin= 5 EnMin= -188.598456208207     IErMin= 5 ErrMin= 7.87D-09
 ErrMax= 7.87D-09  0.00D+00 EMaxC= 1.00D-01 BMatC= 1.70D-15 BMatP= 6.67D-13
 IDIUse=1 WtCom= 1.00D+00 WtEn= 0.00D+00
 Coeff-Com:  0.396D-04-0.149D-02-0.119D-01 0.209D-01 0.992D+00
 Coeff:      0.396D-04-0.149D-02-0.119D-01 0.209D-01 0.992D+00
 Gap=     0.399 Goal=   None    Shift=    0.000
 RMSDP=1.11D-09 MaxDP=1.16D-08 DE=-5.12D-13 OVMax= 1.57D-08

 SCF Done:  E(RB3LYP) =  -188.598456208     A.U. after   10 cycles
            NFock= 10  Conv=0.11D-08     -V/T= 2.0059
 KE= 1.874980999347D+02 PE=-5.595715166342D+02 EE= 1.255409708466D+02
 Leave Link  502 at Wed Jul  1 22:03:16 2026, MaxMem=  4026531840 cpu:        11.2
 (Enter /home/p20190052/g09/l601.exe)
 Copying SCF densities to generalized density rwf, IOpCl= 0 IROHF=0.

 **********************************************************************

            Population analysis using the SCF density.

 **********************************************************************

 Orbital symmetries:
       Occupied  (SGU) (SGG) (SGG) (SGG) (SGU) (SGG) (SGU) (PIU)
                 (PIU) (PIG) (PIG)
       Virtual   (PIU) (PIU) (SGG) (SGU) (PIU) (PIU) (SGG) (SGU)
                 (SGG) (PIG) (PIG) (DLTG) (DLTG) (SGU) (PIU) (PIU)
                 (PIG) (PIG) (SGG) (SGU) (DLTU) (DLTU) (DLTG) (DLTG)
                 (SGG) (PIU) (PIU) (SGG) (PIG) (PIG) (SGU)
 The electronic state is 1-SGG.
 Alpha  occ. eigenvalues --  -19.22413 -19.22412 -10.38111  -1.15901  -1.11845
 Alpha  occ. eigenvalues --   -0.56164  -0.51658  -0.51149  -0.51149  -0.36752
 Alpha  occ. eigenvalues --   -0.36752
 Alpha virt. eigenvalues --    0.03179   0.03179   0.08064   0.34265   0.41465
 Alpha virt. eigenvalues --    0.41465   0.53908   0.74238   0.83023   0.86809
 Alpha virt. eigenvalues --    0.86809   1.03948   1.03949   1.07292   1.08677
 Alpha virt. eigenvalues --    1.08677   1.29240   1.29240   1.58799   2.03225
 Alpha virt. eigenvalues --    2.52084   2.52084   2.64674   2.64674   2.69593
 Alpha virt. eigenvalues --    2.73441   2.73441   3.36600   3.46706   3.46706
 Alpha virt. eigenvalues --    3.49649
          Condensed to atoms (all electrons):
               1          2          3
     1  C    4.206229   0.752007   0.752007
     2  O    0.752007   7.419684  -0.026812
     3  O    0.752007  -0.026812   7.419684
 Mulliken charges:
               1
     1  C    0.289758
     2  O   -0.144879
     3  O   -0.144879
 Sum of Mulliken charges =  -0.00000
 Mulliken charges with hydrogens summed into heavy atoms:
               1
     1  C    0.289758
     2  O   -0.144879
     3  O   -0.144879
 Electronic spatial extent (au):  <R**2>=            113.4954
 Charge=             -0.0000 electrons
 Dipole moment (field-independent basis, Debye):
    X=             -0.0000    Y=              0.0000    Z=              0.0000  Tot=              0.0000
 Quadrupole moment (field-independent basis, Debye-Ang):
   XX=            -14.4536   YY=            -14.4536   ZZ=            -18.6955
   XY=             -0.0000   XZ=              0.0000   YZ=             -0.0000
 Traceless Quadrupole moment (field-independent basis, Debye-Ang):
   XX=              1.4139   YY=              1.4139   ZZ=             -2.8279
   XY=             -0.0000   XZ=              0.0000   YZ=             -0.0000
 Octapole moment (field-independent basis, Debye-Ang**2):
  XXX=             -0.0000  YYY=              0.0000  ZZZ=              0.0000  XYY=             -0.0000
  XXY=              0.0000  XXZ=             -0.0000  XZZ=             -0.0000  YZZ=              0.0000
  YYZ=             -0.0000  XYZ=             -0.0000
 Hexadecapole moment (field-independent basis, Debye-Ang**3):
 XXXX=            -10.5060 YYYY=            -10.5060 ZZZZ=            -99.3035 XXXY=             -0.0000
 XXXZ=              0.0000 YYYX=             -0.0000 YYYZ=             -0.0000 ZZZX=              0.0000
 ZZZY=             -0.0000 XXYY=             -3.5020 XXZZ=            -17.7973 YYZZ=            -17.7973
 XXYZ=             -0.0000 YYXZ=              0.0000 ZZXY=             -0.0000
 N-N= 5.793398964475D+01 E-N=-5.595715163701D+02  KE= 1.874980999347D+02
 Symmetry AG   KE= 1.011874401207D+02
 Symmetry B1G  KE= 1.487032154619D-31
 Symmetry B2G  KE= 4.910812753179D+00
 Symmetry B3G  KE= 4.910812753179D+00
 Symmetry AU   KE= 1.170715574234D-31
 Symmetry B1U  KE= 6.925428720772D+01
 Symmetry B2U  KE= 3.617373549964D+00
 Symmetry B3U  KE= 3.617373549964D+00
 No NMR shielding tensors so no spin-rotation constants.
 Leave Link  601 at Wed Jul  1 22:03:17 2026, MaxMem=  4026531840 cpu:        21.8
 (Enter /home/p20190052/g09/l701.exe)
 Compute integral first derivatives.
 ... and contract with generalized density number  0.
 Leave Link  701 at Wed Jul  1 22:03:17 2026, MaxMem=  4026531840 cpu:        15.9
 (Enter /home/p20190052/g09/l702.exe)
 L702 exits ... SP integral derivatives will be done elsewhere.
 Leave Link  702 at Wed Jul  1 22:03:17 2026, MaxMem=  4026531840 cpu:         0.6
 (Enter /home/p20190052/g09/l703.exe)
 Compute integral first derivatives, UseDBF=F ICtDFT=           0.
 Integral derivatives from FoFJK, PRISM(SPDF).
 Calling FoFJK, ICntrl=      2127 FMM=F ISym2X=1 I1Cent= 0 IOpClX= 0 NMat=1 NMatS=1 NMatT=0.
 FoFJK:  IHMeth= 1 ICntrl=    2127 DoSepK=F KAlg= 0 I1Cent=   0 FoldK=F
 IRaf=         0 NMat=   1 IRICut=       1 DoRegI=T DoRafI=F ISym2E= 1.
 FoFCou: FMM=F IPFlag=           0 FMFlag=      100000 FMFlg1=         800
         NFxFlg=           0 DoJE=F BraDBF=F KetDBF=F FulRan=T
         wScrn=  0.000000 ICntrl=    2127 IOpCl=  0 I1Cent=           0 NGrid=           0
         NMat0=    1 NMatS0=      1 NMatT0=    0 NMatD0=    1 NMtDS0=    0 NMtDT0=    0
 Petite list used in FoFCou.
 Leave Link  703 at Wed Jul  1 22:03:17 2026, MaxMem=  4026531840 cpu:         8.1
 (Enter /home/p20190052/g09/l716.exe)
 Dipole        =-2.27670274D-16 2.43932437D-17 0.00000000D+00
 ***** Axes restored to original set *****
 -------------------------------------------------------------------
 Center     Atomic                   Forces (Hartrees/Bohr)
 Number     Number              X              Y              Z
 -------------------------------------------------------------------
      1        6           0.000000000   -0.000000000    0.000000000
      2        8          -0.001756519    0.000403710   -0.003255950
      3        8           0.001756519   -0.000403710    0.003255950
 -------------------------------------------------------------------
 Cartesian Forces:  Max     0.003255950 RMS     0.001754331
 Leave Link  716 at Wed Jul  1 22:03:18 2026, MaxMem=  4026531840 cpu:         1.2
 (Enter /home/p20190052/g09/l103.exe)

 GradGradGradGradGradGradGradGradGradGradGradGradGradGradGradGradGradGrad
 Berny optimization.
 FormGI is forming the generalized inverse of G from B-inverse, IUseBI=4.
 Internal  Forces:  Max     0.003721499 RMS     0.002631497
 Search for a local minimum.
 Step number   1 out of a maximum of   20
 All quantities printed in internal units (Hartrees-Bohrs-Radians)
 RMS Force = .26315D-02 SwitMx=.10000D-02 MixMth= 1
 Mixed Optimization -- RFO/linear search
 Second derivative matrix not updated -- first step.
 The second derivative matrix:
                          R1        R2        A1        A2
           R1           1.21976
           R2           0.00000   1.21976
           A1           0.00000   0.00000   0.04745
           A2           0.00000   0.00000   0.00000   0.04745
 ITU=  0
     Eigenvalues ---    0.04745   0.04745   1.21976   1.21976
 RFO step:  Lambda=-2.27086861D-05 EMin= 4.74521868D-02
 Linear search not attempted -- first point.
 Iteration  1 RMS(Cart)=  0.00215733 RMS(Int)=  0.00000122
 Iteration  2 RMS(Cart)=  0.00000098 RMS(Int)=  0.00000000
 ITry= 1 IFail=0 DXMaxC= 2.67D-03 DCOld= 1.00D+10 DXMaxT= 3.00D-01 DXLimC= 3.00D+00 Rises=F
 ClnCor:  largest displacement from symmetrization is 9.65D-10 for atom     1.
 Variable       Old X    -DE/DX   Delta X   Delta X   Delta X     New X
                                 (Linear)    (Quad)   (Total)
    R1        2.20941  -0.00372   0.00000  -0.00305  -0.00305   2.20636
    R2        2.20941  -0.00372   0.00000  -0.00305  -0.00305   2.20636
    A1        3.14159  -0.00000   0.00000  -0.00000   0.00000   3.14159
    A2        3.14159  -0.00000   0.00000  -0.00000   0.00000   3.14159
         Item               Value     Threshold  Converged?
 Maximum Force            0.003721     0.000450     NO 
 RMS     Force            0.002631     0.000300     NO 
 Maximum Displacement     0.002669     0.001800     NO 
 RMS     Displacement     0.002157     0.001200     NO 
 Predicted change in Energy=-1.135434D-05
 Lowest energy point so far.  Saving SCF results.
 GradGradGradGradGradGradGradGradGradGradGradGradGradGradGradGradGradGrad

 Leave Link  103 at Wed Jul  1 22:03:18 2026, MaxMem=  4026531840 cpu:         0.3
 (Enter /home/p20190052/g09/l202.exe)
                          Input orientation:                          
 ---------------------------------------------------------------------
 Center     Atomic      Atomic             Coordinates (Angstroms)
 Number     Number       Type             X           Y           Z
 ---------------------------------------------------------------------
      1          6           0       -0.411850    0.488044   -1.620285
      2          8           0        0.139227    0.361387   -0.598787
      3          8           0       -0.962928    0.614701   -2.641782
 ---------------------------------------------------------------------
                    Distance matrix (angstroms):
                    1          2          3
     1  C    0.000000
     2  O    1.167556   0.000000
     3  O    1.167556   2.335111   0.000000
 Stoichiometry    CO2
 Framework group  D*H[O(C),C*(O.O)]
 Deg. of freedom     1
 Full point group                 D*H     NOp   8
 RotChk:  IX=0 Diff= 3.23D-16
 Largest Abelian subgroup         D2H     NOp   8
 Largest concise Abelian subgroup C2      NOp   2
                         Standard orientation:                         
 ---------------------------------------------------------------------
 Center     Atomic      Atomic             Coordinates (Angstroms)
 Number     Number       Type             X           Y           Z
 ---------------------------------------------------------------------
      1          6           0        0.000000    0.000000    0.000000
      2          8           0       -0.000000   -0.000000    1.167556
      3          8           0        0.000000    0.000000   -1.167556
 ---------------------------------------------------------------------
 Rotational constants (GHZ):      0.0000000     11.5891131     11.5891131
 Leave Link  202 at Wed Jul  1 22:03:18 2026, MaxMem=  4026531840 cpu:         1.0
 (Enter /home/p20190052/g09/l301.exe)
 Standard basis: CC-pVDZ (5D, 7F)
 Ernie: Thresh=  0.10000D-02 Tol=  0.10000D-05 Strict=F.
 Ernie:  6 primitive shells out of 66 were deleted.
 There are    14 symmetry adapted cartesian basis functions of AG  symmetry.
 There are     2 symmetry adapted cartesian basis functions of B1G symmetry.
 There are     4 symmetry adapted cartesian basis functions of B2G symmetry.
 There are     4 symmetry adapted cartesian basis functions of B3G symmetry.
 There are     1 symmetry adapted cartesian basis functions of AU  symmetry.
 There are    10 symmetry adapted cartesian basis functions of B1U symmetry.
 There are     5 symmetry adapted cartesian basis functions of B2U symmetry.
 There are     5 symmetry adapted cartesian basis functions of B3U symmetry.
 There are    12 symmetry adapted basis functions of AG  symmetry.
 There are     2 symmetry adapted basis functions of B1G symmetry.
 There are     4 symmetry adapted basis functions of B2G symmetry.
 There are     4 symmetry adapted basis functions of B3G symmetry.
 There are     1 symmetry adapted basis functions of AU  symmetry.
 There are     9 symmetry adapted basis functions of B1U symmetry.
 There are     5 symmetry adapted basis functions of B2U symmetry.
 There are     5 symmetry adapted basis functions of B3U symmetry.
    42 basis functions,    99 primitive gaussians,    45 cartesian basis functions
    11 alpha electrons       11 beta electrons
       nuclear repulsion energy        58.0141008180 Hartrees.
 IExCor=  402 DFT=T Ex+Corr=B3LYP ExCW=0 ScaHFX=  0.200000
 ScaDFX=  0.800000  0.720000  1.000000  0.810000 ScalE2=  1.000000  1.000000
 IRadAn=      0 IRanWt=     -1 IRanGd=            0 ICorTp=0 IEmpDi=  4
 NAtoms=    3 NActive=    3 NUniq=    2 SFac= 2.25D+00 NAtFMM=   60 NAOKFM=F Big=F
 Integral buffers will be    131072 words long.
 Raffenetti 2 integral format.
 Two-electron integral symmetry is turned on.
 Leave Link  301 at Wed Jul  1 22:03:18 2026, MaxMem=  4026531840 cpu:         2.0
 (Enter /home/p20190052/g09/l302.exe)
 NPDir=0 NMtPBC=     1 NCelOv=     1 NCel=       1 NClECP=     1 NCelD=      1
         NCelK=      1 NCelE2=     1 NClLst=     1 CellRange=     0.0.
 One-electron integrals computed using PRISM.
 One-electron integral symmetry used in STVInt
 NBasis=    42 RedAO= T EigKep=  2.93D-02  NBF=    12     2     4     4     1     9     5     5
 NBsUse=    42 1.00D-06 EigRej= -1.00D+00 NBFU=    12     2     4     4     1     9     5     5
 Precomputing XC quadrature grid using
 IXCGrd= 4 IRadAn=           0 IRanWt=          -1 IRanGd=           0 AccXCQ= 0.00D+00.
 Generated NRdTot=       0 NPtTot=           0 NUsed=           0 NTot=          32
 NSgBfM=    45    45    45    45    45 MxSgAt=     3 MxSgA2=     3.
 Leave Link  302 at Wed Jul  1 22:03:18 2026, MaxMem=  4026531840 cpu:        16.0
 (Enter /home/p20190052/g09/l303.exe)
 DipDrv:  MaxL=1.
 Leave Link  303 at Wed Jul  1 22:03:18 2026, MaxMem=  4026531840 cpu:         0.8
 (Enter /home/p20190052/g09/l401.exe)
 Initial guess from the checkpoint file:  "CO2_b3lyp_ccpvdz.chk"
 B after Tr=    -0.000000    0.000000   -0.000000
         Rot=    1.000000   -0.000000   -0.000000    0.000000 Ang=   0.00 deg.
 Guess basis will be translated and rotated to current coordinates.
 JPrj=2 DoOrth=T DoCkMO=T.
 Initial guess orbital symmetries:
       Occupied  (SGU) (SGG) (SGG) (SGG) (SGU) (SGG) (SGU) (PIU)
                 (PIU) (PIG) (PIG)
       Virtual   (SGG) (SGG) (DLTG) (SGG) (SGG) (SGG) (DLTG) (SGG)
                 (DLTG) (DLTG) (PIG) (PIG) (PIG) (PIG) (PIG) (PIG)
                 (DLTU) (SGU) (SGU) (SGU) (DLTU) (SGU) (SGU) (PIU)
                 (PIU) (PIU) (PIU) (PIU) (PIU) (PIU) (PIU)
 The electronic state of the initial guess is 1-SGG.
 Leave Link  401 at Wed Jul  1 22:03:18 2026, MaxMem=  4026531840 cpu:         2.8
 (Enter /home/p20190052/g09/l502.exe)
 Closed shell SCF:
 Using DIIS extrapolation, IDIIS=  1040.
 Integral symmetry usage will be decided dynamically.
 Keep R1 ints in memory in symmetry-blocked form, NReq=1304667.
 IVT=       26957 IEndB=       26957 NGot=  4026531840 MDV=  4026444206
 LenX=  4026444206 LenY=  4026441740
 Requested convergence on RMS density matrix=1.00D-08 within 128 cycles.
 Requested convergence on MAX density matrix=1.00D-06.
 Requested convergence on             energy=1.00D-06.
 No special actions if energy rises.
 FoFCou: FMM=F IPFlag=           0 FMFlag=           0 FMFlg1=           0
         NFxFlg=           0 DoJE=F BraDBF=F KetDBF=F FulRan=T
         wScrn=  0.000000 ICntrl=     600 IOpCl=  0 I1Cent=           0 NGrid=           0
         NMat0=    1 NMatS0=    903 NMatT0=    0 NMatD0=    1 NMtDS0=    0 NMtDT0=    0
 Petite list used in FoFCou.

 Cycle   1  Pass 1  IDiag  1:
 E= -188.598464567962    
 DIIS: error= 2.39D-04 at cycle   1 NSaved=   1.
 NSaved= 1 IEnMin= 1 EnMin= -188.598464567962     IErMin= 1 ErrMin= 2.39D-04
 ErrMax= 2.39D-04  0.00D+00 EMaxC= 1.00D-01 BMatC= 3.59D-06 BMatP= 3.59D-06
 IDIUse=3 WtCom= 9.98D-01 WtEn= 2.39D-03
 Coeff-Com:  0.100D+01
 Coeff-En:   0.100D+01
 Coeff:      0.100D+01
 Gap=     0.596 Goal=   None    Shift=    0.000
 RMSDP=6.78D-05 MaxDP=5.39D-04              OVMax= 8.91D-04

 Cycle   2  Pass 1  IDiag  1:
 E= -188.598467900860     Delta-E=       -0.000003332898 Rises=F Damp=F
 DIIS: error= 1.33D-04 at cycle   2 NSaved=   2.
 NSaved= 2 IEnMin= 2 EnMin= -188.598467900860     IErMin= 2 ErrMin= 1.33D-04
 ErrMax= 1.33D-04  0.00D+00 EMaxC= 1.00D-01 BMatC= 8.29D-07 BMatP= 3.59D-06
 IDIUse=3 WtCom= 9.99D-01 WtEn= 1.33D-03
 Coeff-Com:  0.283D+00 0.717D+00
 Coeff-En:   0.000D+00 0.100D+01
 Coeff:      0.282D+00 0.718D+00
 Gap=     0.400 Goal=   None    Shift=    0.000
 RMSDP=1.98D-05 MaxDP=2.05D-04 DE=-3.33D-06 OVMax= 2.18D-04

 Cycle   3  Pass 1  IDiag  1:
 E= -188.598468429283     Delta-E=       -0.000000528423 Rises=F Damp=F
 DIIS: error= 6.56D-05 at cycle   3 NSaved=   3.
 NSaved= 3 IEnMin= 3 EnMin= -188.598468429283     IErMin= 3 ErrMin= 6.56D-05
 ErrMax= 6.56D-05  0.00D+00 EMaxC= 1.00D-01 BMatC= 1.73D-07 BMatP= 8.29D-07
 IDIUse=1 WtCom= 1.00D+00 WtEn= 0.00D+00
 Coeff-Com:  0.383D-01 0.312D+00 0.649D+00
 Coeff:      0.383D-01 0.312D+00 0.649D+00
 Gap=     0.401 Goal=   None    Shift=    0.000
 RMSDP=7.41D-06 MaxDP=8.13D-05 DE=-5.28D-07 OVMax= 1.38D-04

 Cycle   4  Pass 1  IDiag  1:
 E= -188.598468503079     Delta-E=       -0.000000073796 Rises=F Damp=F
 DIIS: error= 4.52D-05 at cycle   4 NSaved=   4.
 NSaved= 4 IEnMin= 4 EnMin= -188.598468503079     IErMin= 4 ErrMin= 4.52D-05
 ErrMax= 4.52D-05  0.00D+00 EMaxC= 1.00D-01 BMatC= 5.60D-08 BMatP= 1.73D-07
 IDIUse=1 WtCom= 1.00D+00 WtEn= 0.00D+00
 Coeff-Com: -0.114D-01 0.103D+00 0.415D+00 0.493D+00
 Coeff:     -0.114D-01 0.103D+00 0.415D+00 0.493D+00
 Gap=     0.400 Goal=   None    Shift=    0.000
 RMSDP=3.28D-06 MaxDP=5.07D-05 DE=-7.38D-08 OVMax= 7.11D-05

 Cycle   5  Pass 1  IDiag  1:
 E= -188.598468546704     Delta-E=       -0.000000043624 Rises=F Damp=F
 DIIS: error= 1.67D-06 at cycle   5 NSaved=   5.
 NSaved= 5 IEnMin= 5 EnMin= -188.598468546704     IErMin= 5 ErrMin= 1.67D-06
 ErrMax= 1.67D-06  0.00D+00 EMaxC= 1.00D-01 BMatC= 1.08D-10 BMatP= 5.60D-08
 IDIUse=1 WtCom= 1.00D+00 WtEn= 0.00D+00
 Coeff-Com: -0.623D-04-0.763D-02-0.261D-01 0.146D-01 0.102D+01
 Coeff:     -0.623D-04-0.763D-02-0.261D-01 0.146D-01 0.102D+01
 Gap=     0.400 Goal=   None    Shift=    0.000
 RMSDP=1.82D-07 MaxDP=2.17D-06 DE=-4.36D-08 OVMax= 3.46D-06

 Cycle   6  Pass 1  IDiag  1:
 E= -188.598468546791     Delta-E=       -0.000000000087 Rises=F Damp=F
 DIIS: error= 3.62D-08 at cycle   6 NSaved=   6.
 NSaved= 6 IEnMin= 6 EnMin= -188.598468546791     IErMin= 6 ErrMin= 3.62D-08
 ErrMax= 3.62D-08  0.00D+00 EMaxC= 1.00D-01 BMatC= 3.70D-14 BMatP= 1.08D-10
 IDIUse=1 WtCom= 1.00D+00 WtEn= 0.00D+00
 Coeff-Com:  0.337D-04-0.770D-04-0.539D-03-0.172D-02-0.390D-01 0.104D+01
 Coeff:      0.337D-04-0.770D-04-0.539D-03-0.172D-02-0.390D-01 0.104D+01
 Gap=     0.400 Goal=   None    Shift=    0.000
 RMSDP=5.62D-09 MaxDP=6.85D-08 DE=-8.71D-11 OVMax= 1.11D-07

 SCF Done:  E(RB3LYP) =  -188.598468547     A.U. after    6 cycles
            NFock=  6  Conv=0.56D-08     -V/T= 2.0058
 KE= 1.875123987388D+02 PE=-5.597422152793D+02 EE= 1.256172471756D+02
 Leave Link  502 at Wed Jul  1 22:03:19 2026, MaxMem=  4026531840 cpu:         9.0
 (Enter /home/p20190052/g09/l701.exe)
 Compute integral first derivatives.
 ... and contract with generalized density number  0.
 Leave Link  701 at Wed Jul  1 22:03:19 2026, MaxMem=  4026531840 cpu:        15.5
 (Enter /home/p20190052/g09/l702.exe)
 L702 exits ... SP integral derivatives will be done elsewhere.
 Leave Link  702 at Wed Jul  1 22:03:19 2026, MaxMem=  4026531840 cpu:         0.7
 (Enter /home/p20190052/g09/l703.exe)
 Compute integral first derivatives, UseDBF=F ICtDFT=           0.
 Integral derivatives from FoFJK, PRISM(SPDF).
 Calling FoFJK, ICntrl=      2127 FMM=F ISym2X=1 I1Cent= 0 IOpClX= 0 NMat=1 NMatS=1 NMatT=0.
 FoFJK:  IHMeth= 1 ICntrl=    2127 DoSepK=F KAlg= 0 I1Cent=   0 FoldK=F
 IRaf=         0 NMat=   1 IRICut=       1 DoRegI=T DoRafI=F ISym2E= 1.
 FoFCou: FMM=F IPFlag=           0 FMFlag=      100000 FMFlg1=         800
         NFxFlg=           0 DoJE=F BraDBF=F KetDBF=F FulRan=T
         wScrn=  0.000000 ICntrl=    2127 IOpCl=  0 I1Cent=           0 NGrid=           0
         NMat0=    1 NMatS0=      1 NMatT0=    0 NMatD0=    1 NMtDS0=    0 NMtDT0=    0
 Petite list used in FoFCou.
 Leave Link  703 at Wed Jul  1 22:03:19 2026, MaxMem=  4026531840 cpu:         8.0
 (Enter /home/p20190052/g09/l716.exe)
 Dipole        =-1.95156972D-16 1.62630810D-17 0.00000000D+00
 ***** Axes restored to original set *****
 -------------------------------------------------------------------
 Center     Atomic                   Forces (Hartrees/Bohr)
 Number     Number              X              Y              Z
 -------------------------------------------------------------------
      1        6           0.000000000   -0.000000000    0.000000000
      2        8          -0.000149277    0.000034309   -0.000276705
      3        8           0.000149277   -0.000034309    0.000276705
 -------------------------------------------------------------------
 Cartesian Forces:  Max     0.000276705 RMS     0.000149091
 Leave Link  716 at Wed Jul  1 22:03:19 2026, MaxMem=  4026531840 cpu:         0.7
 (Enter /home/p20190052/g09/l103.exe)

 GradGradGradGradGradGradGradGradGradGradGradGradGradGradGradGradGradGrad
 Berny optimization.
 Using GEDIIS/GDIIS optimizer.
 Red2BG is reusing G-inverse.
 Internal  Forces:  Max     0.000316269 RMS     0.000223636
 Search for a local minimum.
 Step number   2 out of a maximum of   20
 All quantities printed in internal units (Hartrees-Bohrs-Radians)
 RMS Force = .22364D-03 SwitMx=.10000D-02 MixMth= 2
 Mixed Optimization -- En-DIIS/RFO-DIIS
 Update second derivatives using D2CorX and points    1    2
 DE= -1.23D-05 DEPred=-1.14D-05 R= 1.09D+00
 TightC=F SS=  1.41D+00  RLast= 4.31D-03 DXNew= 5.0454D-01 1.2944D-02
 Trust test= 1.09D+00 RLast= 4.31D-03 DXMaxT set to 3.00D-01
 The second derivative matrix:
                          R1        R2        A1        A2
           R1           1.16794
           R2          -0.05182   1.16794
           A1           0.00000   0.00000   0.04745
           A2           0.00000   0.00000   0.00000   0.04745
 ITU=  1  0
 Use linear search instead of GDIIS.
     Eigenvalues ---    0.04745   0.04745   1.11612   1.21976
 RFO step:  Lambda= 0.00000000D+00 EMin= 4.74521868D-02
 Quartic linear search produced a step of  0.09231.
 Iteration  1 RMS(Cart)=  0.00019914 RMS(Int)=  0.00000001
 Iteration  2 RMS(Cart)=  0.00000001 RMS(Int)=  0.00000001
 ITry= 1 IFail=0 DXMaxC= 2.46D-04 DCOld= 1.00D+10 DXMaxT= 3.00D-01 DXLimC= 3.00D+00 Rises=F
 ClnCor:  largest displacement from symmetrization is 1.54D-08 for atom     1.
 Variable       Old X    -DE/DX   Delta X   Delta X   Delta X     New X
                                 (Linear)    (Quad)   (Total)
    R1        2.20636  -0.00032  -0.00028  -0.00000  -0.00028   2.20608
    R2        2.20636  -0.00032  -0.00028   0.00000  -0.00028   2.20608
    A1        3.14159  -0.00000   0.00000  -0.00000   0.00000   3.14159
    A2        3.14159   0.00000   0.00000   0.00000   0.00000   3.14159
         Item               Value     Threshold  Converged?
 Maximum Force            0.000316     0.000450     YES
 RMS     Force            0.000224     0.000300     YES
 Maximum Displacement     0.000246     0.001800     YES
 RMS     Displacement     0.000199     0.001200     YES
 Predicted change in Energy=-8.961644D-08
 Optimization completed.
    -- Stationary point found.
                           ----------------------------
                           !   Optimized Parameters   !
                           ! (Angstroms and Degrees)  !
 --------------------------                            --------------------------
 ! Name  Definition              Value          Derivative Info.                !
 --------------------------------------------------------------------------------
 ! R1    R(1,2)                  1.1676         -DE/DX =   -0.0003              !
 ! R2    R(1,3)                  1.1676         -DE/DX =   -0.0003              !
 ! A1    L(2,1,3,-2,-1)        180.0            -DE/DX =    0.0                 !
 ! A2    L(2,1,3,-1,-2)        180.0            -DE/DX =    0.0                 !
 --------------------------------------------------------------------------------
 Lowest energy point so far.  Saving SCF results.
 GradGradGradGradGradGradGradGradGradGradGradGradGradGradGradGradGradGrad

 Largest change from initial coordinates is atom    2       0.002 Angstoms.
 Leave Link  103 at Wed Jul  1 22:03:19 2026, MaxMem=  4026531840 cpu:         0.3
 (Enter /home/p20190052/g09/l202.exe)
                          Input orientation:                          
 ---------------------------------------------------------------------
 Center     Atomic      Atomic             Coordinates (Angstroms)
 Number     Number       Type             X           Y           Z
 ---------------------------------------------------------------------
      1          6           0       -0.411850    0.488044   -1.620285
      2          8           0        0.139227    0.361387   -0.598787
      3          8           0       -0.962928    0.614701   -2.641782
 ---------------------------------------------------------------------
                    Distance matrix (angstroms):
                    1          2          3
     1  C    0.000000
     2  O    1.167556   0.000000
     3  O    1.167556   2.335111   0.000000
 Stoichiometry    CO2
 Framework group  D*H[O(C),C*(O.O)]
 Deg. of freedom     1
 Full point group                 D*H     NOp   8
 RotChk:  IX=0 Diff= 3.76D-16
 Largest Abelian subgroup         D2H     NOp   8
 Largest concise Abelian subgroup C2      NOp   2
                         Standard orientation:                         
 ---------------------------------------------------------------------
 Center     Atomic      Atomic             Coordinates (Angstroms)
 Number     Number       Type             X           Y           Z
 ---------------------------------------------------------------------
      1          6           0        0.000000    0.000000    0.000000
      2          8           0       -0.000000    0.000000    1.167556
      3          8           0        0.000000    0.000000   -1.167556
 ---------------------------------------------------------------------
 Rotational constants (GHZ):      0.0000000     11.5891131     11.5891131
 Leave Link  202 at Wed Jul  1 22:03:19 2026, MaxMem=  4026531840 cpu:         0.8
 (Enter /home/p20190052/g09/l601.exe)
 Copying SCF densities to generalized density rwf, IOpCl= 0 IROHF=0.

 **********************************************************************

            Population analysis using the SCF density.

 **********************************************************************

 Orbital symmetries:
       Occupied  (SGU) (SGG) (SGG) (SGG) (SGU) (SGG) (SGU) (PIU)
                 (PIU) (PIG) (PIG)
       Virtual   (PIU) (PIU) (SGG) (SGU) (PIU) (PIU) (SGG) (SGU)
                 (SGG) (PIG) (PIG) (DLTG) (DLTG) (SGU) (PIU) (PIU)
                 (PIG) (PIG) (SGG) (SGU) (DLTU) (DLTU) (DLTG) (DLTG)
                 (SGG) (PIU) (PIU) (SGG) (PIG) (PIG) (SGU)
 The electronic state is 1-SGG.
 Alpha  occ. eigenvalues --  -19.22376 -19.22375 -10.38056  -1.15973  -1.11917
 Alpha  occ. eigenvalues --   -0.56134  -0.51662  -0.51204  -0.51204  -0.36755
 Alpha  occ. eigenvalues --   -0.36755
 Alpha virt. eigenvalues --    0.03293   0.03293   0.08143   0.34269   0.41445
 Alpha virt. eigenvalues --    0.41445   0.54019   0.74380   0.83043   0.86778
 Alpha virt. eigenvalues --    0.86778   1.03935   1.03935   1.07616   1.08723
 Alpha virt. eigenvalues --    1.08723   1.29426   1.29426   1.58878   2.03189
 Alpha virt. eigenvalues --    2.52073   2.52073   2.64762   2.64762   2.70219
 Alpha virt. eigenvalues --    2.73625   2.73625   3.36655   3.47029   3.47029
 Alpha virt. eigenvalues --    3.50002
          Condensed to atoms (all electrons):
               1          2          3
     1  C    4.203821   0.753758   0.753758
     2  O    0.753758   7.417379  -0.026806
     3  O    0.753758  -0.026806   7.417379
 Mulliken charges:
               1
     1  C    0.288663
     2  O   -0.144331
     3  O   -0.144331
 Sum of Mulliken charges =  -0.00000
 Mulliken charges with hydrogens summed into heavy atoms:
               1
     1  C    0.288663
     2  O   -0.144331
     3  O   -0.144331
 Electronic spatial extent (au):  <R**2>=            113.2636
 Charge=              0.0000 electrons
 Dipole moment (field-independent basis, Debye):
    X=             -0.0000    Y=              0.0000    Z=             -0.0000  Tot=              0.0000
 Quadrupole moment (field-independent basis, Debye-Ang):
   XX=            -14.4458   YY=            -14.4458   ZZ=            -18.6892
   XY=              0.0000   XZ=              0.0000   YZ=              0.0000
 Traceless Quadrupole moment (field-independent basis, Debye-Ang):
   XX=              1.4145   YY=              1.4145   ZZ=             -2.8289
   XY=              0.0000   XZ=              0.0000   YZ=              0.0000
 Octapole moment (field-independent basis, Debye-Ang**2):
  XXX=             -0.0000  YYY=              0.0000  ZZZ=             -0.0000  XYY=             -0.0000
  XXY=              0.0000  XXZ=              0.0000  XZZ=             -0.0000  YZZ=              0.0000
  YYZ=              0.0000  XYZ=             -0.0000
 Hexadecapole moment (field-independent basis, Debye-Ang**3):
 XXXX=            -10.4935 YYYY=            -10.4935 ZZZZ=            -99.0647 XXXY=              0.0000
 XXXZ=              0.0000 YYYX=              0.0000 YYYZ=              0.0000 ZZZX=              0.0000
 ZZZY=              0.0000 XXYY=             -3.4978 XXZZ=            -17.7532 YYZZ=            -17.7532
 XXYZ=              0.0000 YYXZ=              0.0000 ZZXY=              0.0000
 N-N= 5.801410081800D+01 E-N=-5.597422156479D+02  KE= 1.875123987388D+02
 Symmetry AG   KE= 1.011936234454D+02
 Symmetry B1G  KE= 6.154989168980D-33
 Symmetry B2G  KE= 4.911653223937D+00
 Symmetry B3G  KE= 4.911653223937D+00
 Symmetry AU   KE= 3.492036466697D-33
 Symmetry B1U  KE= 6.925937216730D+01
 Symmetry B2U  KE= 3.618048339155D+00
 Symmetry B3U  KE= 3.618048339155D+00
 No NMR shielding tensors so no spin-rotation constants.
 Leave Link  601 at Wed Jul  1 22:03:20 2026, MaxMem=  4026531840 cpu:        15.8
 (Enter /home/p20190052/g09/l9999.exe)
 1\1\ WCSS.PL-BEM-NODE1\FOpt\RB3LYP\CC-pVDZ\C1O2\P20190052\01-Jul-2026\
 0\\#p opt b3lyp/cc-pvdz geom=connectivity\\CO2 b3lyp ccpvdz\\0,1\C,-0.
 4118503,0.48804406,-1.62028451\O,0.1392270398,0.3613871912,-0.59878675
 8\O,-0.9629276398,0.6147009288,-2.641782262\\Version=ES64L-G09RevE.01\
 State=1-SGG\HF=-188.5984685\RMSD=5.623e-09\RMSF=1.491e-04\Dipole=0.,0.
 ,0.\Quadrupole=0.3487907,1.0144949,-1.3632857,0.1615351,-1.3027934,0.2
 994275\PG=D*H [O(C1),C*(O1.O1)]\\@


 ALMOST ALL THE CHEMICAL PROCESSES WHICH OCCUR IN NATURE,
 WHETHER IN ANIMAL OR VEGETABLE ORGANISMS,
 OR IN THE NON-LIVING SURFACE OF THE EARTH ... 
 TAKE PLACE BETWEEN SUBSTANCES IN SOLUTION

                                    -- W. OSTWALD, 1890
 Job cpu time:       0 days  0 hours  3 minutes 29.3 seconds.
 File lengths (MBytes):  RWF=      5 Int=      0 D2E=      0 Chk=      1 Scr=      1
 Normal termination of Gaussian 09 at Wed Jul  1 22:03:20 2026.
