 Entering Gaussian System, Link 0=g09
 Input=CO2_b3lyp_STO-3G.gjf
 Output=CO2_b3lyp_STO-3G.log
 Initial command:
 /home/p20190052/g09/l1.exe "/home/p20190052/g09/scratch/Gau-177874.inp" -scrdir="/home/p20190052/g09/scratch/"
 Entering Link 1 = /home/p20190052/g09/l1.exe PID=    177875.
  
 Copyright (c) 1988,1990,1992,1993,1995,1998,2003,2009,2015,
            Gaussian, Inc.  All Rights Reserved.
  
 This is part of the Gaussian(R) 09 program.  It is based on
 the Gaussian(R) 03 system (copyright 2003, Gaussian, Inc.),
 the Gaussian(R) 98 system (copyright 1998, Gaussian, Inc.),
 the Gaussian(R) 94 system (copyright 1995, Gaussian, Inc.),
 the Gaussian 92(TM) system (copyright 1992, Gaussian, Inc.),
 the Gaussian 90(TM) system (copyright 1990, Gaussian, Inc.),
 the Gaussian 88(TM) system (copyright 1988, Gaussian, Inc.),
 the Gaussian 86(TM) system (copyright 1986, Carnegie Mellon
 University), and the Gaussian 82(TM) system (copyright 1983,
 Carnegie Mellon University). Gaussian is a federally registered
 trademark of Gaussian, Inc.
  
 This software contains proprietary and confidential information,
 including trade secrets, belonging to Gaussian, Inc.
  
 This software is provided under written license and may be
 used, copied, transmitted, or stored only in accord with that
 written license.
  
 The following legend is applicable only to US Government
 contracts under FAR:
  
                    RESTRICTED RIGHTS LEGEND
  
 Use, reproduction and disclosure by the US Government is
 subject to restrictions as set forth in subparagraphs (a)
 and (c) of the Commercial Computer Software - Restricted
 Rights clause in FAR 52.227-19.
  
 Gaussian, Inc.
 340 Quinnipiac St., Bldg. 40, Wallingford CT 06492
  
  
 ---------------------------------------------------------------
 Warning -- This program may not be used in any manner that
 competes with the business of Gaussian, Inc. or will provide
 assistance to any competitor of Gaussian, Inc.  The licensee
 of this program is prohibited from giving any competitor of
 Gaussian, Inc. access to this program.  By using this program,
 the user acknowledges that Gaussian, Inc. is engaged in the
 business of creating and licensing software in the field of
 computational chemistry and represents and warrants to the
 licensee that it is not a competitor of Gaussian, Inc. and that
 it will not use this program in any manner prohibited above.
 ---------------------------------------------------------------
  

 Cite this work as:
 Gaussian 09, Revision E.01,
 M. J. Frisch, G. W. Trucks, H. B. Schlegel, G. E. Scuseria, 
 M. A. Robb, J. R. Cheeseman, G. Scalmani, V. Barone, B. Mennucci, 
 G. A. Petersson, H. Nakatsuji, M. Caricato, X. Li, H. P. Hratchian, 
 A. F. Izmaylov, J. Bloino, G. Zheng, J. L. Sonnenberg, M. Hada, 
 M. Ehara, K. Toyota, R. Fukuda, J. Hasegawa, M. Ishida, T. Nakajima, 
 Y. Honda, O. Kitao, H. Nakai, T. Vreven, J. A. Montgomery, Jr., 
 J. E. Peralta, F. Ogliaro, M. Bearpark, J. J. Heyd, E. Brothers, 
 K. N. Kudin, V. N. Staroverov, T. Keith, R. Kobayashi, J. Normand, 
 K. Raghavachari, A. Rendell, J. C. Burant, S. S. Iyengar, J. Tomasi, 
 M. Cossi, N. Rega, J. M. Millam, M. Klene, J. E. Knox, J. B. Cross, 
 V. Bakken, C. Adamo, J. Jaramillo, R. Gomperts, R. E. Stratmann, 
 O. Yazyev, A. J. Austin, R. Cammi, C. Pomelli, J. W. Ochterski, 
 R. L. Martin, K. Morokuma, V. G. Zakrzewski, G. A. Voth, 
 P. Salvador, J. J. Dannenberg, S. Dapprich, A. D. Daniels, 
 O. Farkas, J. B. Foresman, J. V. Ortiz, J. Cioslowski, 
 and D. J. Fox, Gaussian, Inc., Wallingford CT, 2013.
 
 ******************************************
 Gaussian 09:  ES64L-G09RevE.01 30-Nov-2015
                 1-Jul-2026 
 ******************************************
 %mem=30GB
 %nprocs=40
 Will use up to   40 processors via shared memory.
 %chk=CO2_b3lyp_STO-3G.chk
 -------------------------------------
 #p opt b3lyp/sto-3g geom=connectivity
 -------------------------------------
 1/14=-1,18=20,19=15,26=3,38=1,57=2/1,3;
 2/9=110,12=2,17=6,18=5,40=1/2;
 3/6=3,11=2,16=1,25=1,30=1,71=1,74=-5/1,2,3;
 4//1;
 5/5=2,38=5/2;
 6/7=2,8=2,9=2,10=2,28=1/1;
 7//1,2,3,16;
 1/14=-1,18=20,19=15,26=3/3(2);
 2/9=110/2;
 99//99;
 2/9=110/2;
 3/6=3,11=2,16=1,25=1,30=1,71=1,74=-5/1,2,3;
 4/5=5,16=3,69=1/1;
 5/5=2,38=5/2;
 7//1,2,3,16;
 1/14=-1,18=20,19=15,26=3/3(-5);
 2/9=110/2;
 6/7=2,8=2,9=2,10=2,19=2,28=1/1;
 99/9=1/99;
 Leave Link    1 at Wed Jul  1 22:03:20 2026, MaxMem=  4026531840 cpu:         1.8
 (Enter /home/p20190052/g09/l101.exe)
 ----------------
 CO2 b3lyp STO-3G
 ----------------
 Symbolic Z-matrix:
 Charge =  0 Multiplicity = 1
 C                    -0.41185   0.48804  -1.62028 
 O                     0.13999   0.36121  -0.59737 
 O                    -0.96369   0.61488  -2.64319 
 
 NAtoms=      3 NQM=        3 NQMF=       0 NMMI=      0 NMMIF=      0
                NMic=       0 NMicF=      0.
                    Isotopes and Nuclear Properties:
 (Nuclear quadrupole moments (NQMom) in fm**2, nuclear magnetic moments (NMagM)
  in nuclear magnetons)

  Atom         1           2           3
 IAtWgt=          12          16          16
 AtmWgt=  12.0000000  15.9949146  15.9949146
 NucSpn=           0           0           0
 AtZEff=   0.0000000   0.0000000   0.0000000
 NQMom=    0.0000000   0.0000000   0.0000000
 NMagM=    0.0000000   0.0000000   0.0000000
 AtZNuc=   6.0000000   8.0000000   8.0000000
 Leave Link  101 at Wed Jul  1 22:03:20 2026, MaxMem=  4026531840 cpu:        12.3
 (Enter /home/p20190052/g09/l103.exe)

 GradGradGradGradGradGradGradGradGradGradGradGradGradGradGradGradGradGrad
 Berny optimization.
 Initialization pass.
                           ----------------------------
                           !    Initial Parameters    !
                           ! (Angstroms and Degrees)  !
 --------------------------                            --------------------------
 ! Name  Definition              Value          Derivative Info.                !
 --------------------------------------------------------------------------------
 ! R1    R(1,2)                  1.1692         estimate D2E/DX2                !
 ! R2    R(1,3)                  1.1692         estimate D2E/DX2                !
 ! A1    L(2,1,3,-2,-1)        180.0            estimate D2E/DX2                !
 ! A2    L(2,1,3,-1,-2)        180.0            estimate D2E/DX2                !
 --------------------------------------------------------------------------------
 Trust Radius=3.00D-01 FncErr=1.00D-07 GrdErr=1.00D-06
 Number of steps in this run=     20 maximum allowed number of steps=    100.
 GradGradGradGradGradGradGradGradGradGradGradGradGradGradGradGradGradGrad

 Leave Link  103 at Wed Jul  1 22:03:20 2026, MaxMem=  4026531840 cpu:         0.2
 (Enter /home/p20190052/g09/l202.exe)
                          Input orientation:                          
 ---------------------------------------------------------------------
 Center     Atomic      Atomic             Coordinates (Angstroms)
 Number     Number       Type             X           Y           Z
 ---------------------------------------------------------------------
      1          6           0       -0.411850    0.488044   -1.620285
      2          8           0        0.139989    0.361212   -0.597374
      3          8           0       -0.963690    0.614876   -2.643195
 ---------------------------------------------------------------------
                    Distance matrix (angstroms):
                    1          2          3
     1  C    0.000000
     2  O    1.169170   0.000000
     3  O    1.169170   2.338340   0.000000
 Stoichiometry    CO2
 Framework group  D*H[O(C),C*(O.O)]
 Deg. of freedom     1
 Full point group                 D*H     NOp   8
 Largest Abelian subgroup         D2H     NOp   8
 Largest concise Abelian subgroup C2      NOp   2
                         Standard orientation:                         
 ---------------------------------------------------------------------
 Center     Atomic      Atomic             Coordinates (Angstroms)
 Number     Number       Type             X           Y           Z
 ---------------------------------------------------------------------
      1          6           0        0.000000    0.000000    0.000000
      2          8           0        0.000000    0.000000    1.169170
      3          8           0        0.000000    0.000000   -1.169170
 ---------------------------------------------------------------------
 Rotational constants (GHZ):      0.0000000     11.5571286     11.5571286
 Leave Link  202 at Wed Jul  1 22:03:20 2026, MaxMem=  4026531840 cpu:         0.3
 (Enter /home/p20190052/g09/l301.exe)
 Standard basis: STO-3G (5D, 7F)
 Ernie: Thresh=  0.10000D-02 Tol=  0.10000D-05 Strict=F.
 There are     5 symmetry adapted cartesian basis functions of AG  symmetry.
 There are     0 symmetry adapted cartesian basis functions of B1G symmetry.
 There are     1 symmetry adapted cartesian basis functions of B2G symmetry.
 There are     1 symmetry adapted cartesian basis functions of B3G symmetry.
 There are     0 symmetry adapted cartesian basis functions of AU  symmetry.
 There are     4 symmetry adapted cartesian basis functions of B1U symmetry.
 There are     2 symmetry adapted cartesian basis functions of B2U symmetry.
 There are     2 symmetry adapted cartesian basis functions of B3U symmetry.
 There are     5 symmetry adapted basis functions of AG  symmetry.
 There are     0 symmetry adapted basis functions of B1G symmetry.
 There are     1 symmetry adapted basis functions of B2G symmetry.
 There are     1 symmetry adapted basis functions of B3G symmetry.
 There are     0 symmetry adapted basis functions of AU  symmetry.
 There are     4 symmetry adapted basis functions of B1U symmetry.
 There are     2 symmetry adapted basis functions of B2U symmetry.
 There are     2 symmetry adapted basis functions of B3U symmetry.
    15 basis functions,    45 primitive gaussians,    15 cartesian basis functions
    11 alpha electrons       11 beta electrons
       nuclear repulsion energy        57.9339896448 Hartrees.
 IExCor=  402 DFT=T Ex+Corr=B3LYP ExCW=0 ScaHFX=  0.200000
 ScaDFX=  0.800000  0.720000  1.000000  0.810000 ScalE2=  1.000000  1.000000
 IRadAn=      0 IRanWt=     -1 IRanGd=            0 ICorTp=0 IEmpDi=  4
 NAtoms=    3 NActive=    3 NUniq=    2 SFac= 2.25D+00 NAtFMM=   60 NAOKFM=F Big=F
 Integral buffers will be    131072 words long.
 Raffenetti 2 integral format.
 Two-electron integral symmetry is turned on.
 Leave Link  301 at Wed Jul  1 22:03:21 2026, MaxMem=  4026531840 cpu:         3.1
 (Enter /home/p20190052/g09/l302.exe)
 NPDir=0 NMtPBC=     1 NCelOv=     1 NCel=       1 NClECP=     1 NCelD=      1
         NCelK=      1 NCelE2=     1 NClLst=     1 CellRange=     0.0.
 One-electron integrals computed using PRISM.
 One-electron integral symmetry used in STVInt
 NBasis=    15 RedAO= T EigKep=  3.32D-01  NBF=     5     0     1     1     0     4     2     2
 NBsUse=    15 1.00D-06 EigRej= -1.00D+00 NBFU=     5     0     1     1     0     4     2     2
 Precomputing XC quadrature grid using
 IXCGrd= 4 IRadAn=           0 IRanWt=          -1 IRanGd=           0 AccXCQ= 0.00D+00.
 Generated NRdTot=       0 NPtTot=           0 NUsed=           0 NTot=          32
 NSgBfM=    15    15    15    15    15 MxSgAt=     3 MxSgA2=     3.
 Leave Link  302 at Wed Jul  1 22:03:21 2026, MaxMem=  4026531840 cpu:        10.0
 (Enter /home/p20190052/g09/l303.exe)
 DipDrv:  MaxL=1.
 Leave Link  303 at Wed Jul  1 22:03:21 2026, MaxMem=  4026531840 cpu:         3.5
 (Enter /home/p20190052/g09/l401.exe)
 ExpMin= 2.22D-01 ExpMax= 1.31D+02 ExpMxC= 1.31D+02 IAcc=1 IRadAn=         1 AccDes= 0.00D+00
 Harris functional with IExCor=  402 and IRadAn=       1 diagonalized for initial guess.
 HarFok:  IExCor=  402 AccDes= 0.00D+00 IRadAn=         1 IDoV= 1 UseB2=F ITyADJ=14
 ICtDFT=  3500011 ScaDFX=  1.000000  1.000000  1.000000  1.000000
 FoFCou: FMM=F IPFlag=           0 FMFlag=      100000 FMFlg1=           0
         NFxFlg=           0 DoJE=T BraDBF=F KetDBF=T FulRan=T
         wScrn=  0.000000 ICntrl=     500 IOpCl=  0 I1Cent=   200000004 NGrid=           0
         NMat0=    1 NMatS0=      1 NMatT0=    0 NMatD0=    1 NMtDS0=    0 NMtDT0=    0
 Petite list used in FoFCou.
 Harris En= -185.971253569458    
 JPrj=0 DoOrth=F DoCkMO=F.
 Initial guess orbital symmetries:
       Occupied  (SGU) (SGG) (SGG) (SGG) (SGU) (SGG) (SGU) (PIU)
                 (PIU) (PIG) (PIG)
       Virtual   (PIU) (PIU) (SGG) (SGU)
 The electronic state of the initial guess is 1-SGG.
 Leave Link  401 at Wed Jul  1 22:03:21 2026, MaxMem=  4026531840 cpu:        10.9
 (Enter /home/p20190052/g09/l502.exe)
 Closed shell SCF:
 Using DIIS extrapolation, IDIIS=  1040.
 Integral symmetry usage will be decided dynamically.
 Keep R1 ints in memory in symmetry-blocked form, NReq=888474.
 IVT=       20951 IEndB=       20951 NGot=  4026531840 MDV=  4026508307
 LenX=  4026508307 LenY=  4026507425
 Requested convergence on RMS density matrix=1.00D-08 within 128 cycles.
 Requested convergence on MAX density matrix=1.00D-06.
 Requested convergence on             energy=1.00D-06.
 No special actions if energy rises.
 FoFCou: FMM=F IPFlag=           0 FMFlag=           0 FMFlg1=           0
         NFxFlg=           0 DoJE=F BraDBF=F KetDBF=F FulRan=T
         wScrn=  0.000000 ICntrl=     600 IOpCl=  0 I1Cent=           0 NGrid=           0
         NMat0=    1 NMatS0=    120 NMatT0=    0 NMatD0=    1 NMtDS0=    0 NMtDT0=    0
 Petite list used in FoFCou.
 Integral accuracy reduced to 1.0D-05 until final iterations.

 Cycle   1  Pass 0  IDiag  1:
 E= -185.918822177151    
 DIIS: error= 5.60D-02 at cycle   1 NSaved=   1.
 NSaved= 1 IEnMin= 1 EnMin= -185.918822177151     IErMin= 1 ErrMin= 5.60D-02
 ErrMax= 5.60D-02  0.00D+00 EMaxC= 1.00D-01 BMatC= 4.58D-02 BMatP= 4.58D-02
 IDIUse=3 WtCom= 4.40D-01 WtEn= 5.60D-01
 Coeff-Com:  0.100D+01
 Coeff-En:   0.100D+01
 Coeff:      0.100D+01
 Gap=     0.295 Goal=   None    Shift=    0.000
 GapD=    0.295 DampG=1.000 DampE=0.500 DampFc=0.5000 IDamp=-1.
 Damping current iteration by 5.00D-01
 RMSDP=3.88D-02 MaxDP=2.08D-01              OVMax= 0.00D+00

 Cycle   2  Pass 0  IDiag  1:
 E= -185.936387221258     Delta-E=       -0.017565044108 Rises=F Damp=T
 DIIS: error= 1.36D-02 at cycle   2 NSaved=   2.
 NSaved= 2 IEnMin= 2 EnMin= -185.936387221258     IErMin= 2 ErrMin= 1.36D-02
 ErrMax= 1.36D-02  0.00D+00 EMaxC= 1.00D-01 BMatC= 2.93D-03 BMatP= 4.58D-02
 IDIUse=3 WtCom= 8.64D-01 WtEn= 1.36D-01
 Coeff-Com:  0.193D+00 0.807D+00
 Coeff-En:   0.308D+00 0.692D+00
 Coeff:      0.209D+00 0.791D+00
 Gap=     0.367 Goal=   None    Shift=    0.000
 RMSDP=3.20D-03 MaxDP=1.99D-02 DE=-1.76D-02 OVMax= 0.00D+00

 Cycle   3  Pass 0  IDiag  1:
 E= -185.970455972089     Delta-E=       -0.034068750831 Rises=F Damp=F
 DIIS: error= 2.22D-03 at cycle   3 NSaved=   3.
 NSaved= 3 IEnMin= 3 EnMin= -185.970455972089     IErMin= 3 ErrMin= 2.22D-03
 ErrMax= 2.22D-03  0.00D+00 EMaxC= 1.00D-01 BMatC= 7.12D-05 BMatP= 2.93D-03
 IDIUse=3 WtCom= 9.78D-01 WtEn= 2.22D-02
 Coeff-Com:  0.238D-01-0.729D-01 0.105D+01
 Coeff-En:   0.000D+00 0.000D+00 0.100D+01
 Coeff:      0.232D-01-0.713D-01 0.105D+01
 Gap=     0.377 Goal=   None    Shift=    0.000
 RMSDP=5.91D-04 MaxDP=3.42D-03 DE=-3.41D-02 OVMax= 0.00D+00

 Cycle   4  Pass 0  IDiag  1:
 E= -185.970531369981     Delta-E=       -0.000075397892 Rises=F Damp=F
 DIIS: error= 6.69D-05 at cycle   4 NSaved=   4.
 NSaved= 4 IEnMin= 4 EnMin= -185.970531369981     IErMin= 4 ErrMin= 6.69D-05
 ErrMax= 6.69D-05  0.00D+00 EMaxC= 1.00D-01 BMatC= 7.20D-08 BMatP= 7.12D-05
 IDIUse=1 WtCom= 1.00D+00 WtEn= 0.00D+00
 Coeff-Com: -0.626D-03 0.685D-03 0.113D-01 0.989D+00
 Coeff:     -0.626D-03 0.685D-03 0.113D-01 0.989D+00
 Gap=     0.377 Goal=   None    Shift=    0.000
 RMSDP=2.16D-05 MaxDP=1.41D-04 DE=-7.54D-05 OVMax= 0.00D+00

 Cycle   5  Pass 0  IDiag  1:
 E= -185.970531447941     Delta-E=       -0.000000077961 Rises=F Damp=F
 DIIS: error= 9.21D-07 at cycle   5 NSaved=   5.
 NSaved= 5 IEnMin= 5 EnMin= -185.970531447941     IErMin= 5 ErrMin= 9.21D-07
 ErrMax= 9.21D-07  0.00D+00 EMaxC= 1.00D-01 BMatC= 1.24D-11 BMatP= 7.20D-08
 IDIUse=1 WtCom= 1.00D+00 WtEn= 0.00D+00
 Coeff-Com: -0.473D-04 0.157D-03-0.311D-02-0.397D-01 0.104D+01
 Coeff:     -0.473D-04 0.157D-03-0.311D-02-0.397D-01 0.104D+01
 Gap=     0.377 Goal=   None    Shift=    0.000
 RMSDP=5.62D-07 MaxDP=4.96D-06 DE=-7.80D-08 OVMax= 0.00D+00

 Initial convergence to 1.0D-05 achieved.  Increase integral accuracy.
 Cycle   6  Pass 1  IDiag  1:
 E= -185.970520444503     Delta-E=        0.000011003439 Rises=F Damp=F
 DIIS: error= 2.02D-06 at cycle   1 NSaved=   1.
 NSaved= 1 IEnMin= 1 EnMin= -185.970520444503     IErMin= 1 ErrMin= 2.02D-06
 ErrMax= 2.02D-06  0.00D+00 EMaxC= 1.00D-01 BMatC= 6.74D-11 BMatP= 6.74D-11
 IDIUse=1 WtCom= 1.00D+00 WtEn= 0.00D+00
 Coeff-Com:  0.100D+01
 Coeff:      0.100D+01
 Gap=     0.377 Goal=   None    Shift=    0.000
 RMSDP=5.62D-07 MaxDP=4.96D-06 DE= 1.10D-05 OVMax= 0.00D+00

 Cycle   7  Pass 1  IDiag  1:
 E= -185.970520444562     Delta-E=       -0.000000000059 Rises=F Damp=F
 DIIS: error= 1.57D-06 at cycle   2 NSaved=   2.
 NSaved= 2 IEnMin= 2 EnMin= -185.970520444562     IErMin= 2 ErrMin= 1.57D-06
 ErrMax= 1.57D-06  0.00D+00 EMaxC= 1.00D-01 BMatC= 4.34D-11 BMatP= 6.74D-11
 IDIUse=1 WtCom= 1.00D+00 WtEn= 0.00D+00
 Coeff-Com:  0.406D+00 0.594D+00
 Coeff:      0.406D+00 0.594D+00
 Gap=     0.377 Goal=   None    Shift=    0.000
 RMSDP=6.53D-07 MaxDP=3.50D-06 DE=-5.90D-11 OVMax= 0.00D+00

 Cycle   8  Pass 1  IDiag  1:
 E= -185.970520444595     Delta-E=       -0.000000000033 Rises=F Damp=F
 DIIS: error= 8.33D-07 at cycle   3 NSaved=   3.
 NSaved= 3 IEnMin= 3 EnMin= -185.970520444595     IErMin= 3 ErrMin= 8.33D-07
 ErrMax= 8.33D-07  0.00D+00 EMaxC= 1.00D-01 BMatC= 8.69D-12 BMatP= 4.34D-11
 IDIUse=1 WtCom= 1.00D+00 WtEn= 0.00D+00
 Coeff-Com: -0.398D-01 0.313D+00 0.727D+00
 Coeff:     -0.398D-01 0.313D+00 0.727D+00
 Gap=     0.377 Goal=   None    Shift=    0.000
 RMSDP=2.07D-07 MaxDP=1.35D-06 DE=-3.34D-11 OVMax= 0.00D+00

 Cycle   9  Pass 1  IDiag  1:
 E= -185.970520444605     Delta-E=       -0.000000000010 Rises=F Damp=F
 DIIS: error= 2.28D-08 at cycle   4 NSaved=   4.
 NSaved= 4 IEnMin= 4 EnMin= -185.970520444605     IErMin= 4 ErrMin= 2.28D-08
 ErrMax= 2.28D-08  0.00D+00 EMaxC= 1.00D-01 BMatC= 9.44D-15 BMatP= 8.69D-12
 IDIUse=1 WtCom= 1.00D+00 WtEn= 0.00D+00
 Coeff-Com:  0.673D-03-0.259D-01-0.244D-01 0.105D+01
 Coeff:      0.673D-03-0.259D-01-0.244D-01 0.105D+01
 Gap=     0.377 Goal=   None    Shift=    0.000
 RMSDP=8.12D-09 MaxDP=5.86D-08 DE=-1.01D-11 OVMax= 0.00D+00

 SCF Done:  E(RB3LYP) =  -185.970520445     A.U. after    9 cycles
            NFock=  9  Conv=0.81D-08     -V/T= 2.0161
 KE= 1.830219104443D+02 PE=-5.526917456416D+02 EE= 1.257653251080D+02
 Leave Link  502 at Wed Jul  1 22:03:22 2026, MaxMem=  4026531840 cpu:         8.8
 (Enter /home/p20190052/g09/l601.exe)
 Copying SCF densities to generalized density rwf, IOpCl= 0 IROHF=0.

 **********************************************************************

            Population analysis using the SCF density.

 **********************************************************************

 Orbital symmetries:
       Occupied  (SGU) (SGG) (SGG) (SGG) (SGU) (SGG) (PIU) (PIU)
                 (SGU) (PIG) (PIG)
       Virtual   (PIU) (PIU) (SGG) (SGU)
 The electronic state is 1-SGG.
 Alpha  occ. eigenvalues --  -18.99176 -18.99147 -10.18160  -1.10385  -1.05407
 Alpha  occ. eigenvalues --   -0.45422  -0.43802  -0.43802  -0.38651  -0.24225
 Alpha  occ. eigenvalues --   -0.24225
 Alpha virt. eigenvalues --    0.13476   0.13476   0.29169   0.99725
          Condensed to atoms (all electrons):
               1          2          3
     1  C    4.764873   0.453871   0.453871
     2  O    0.453871   7.718106  -0.008285
     3  O    0.453871  -0.008285   7.718106
 Mulliken charges:
               1
     1  C    0.327385
     2  O   -0.163692
     3  O   -0.163692
 Sum of Mulliken charges =   0.00000
 Mulliken charges with hydrogens summed into heavy atoms:
               1
     1  C    0.327385
     2  O   -0.163692
     3  O   -0.163692
 Electronic spatial extent (au):  <R**2>=            110.3641
 Charge=              0.0000 electrons
 Dipole moment (field-independent basis, Debye):
    X=             -0.0000    Y=              0.0000    Z=             -0.0000  Tot=              0.0000
 Quadrupole moment (field-independent basis, Debye-Ang):
   XX=            -13.1755   YY=            -13.1755   ZZ=            -17.0400
   XY=             -0.0000   XZ=              0.0000   YZ=             -0.0000
 Traceless Quadrupole moment (field-independent basis, Debye-Ang):
   XX=              1.2882   YY=              1.2882   ZZ=             -2.5763
   XY=             -0.0000   XZ=              0.0000   YZ=             -0.0000
 Octapole moment (field-independent basis, Debye-Ang**2):
  XXX=             -0.0000  YYY=              0.0000  ZZZ=             -0.0000  XYY=             -0.0000
  XXY=              0.0000  XXZ=             -0.0000  XZZ=             -0.0000  YZZ=              0.0000
  YYZ=             -0.0000  XYZ=             -0.0000
 Hexadecapole moment (field-independent basis, Debye-Ang**3):
 XXXX=             -7.5828 YYYY=             -7.5828 ZZZZ=            -86.4226 XXXY=             -0.0000
 XXXZ=              0.0000 YYYX=             -0.0000 YYYZ=             -0.0000 ZZZX=              0.0000
 ZZZY=             -0.0000 XXYY=             -2.5276 XXZZ=            -14.5497 YYZZ=            -14.5497
 XXYZ=             -0.0000 YYXZ=              0.0000 ZZXY=             -0.0000
 N-N= 5.793398964475D+01 E-N=-5.526917457638D+02  KE= 1.830219104443D+02
 Symmetry AG   KE= 9.898584687028D+01
 Symmetry B1G  KE= 0.000000000000D+00
 Symmetry B2G  KE= 5.090787966020D+00
 Symmetry B3G  KE= 5.090787966020D+00
 Symmetry AU   KE= 0.000000000000D+00
 Symmetry B1U  KE= 6.729205870988D+01
 Symmetry B2U  KE= 3.281214466049D+00
 Symmetry B3U  KE= 3.281214466049D+00
 No NMR shielding tensors so no spin-rotation constants.
 Leave Link  601 at Wed Jul  1 22:03:22 2026, MaxMem=  4026531840 cpu:        15.4
 (Enter /home/p20190052/g09/l701.exe)
 Compute integral first derivatives.
 ... and contract with generalized density number  0.
 Leave Link  701 at Wed Jul  1 22:03:22 2026, MaxMem=  4026531840 cpu:        11.0
 (Enter /home/p20190052/g09/l702.exe)
 L702 exits ... SP integral derivatives will be done elsewhere.
 Leave Link  702 at Wed Jul  1 22:03:22 2026, MaxMem=  4026531840 cpu:         0.7
 (Enter /home/p20190052/g09/l703.exe)
 Compute integral first derivatives, UseDBF=F ICtDFT=           0.
 Integral derivatives from FoFJK, PRISM(SPDF).
 Calling FoFJK, ICntrl=      2127 FMM=F ISym2X=1 I1Cent= 0 IOpClX= 0 NMat=1 NMatS=1 NMatT=0.
 FoFJK:  IHMeth= 1 ICntrl=    2127 DoSepK=F KAlg= 0 I1Cent=   0 FoldK=F
 IRaf=         0 NMat=   1 IRICut=       1 DoRegI=T DoRafI=F ISym2E= 1.
 FoFCou: FMM=F IPFlag=           0 FMFlag=      100000 FMFlg1=         800
         NFxFlg=           0 DoJE=F BraDBF=F KetDBF=F FulRan=T
         wScrn=  0.000000 ICntrl=    2127 IOpCl=  0 I1Cent=           0 NGrid=           0
         NMat0=    1 NMatS0=      1 NMatT0=    0 NMatD0=    1 NMtDS0=    0 NMtDT0=    0
 Petite list used in FoFCou.
 Leave Link  703 at Wed Jul  1 22:03:23 2026, MaxMem=  4026531840 cpu:         7.4
 (Enter /home/p20190052/g09/l716.exe)
 Dipole        =-2.37507021D-16 2.54471808D-17 0.00000000D+00
 ***** Axes restored to original set *****
 -------------------------------------------------------------------
 Center     Atomic                   Forces (Hartrees/Bohr)
 Number     Number              X              Y              Z
 -------------------------------------------------------------------
      1        6           0.000000000    0.000000000   -0.000000000
      2        8           0.061291523   -0.014086938    0.113612280
      3        8          -0.061291523    0.014086938   -0.113612280
 -------------------------------------------------------------------
 Cartesian Forces:  Max     0.113612280 RMS     0.061215181
 Leave Link  716 at Wed Jul  1 22:03:23 2026, MaxMem=  4026531840 cpu:         0.9
 (Enter /home/p20190052/g09/l103.exe)

 GradGradGradGradGradGradGradGradGradGradGradGradGradGradGradGradGradGrad
 Berny optimization.
 FormGI is forming the generalized inverse of G from B-inverse, IUseBI=4.
 Internal  Forces:  Max     0.129857009 RMS     0.091822772
 Search for a local minimum.
 Step number   1 out of a maximum of   20
 All quantities printed in internal units (Hartrees-Bohrs-Radians)
 RMS Force = .91823D-01 SwitMx=.10000D-02 MixMth= 1
 Mixed Optimization -- RFO/linear search
 Second derivative matrix not updated -- first step.
 The second derivative matrix:
                          R1        R2        A1        A2
           R1           1.21976
           R2           0.00000   1.21976
           A1           0.00000   0.00000   0.04745
           A2           0.00000   0.00000   0.00000   0.04745
 ITU=  0
     Eigenvalues ---    0.04745   0.04745   1.21976   1.21976
 RFO step:  Lambda=-2.70496219D-02 EMin= 4.74521868D-02
 Linear search not attempted -- first point.
 Iteration  1 RMS(Cart)=  0.07364566 RMS(Int)=  0.00003976
 Iteration  2 RMS(Cart)=  0.00003332 RMS(Int)=  0.00000001
 Iteration  3 RMS(Cart)=  0.00000001 RMS(Int)=  0.00000001
 ITry= 1 IFail=0 DXMaxC= 9.11D-02 DCOld= 1.00D+10 DXMaxT= 3.00D-01 DXLimC= 3.00D+00 Rises=F
 ClnCor:  largest displacement from symmetrization is 1.43D-08 for atom     1.
 Variable       Old X    -DE/DX   Delta X   Delta X   Delta X     New X
                                 (Linear)    (Quad)   (Total)
    R1        2.20941   0.12986   0.00000   0.10415   0.10415   2.31356
    R2        2.20941   0.12986   0.00000   0.10415   0.10415   2.31356
    A1        3.14159  -0.00000   0.00000  -0.00000   0.00000   3.14159
    A2        3.14159  -0.00000   0.00000  -0.00000   0.00000   3.14159
         Item               Value     Threshold  Converged?
 Maximum Force            0.129857     0.000450     NO 
 RMS     Force            0.091823     0.000300     NO 
 Maximum Displacement     0.091123     0.001800     NO 
 RMS     Displacement     0.073646     0.001200     NO 
 Predicted change in Energy=-1.381824D-02
 Lowest energy point so far.  Saving SCF results.
 GradGradGradGradGradGradGradGradGradGradGradGradGradGradGradGradGradGrad

 Leave Link  103 at Wed Jul  1 22:03:23 2026, MaxMem=  4026531840 cpu:         5.5
 (Enter /home/p20190052/g09/l202.exe)
                          Input orientation:                          
 ---------------------------------------------------------------------
 Center     Atomic      Atomic             Coordinates (Angstroms)
 Number     Number       Type             X           Y           Z
 ---------------------------------------------------------------------
      1          6           0       -0.411850    0.488044   -1.620285
      2          8           0        0.166003    0.355233   -0.549154
      3          8           0       -0.989703    0.620855   -2.691415
 ---------------------------------------------------------------------
                    Distance matrix (angstroms):
                    1          2          3
     1  C    0.000000
     2  O    1.224285   0.000000
     3  O    1.224285   2.448569   0.000000
 Stoichiometry    CO2
 Framework group  D*H[O(C),C*(O.O)]
 Deg. of freedom     1
 Full point group                 D*H     NOp   8
 RotChk:  IX=0 Diff= 1.69D-16
 Largest Abelian subgroup         D2H     NOp   8
 Largest concise Abelian subgroup C2      NOp   2
                         Standard orientation:                         
 ---------------------------------------------------------------------
 Center     Atomic      Atomic             Coordinates (Angstroms)
 Number     Number       Type             X           Y           Z
 ---------------------------------------------------------------------
      1          6           0        0.000000    0.000000    0.000000
      2          8           0       -0.000000    0.000000    1.224285
      3          8           0        0.000000    0.000000   -1.224285
 ---------------------------------------------------------------------
 Rotational constants (GHZ):      0.0000000     10.5399965     10.5399965
 Leave Link  202 at Wed Jul  1 22:03:23 2026, MaxMem=  4026531840 cpu:         1.1
 (Enter /home/p20190052/g09/l301.exe)
 Standard basis: STO-3G (5D, 7F)
 Ernie: Thresh=  0.10000D-02 Tol=  0.10000D-05 Strict=F.
 There are     5 symmetry adapted cartesian basis functions of AG  symmetry.
 There are     0 symmetry adapted cartesian basis functions of B1G symmetry.
 There are     1 symmetry adapted cartesian basis functions of B2G symmetry.
 There are     1 symmetry adapted cartesian basis functions of B3G symmetry.
 There are     0 symmetry adapted cartesian basis functions of AU  symmetry.
 There are     4 symmetry adapted cartesian basis functions of B1U symmetry.
 There are     2 symmetry adapted cartesian basis functions of B2U symmetry.
 There are     2 symmetry adapted cartesian basis functions of B3U symmetry.
 There are     5 symmetry adapted basis functions of AG  symmetry.
 There are     0 symmetry adapted basis functions of B1G symmetry.
 There are     1 symmetry adapted basis functions of B2G symmetry.
 There are     1 symmetry adapted basis functions of B3G symmetry.
 There are     0 symmetry adapted basis functions of AU  symmetry.
 There are     4 symmetry adapted basis functions of B1U symmetry.
 There are     2 symmetry adapted basis functions of B2U symmetry.
 There are     2 symmetry adapted basis functions of B3U symmetry.
    15 basis functions,    45 primitive gaussians,    15 cartesian basis functions
    11 alpha electrons       11 beta electrons
       nuclear repulsion energy        55.3259266803 Hartrees.
 IExCor=  402 DFT=T Ex+Corr=B3LYP ExCW=0 ScaHFX=  0.200000
 ScaDFX=  0.800000  0.720000  1.000000  0.810000 ScalE2=  1.000000  1.000000
 IRadAn=      0 IRanWt=     -1 IRanGd=            0 ICorTp=0 IEmpDi=  4
 NAtoms=    3 NActive=    3 NUniq=    2 SFac= 2.25D+00 NAtFMM=   60 NAOKFM=F Big=F
 Integral buffers will be    131072 words long.
 Raffenetti 2 integral format.
 Two-electron integral symmetry is turned on.
 Leave Link  301 at Wed Jul  1 22:03:23 2026, MaxMem=  4026531840 cpu:         2.0
 (Enter /home/p20190052/g09/l302.exe)
 NPDir=0 NMtPBC=     1 NCelOv=     1 NCel=       1 NClECP=     1 NCelD=      1
         NCelK=      1 NCelE2=     1 NClLst=     1 CellRange=     0.0.
 One-electron integrals computed using PRISM.
 One-electron integral symmetry used in STVInt
 NBasis=    15 RedAO= T EigKep=  3.94D-01  NBF=     5     0     1     1     0     4     2     2
 NBsUse=    15 1.00D-06 EigRej= -1.00D+00 NBFU=     5     0     1     1     0     4     2     2
 Precomputing XC quadrature grid using
 IXCGrd= 4 IRadAn=           0 IRanWt=          -1 IRanGd=           0 AccXCQ= 0.00D+00.
 Generated NRdTot=       0 NPtTot=           0 NUsed=           0 NTot=          32
 NSgBfM=    15    15    15    15    15 MxSgAt=     3 MxSgA2=     3.
 Leave Link  302 at Wed Jul  1 22:03:23 2026, MaxMem=  4026531840 cpu:        10.7
 (Enter /home/p20190052/g09/l303.exe)
 DipDrv:  MaxL=1.
 Leave Link  303 at Wed Jul  1 22:03:24 2026, MaxMem=  4026531840 cpu:         6.5
 (Enter /home/p20190052/g09/l401.exe)
 Initial guess from the checkpoint file:  "CO2_b3lyp_STO-3G.chk"
 B after Tr=    -0.000000    0.000000   -0.000000
         Rot=    1.000000   -0.000000    0.000000   -0.000000 Ang=   0.00 deg.
 Guess basis will be translated and rotated to current coordinates.
 JPrj=2 DoOrth=T DoCkMO=T.
 Initial guess orbital symmetries:
       Occupied  (SGU) (SGG) (SGG) (SGG) (SGU) (SGG) (PIU) (PIU)
                 (SGU) (PIG) (PIG)
       Virtual   (SGG) (SGU) (PIU) (PIU)
 The electronic state of the initial guess is 1-SGG.
 Generating alternative initial guess.
 ExpMin= 2.22D-01 ExpMax= 1.31D+02 ExpMxC= 1.31D+02 IAcc=1 IRadAn=         1 AccDes= 0.00D+00
 Harris functional with IExCor=  402 and IRadAn=       1 diagonalized for initial guess.
 HarFok:  IExCor=  402 AccDes= 0.00D+00 IRadAn=         1 IDoV= 1 UseB2=F ITyADJ=14
 ICtDFT=  3500011 ScaDFX=  1.000000  1.000000  1.000000  1.000000
 FoFCou: FMM=F IPFlag=           0 FMFlag=      100000 FMFlg1=           0
         NFxFlg=           0 DoJE=T BraDBF=F KetDBF=T FulRan=T
         wScrn=  0.000000 ICntrl=     500 IOpCl=  0 I1Cent=   200000004 NGrid=           0
         NMat0=    1 NMatS0=      1 NMatT0=    0 NMatD0=    1 NMtDS0=    0 NMtDT0=    0
 Petite list used in FoFCou.
 Harris En= -185.987041149248    
 Leave Link  401 at Wed Jul  1 22:03:24 2026, MaxMem=  4026531840 cpu:        13.0
 (Enter /home/p20190052/g09/l502.exe)
 Closed shell SCF:
 Using DIIS extrapolation, IDIIS=  1040.
 Integral symmetry usage will be decided dynamically.
 Keep R1 ints in memory in symmetry-blocked form, NReq=888474.
 IVT=       20951 IEndB=       20951 NGot=  4026531840 MDV=  4026508307
 LenX=  4026508307 LenY=  4026507425
 Requested convergence on RMS density matrix=1.00D-08 within 128 cycles.
 Requested convergence on MAX density matrix=1.00D-06.
 Requested convergence on             energy=1.00D-06.
 No special actions if energy rises.
 FoFCou: FMM=F IPFlag=           0 FMFlag=           0 FMFlg1=           0
         NFxFlg=           0 DoJE=F BraDBF=F KetDBF=F FulRan=T
         wScrn=  0.000000 ICntrl=     600 IOpCl=  0 I1Cent=           0 NGrid=           0
         NMat0=    1 NMatS0=    120 NMatT0=    0 NMatD0=    1 NMtDS0=    0 NMtDT0=    0
 Petite list used in FoFCou.
 Integral accuracy reduced to 1.0D-05 until final iterations.

 Cycle   1  Pass 0  IDiag  1:
 E= -185.981670479674    
 DIIS: error= 1.15D-02 at cycle   1 NSaved=   1.
 NSaved= 1 IEnMin= 1 EnMin= -185.981670479674     IErMin= 1 ErrMin= 1.15D-02
 ErrMax= 1.15D-02  0.00D+00 EMaxC= 1.00D-01 BMatC= 1.97D-03 BMatP= 1.97D-03
 IDIUse=3 WtCom= 8.85D-01 WtEn= 1.15D-01
 Coeff-Com:  0.100D+01
 Coeff-En:   0.100D+01
 Coeff:      0.100D+01
 Recover alternate guess density for next cycle.
 RMSDP=1.48D-02 MaxDP=9.25D-02              OVMax= 0.00D+00

 Cycle   2  Pass 0  IDiag  1:
 E= -185.927212031044     Delta-E=        0.054458448631 Rises=F Damp=F
 Switch densities from cycles 1 and 2 for lowest energy.
 DIIS: error= 5.80D-02 at cycle   2 NSaved=   2.
 NSaved= 2 IEnMin= 1 EnMin= -185.981670479674     IErMin= 1 ErrMin= 1.15D-02
 ErrMax= 5.80D-02  0.00D+00 EMaxC= 1.00D+00 BMatC= 4.97D-02 BMatP= 1.97D-03
 IDIUse=1 WtCom= 1.00D+00 WtEn= 0.00D+00
 Coeff-Com:  0.101D+01-0.133D-01
 Coeff:      0.101D+01-0.133D-01
 Gap=     0.338 Goal=   None    Shift=    0.000
 RMSDP=5.79D-03 MaxDP=5.16D-02 DE= 5.45D-02 OVMax= 0.00D+00

 Cycle   3  Pass 0  IDiag  1:
 E= -185.983814979223     Delta-E=       -0.056602948180 Rises=F Damp=F
 DIIS: error= 2.61D-03 at cycle   3 NSaved=   3.
 NSaved= 3 IEnMin= 3 EnMin= -185.983814979223     IErMin= 3 ErrMin= 2.61D-03
 ErrMax= 2.61D-03  0.00D+00 EMaxC= 1.00D+00 BMatC= 7.00D-05 BMatP= 1.97D-03
 IDIUse=1 WtCom= 1.00D+00 WtEn= 0.00D+00
 Coeff-Com: -0.575D-01 0.386D-01 0.102D+01
 Coeff:     -0.575D-01 0.386D-01 0.102D+01
 Gap=     0.340 Goal=   None    Shift=    0.000
 RMSDP=7.23D-04 MaxDP=5.17D-03 DE=-5.66D-02 OVMax= 0.00D+00

 Cycle   4  Pass 0  IDiag  1:
 E= -185.983914055976     Delta-E=       -0.000099076752 Rises=F Damp=F
 DIIS: error= 1.98D-04 at cycle   4 NSaved=   4.
 NSaved= 4 IEnMin= 4 EnMin= -185.983914055976     IErMin= 4 ErrMin= 1.98D-04
 ErrMax= 1.98D-04  0.00D+00 EMaxC= 1.00D+00 BMatC= 7.22D-07 BMatP= 7.00D-05
 IDIUse=1 WtCom= 1.00D+00 WtEn= 0.00D+00
 Coeff-Com:  0.318D-02-0.655D-02-0.702D-01 0.107D+01
 Coeff:      0.318D-02-0.655D-02-0.702D-01 0.107D+01
 Gap=     0.339 Goal=   None    Shift=    0.000
 RMSDP=6.77D-05 MaxDP=5.71D-04 DE=-9.91D-05 OVMax= 0.00D+00

 Cycle   5  Pass 0  IDiag  1:
 E= -185.983914789407     Delta-E=       -0.000000733431 Rises=F Damp=F
 DIIS: error= 1.67D-05 at cycle   5 NSaved=   5.
 NSaved= 5 IEnMin= 5 EnMin= -185.983914789407     IErMin= 5 ErrMin= 1.67D-05
 ErrMax= 1.67D-05  0.00D+00 EMaxC= 1.00D+00 BMatC= 5.54D-09 BMatP= 7.22D-07
 IDIUse=1 WtCom= 1.00D+00 WtEn= 0.00D+00
 Coeff-Com:  0.323D-03-0.196D-03-0.115D-02-0.553D-01 0.106D+01
 Coeff:      0.323D-03-0.196D-03-0.115D-02-0.553D-01 0.106D+01
 Gap=     0.339 Goal=   None    Shift=    0.000
 RMSDP=5.79D-06 MaxDP=3.42D-05 DE=-7.33D-07 OVMax= 0.00D+00

 Initial convergence to 1.0D-05 achieved.  Increase integral accuracy.
 Cycle   6  Pass 1  IDiag  1:
 E= -185.983911546685     Delta-E=        0.000003242721 Rises=F Damp=F
 DIIS: error= 1.96D-06 at cycle   1 NSaved=   1.
 NSaved= 1 IEnMin= 1 EnMin= -185.983911546685     IErMin= 1 ErrMin= 1.96D-06
 ErrMax= 1.96D-06  0.00D+00 EMaxC= 1.00D+00 BMatC= 4.30D-11 BMatP= 4.30D-11
 IDIUse=1 WtCom= 1.00D+00 WtEn= 0.00D+00
 Coeff-Com:  0.100D+01
 Coeff:      0.100D+01
 Gap=     0.339 Goal=   None    Shift=    0.000
 RMSDP=5.79D-06 MaxDP=3.42D-05 DE= 3.24D-06 OVMax= 0.00D+00

 Cycle   7  Pass 1  IDiag  1:
 E= -185.983911546611     Delta-E=        0.000000000075 Rises=F Damp=F
 DIIS: error= 2.90D-06 at cycle   2 NSaved=   2.
 NSaved= 2 IEnMin= 1 EnMin= -185.983911546685     IErMin= 1 ErrMin= 1.96D-06
 ErrMax= 2.90D-06  0.00D+00 EMaxC= 1.00D+00 BMatC= 1.28D-10 BMatP= 4.30D-11
 IDIUse=1 WtCom= 1.00D+00 WtEn= 0.00D+00
 Coeff-Com:  0.649D+00 0.351D+00
 Coeff:      0.649D+00 0.351D+00
 Gap=     0.339 Goal=   None    Shift=    0.000
 RMSDP=7.25D-07 MaxDP=4.09D-06 DE= 7.47D-11 OVMax= 0.00D+00

 Cycle   8  Pass 1  IDiag  1:
 E= -185.983911546746     Delta-E=       -0.000000000136 Rises=F Damp=F
 DIIS: error= 1.35D-07 at cycle   3 NSaved=   3.
 NSaved= 3 IEnMin= 3 EnMin= -185.983911546746     IErMin= 3 ErrMin= 1.35D-07
 ErrMax= 1.35D-07  0.00D+00 EMaxC= 1.00D+00 BMatC= 2.47D-13 BMatP= 4.30D-11
 IDIUse=1 WtCom= 1.00D+00 WtEn= 0.00D+00
 Coeff-Com: -0.294D-01-0.576D-01 0.109D+01
 Coeff:     -0.294D-01-0.576D-01 0.109D+01
 Gap=     0.339 Goal=   None    Shift=    0.000
 RMSDP=4.50D-08 MaxDP=2.87D-07 DE=-1.36D-10 OVMax= 0.00D+00

 Cycle   9  Pass 1  IDiag  1:
 E= -185.983911546747     Delta-E=       -0.000000000000 Rises=F Damp=F
 DIIS: error= 1.51D-08 at cycle   4 NSaved=   4.
 NSaved= 4 IEnMin= 4 EnMin= -185.983911546747     IErMin= 4 ErrMin= 1.51D-08
 ErrMax= 1.51D-08  0.00D+00 EMaxC= 1.00D+00 BMatC= 3.47D-15 BMatP= 2.47D-13
 IDIUse=1 WtCom= 1.00D+00 WtEn= 0.00D+00
 Coeff-Com: -0.162D-03-0.288D-02-0.625D-01 0.107D+01
 Coeff:     -0.162D-03-0.288D-02-0.625D-01 0.107D+01
 Gap=     0.339 Goal=   None    Shift=    0.000
 RMSDP=4.53D-09 MaxDP=3.54D-08 DE=-2.84D-13 OVMax= 0.00D+00

 SCF Done:  E(RB3LYP) =  -185.983911547     A.U. after    9 cycles
            NFock=  9  Conv=0.45D-08     -V/T= 2.0172
 KE= 1.828480220501D+02 PE=-5.477407954217D+02 EE= 1.235829351445D+02
 Leave Link  502 at Wed Jul  1 22:03:24 2026, MaxMem=  4026531840 cpu:         8.7
 (Enter /home/p20190052/g09/l701.exe)
 Compute integral first derivatives.
 ... and contract with generalized density number  0.
 Leave Link  701 at Wed Jul  1 22:03:25 2026, MaxMem=  4026531840 cpu:        14.9
 (Enter /home/p20190052/g09/l702.exe)
 L702 exits ... SP integral derivatives will be done elsewhere.
 Leave Link  702 at Wed Jul  1 22:03:25 2026, MaxMem=  4026531840 cpu:         0.9
 (Enter /home/p20190052/g09/l703.exe)
 Compute integral first derivatives, UseDBF=F ICtDFT=           0.
 Integral derivatives from FoFJK, PRISM(SPDF).
 Calling FoFJK, ICntrl=      2127 FMM=F ISym2X=1 I1Cent= 0 IOpClX= 0 NMat=1 NMatS=1 NMatT=0.
 FoFJK:  IHMeth= 1 ICntrl=    2127 DoSepK=F KAlg= 0 I1Cent=   0 FoldK=F
 IRaf=         0 NMat=   1 IRICut=       1 DoRegI=T DoRafI=F ISym2E= 1.
 FoFCou: FMM=F IPFlag=           0 FMFlag=      100000 FMFlg1=         800
         NFxFlg=           0 DoJE=F BraDBF=F KetDBF=F FulRan=T
         wScrn=  0.000000 ICntrl=    2127 IOpCl=  0 I1Cent=           0 NGrid=           0
         NMat0=    1 NMatS0=      1 NMatT0=    0 NMatD0=    1 NMtDS0=    0 NMtDT0=    0
 Petite list used in FoFCou.
 Leave Link  703 at Wed Jul  1 22:03:25 2026, MaxMem=  4026531840 cpu:         5.7
 (Enter /home/p20190052/g09/l716.exe)
 Dipole        =-1.52363470D-16-3.04726941D-17 0.00000000D+00
 ***** Axes restored to original set *****
 -------------------------------------------------------------------
 Center     Atomic                   Forces (Hartrees/Bohr)
 Number     Number              X              Y              Z
 -------------------------------------------------------------------
      1        6          -0.000000000    0.000000000   -0.000000000
      2        8           0.002760732   -0.000634513    0.005117397
      3        8          -0.002760732    0.000634513   -0.005117397
 -------------------------------------------------------------------
 Cartesian Forces:  Max     0.005117397 RMS     0.002757294
 Leave Link  716 at Wed Jul  1 22:03:25 2026, MaxMem=  4026531840 cpu:         0.8
 (Enter /home/p20190052/g09/l103.exe)

 GradGradGradGradGradGradGradGradGradGradGradGradGradGradGradGradGradGrad
 Berny optimization.
 Using GEDIIS/GDIIS optimizer.
 Red2BG is reusing G-inverse.
 Internal  Forces:  Max     0.005849103 RMS     0.004135940
 Search for a local minimum.
 Step number   2 out of a maximum of   20
 All quantities printed in internal units (Hartrees-Bohrs-Radians)
 RMS Force = .41359D-02 SwitMx=.10000D-02 MixMth= 1
 Mixed Optimization -- RFO/linear search
 Update second derivatives using D2CorX and points    1    2
 DE= -1.34D-02 DEPred=-1.38D-02 R= 9.69D-01
 TightC=F SS=  1.41D+00  RLast= 1.47D-01 DXNew= 5.0454D-01 4.4188D-01
 Trust test= 9.69D-01 RLast= 1.47D-01 DXMaxT set to 4.42D-01
 The second derivative matrix:
                          R1        R2        A1        A2
           R1           1.20520
           R2          -0.01455   1.20520
           A1          -0.00000  -0.00000   0.04745
           A2          -0.00000  -0.00000   0.00000   0.04745
 ITU=  1  0
 Use linear search instead of GDIIS.
     Eigenvalues ---    0.04745   0.04745   1.19065   1.21976
 RFO step:  Lambda= 0.00000000D+00 EMin= 4.74521868D-02
 Quartic linear search produced a step of  0.05728.
 Iteration  1 RMS(Cart)=  0.00421862 RMS(Int)=  0.00000001
 Iteration  2 RMS(Cart)=  0.00000001 RMS(Int)=  0.00000001
 ITry= 1 IFail=0 DXMaxC= 5.22D-03 DCOld= 1.00D+10 DXMaxT= 4.42D-01 DXLimC= 3.00D+00 Rises=F
 ClnCor:  largest displacement from symmetrization is 1.44D-08 for atom     1.
 Variable       Old X    -DE/DX   Delta X   Delta X   Delta X     New X
                                 (Linear)    (Quad)   (Total)
    R1        2.31356   0.00585   0.00597   0.00000   0.00597   2.31953
    R2        2.31356   0.00585   0.00597  -0.00000   0.00597   2.31953
    A1        3.14159  -0.00000   0.00000  -0.00000   0.00000   3.14159
    A2        3.14159   0.00000   0.00000   0.00000   0.00000   3.14159
         Item               Value     Threshold  Converged?
 Maximum Force            0.005849     0.000450     NO 
 RMS     Force            0.004136     0.000300     NO 
 Maximum Displacement     0.005220     0.001800     NO 
 RMS     Displacement     0.004219     0.001200     NO 
 Predicted change in Energy=-2.741250D-05
 Lowest energy point so far.  Saving SCF results.
 GradGradGradGradGradGradGradGradGradGradGradGradGradGradGradGradGradGrad

 Leave Link  103 at Wed Jul  1 22:03:25 2026, MaxMem=  4026531840 cpu:         6.9
 (Enter /home/p20190052/g09/l202.exe)
                          Input orientation:                          
 ---------------------------------------------------------------------
 Center     Atomic      Atomic             Coordinates (Angstroms)
 Number     Number       Type             X           Y           Z
 ---------------------------------------------------------------------
      1          6           0       -0.411850    0.488044   -1.620285
      2          8           0        0.167493    0.354891   -0.546392
      3          8           0       -0.991193    0.621197   -2.694177
 ---------------------------------------------------------------------
                    Distance matrix (angstroms):
                    1          2          3
     1  C    0.000000
     2  O    1.227442   0.000000
     3  O    1.227442   2.454883   0.000000
 Stoichiometry    CO2
 Framework group  D*H[O(C),C*(O.O)]
 Deg. of freedom     1
 Full point group                 D*H     NOp   8
 RotChk:  IX=0 Diff= 3.07D-16
 Largest Abelian subgroup         D2H     NOp   8
 Largest concise Abelian subgroup C2      NOp   2
                         Standard orientation:                         
 ---------------------------------------------------------------------
 Center     Atomic      Atomic             Coordinates (Angstroms)
 Number     Number       Type             X           Y           Z
 ---------------------------------------------------------------------
      1          6           0        0.000000    0.000000    0.000000
      2          8           0       -0.000000    0.000000    1.227442
      3          8           0        0.000000    0.000000   -1.227442
 ---------------------------------------------------------------------
 Rotational constants (GHZ):      0.0000000     10.4858467     10.4858467
 Leave Link  202 at Wed Jul  1 22:03:25 2026, MaxMem=  4026531840 cpu:         0.3
 (Enter /home/p20190052/g09/l301.exe)
 Standard basis: STO-3G (5D, 7F)
 Ernie: Thresh=  0.10000D-02 Tol=  0.10000D-05 Strict=F.
 There are     5 symmetry adapted cartesian basis functions of AG  symmetry.
 There are     0 symmetry adapted cartesian basis functions of B1G symmetry.
 There are     1 symmetry adapted cartesian basis functions of B2G symmetry.
 There are     1 symmetry adapted cartesian basis functions of B3G symmetry.
 There are     0 symmetry adapted cartesian basis functions of AU  symmetry.
 There are     4 symmetry adapted cartesian basis functions of B1U symmetry.
 There are     2 symmetry adapted cartesian basis functions of B2U symmetry.
 There are     2 symmetry adapted cartesian basis functions of B3U symmetry.
 There are     5 symmetry adapted basis functions of AG  symmetry.
 There are     0 symmetry adapted basis functions of B1G symmetry.
 There are     1 symmetry adapted basis functions of B2G symmetry.
 There are     1 symmetry adapted basis functions of B3G symmetry.
 There are     0 symmetry adapted basis functions of AU  symmetry.
 There are     4 symmetry adapted basis functions of B1U symmetry.
 There are     2 symmetry adapted basis functions of B2U symmetry.
 There are     2 symmetry adapted basis functions of B3U symmetry.
    15 basis functions,    45 primitive gaussians,    15 cartesian basis functions
    11 alpha electrons       11 beta electrons
       nuclear repulsion energy        55.1836236573 Hartrees.
 IExCor=  402 DFT=T Ex+Corr=B3LYP ExCW=0 ScaHFX=  0.200000
 ScaDFX=  0.800000  0.720000  1.000000  0.810000 ScalE2=  1.000000  1.000000
 IRadAn=      0 IRanWt=     -1 IRanGd=            0 ICorTp=0 IEmpDi=  4
 NAtoms=    3 NActive=    3 NUniq=    2 SFac= 2.25D+00 NAtFMM=   60 NAOKFM=F Big=F
 Integral buffers will be    131072 words long.
 Raffenetti 2 integral format.
 Two-electron integral symmetry is turned on.
 Leave Link  301 at Wed Jul  1 22:03:25 2026, MaxMem=  4026531840 cpu:         2.0
 (Enter /home/p20190052/g09/l302.exe)
 NPDir=0 NMtPBC=     1 NCelOv=     1 NCel=       1 NClECP=     1 NCelD=      1
         NCelK=      1 NCelE2=     1 NClLst=     1 CellRange=     0.0.
 One-electron integrals computed using PRISM.
 One-electron integral symmetry used in STVInt
 NBasis=    15 RedAO= T EigKep=  3.98D-01  NBF=     5     0     1     1     0     4     2     2
 NBsUse=    15 1.00D-06 EigRej= -1.00D+00 NBFU=     5     0     1     1     0     4     2     2
 Precomputing XC quadrature grid using
 IXCGrd= 4 IRadAn=           0 IRanWt=          -1 IRanGd=           0 AccXCQ= 0.00D+00.
 Generated NRdTot=       0 NPtTot=           0 NUsed=           0 NTot=          32
 NSgBfM=    15    15    15    15    15 MxSgAt=     3 MxSgA2=     3.
 Leave Link  302 at Wed Jul  1 22:03:26 2026, MaxMem=  4026531840 cpu:        11.3
 (Enter /home/p20190052/g09/l303.exe)
 DipDrv:  MaxL=1.
 Leave Link  303 at Wed Jul  1 22:03:26 2026, MaxMem=  4026531840 cpu:         1.1
 (Enter /home/p20190052/g09/l401.exe)
 Initial guess from the checkpoint file:  "CO2_b3lyp_STO-3G.chk"
 B after Tr=     0.000000   -0.000000    0.000000
         Rot=    1.000000    0.000000    0.000000   -0.000000 Ang=   0.00 deg.
 Guess basis will be translated and rotated to current coordinates.
 JPrj=2 DoOrth=T DoCkMO=T.
 Initial guess orbital symmetries:
       Occupied  (SGU) (SGG) (SGG) (SGG) (SGU) (SGG) (PIU) (PIU)
                 (SGU) (PIG) (PIG)
       Virtual   (SGG) (SGU) (PIU) (PIU)
 The electronic state of the initial guess is 1-SGG.
 Leave Link  401 at Wed Jul  1 22:03:26 2026, MaxMem=  4026531840 cpu:         4.1
 (Enter /home/p20190052/g09/l502.exe)
 Closed shell SCF:
 Using DIIS extrapolation, IDIIS=  1040.
 Integral symmetry usage will be decided dynamically.
 Keep R1 ints in memory in symmetry-blocked form, NReq=888474.
 IVT=       20951 IEndB=       20951 NGot=  4026531840 MDV=  4026508307
 LenX=  4026508307 LenY=  4026507425
 Requested convergence on RMS density matrix=1.00D-08 within 128 cycles.
 Requested convergence on MAX density matrix=1.00D-06.
 Requested convergence on             energy=1.00D-06.
 No special actions if energy rises.
 FoFCou: FMM=F IPFlag=           0 FMFlag=           0 FMFlg1=           0
         NFxFlg=           0 DoJE=F BraDBF=F KetDBF=F FulRan=T
         wScrn=  0.000000 ICntrl=     600 IOpCl=  0 I1Cent=           0 NGrid=           0
         NMat0=    1 NMatS0=    120 NMatT0=    0 NMatD0=    1 NMtDS0=    0 NMtDT0=    0
 Petite list used in FoFCou.

 Cycle   1  Pass 1  IDiag  1:
 E= -185.983939526337    
 DIIS: error= 6.11D-04 at cycle   1 NSaved=   1.
 NSaved= 1 IEnMin= 1 EnMin= -185.983939526337     IErMin= 1 ErrMin= 6.11D-04
 ErrMax= 6.11D-04  0.00D+00 EMaxC= 1.00D-01 BMatC= 5.50D-06 BMatP= 5.50D-06
 IDIUse=3 WtCom= 9.94D-01 WtEn= 6.11D-03
 Coeff-Com:  0.100D+01
 Coeff-En:   0.100D+01
 Coeff:      0.100D+01
 Gap=     0.337 Goal=   None    Shift=    0.000
 RMSDP=3.27D-04 MaxDP=2.94D-03              OVMax= 0.00D+00

 Cycle   2  Pass 1  IDiag  1:
 E= -185.983945646146     Delta-E=       -0.000006119809 Rises=F Damp=F
 DIIS: error= 1.88D-04 at cycle   2 NSaved=   2.
 NSaved= 2 IEnMin= 2 EnMin= -185.983945646146     IErMin= 2 ErrMin= 1.88D-04
 ErrMax= 1.88D-04  0.00D+00 EMaxC= 1.00D-01 BMatC= 3.87D-07 BMatP= 5.50D-06
 IDIUse=3 WtCom= 9.98D-01 WtEn= 1.88D-03
 Coeff-Com:  0.651D-01 0.935D+00
 Coeff-En:   0.000D+00 0.100D+01
 Coeff:      0.650D-01 0.935D+00
 Gap=     0.338 Goal=   None    Shift=    0.000
 RMSDP=1.06D-04 MaxDP=7.09D-04 DE=-6.12D-06 OVMax= 0.00D+00

 Cycle   3  Pass 1  IDiag  1:
 E= -185.983945048337     Delta-E=        0.000000597809 Rises=F Damp=F
 DIIS: error= 2.60D-04 at cycle   3 NSaved=   3.
 NSaved= 3 IEnMin= 2 EnMin= -185.983945646146     IErMin= 2 ErrMin= 1.88D-04
 ErrMax= 2.60D-04  0.00D+00 EMaxC= 1.00D-01 BMatC= 1.04D-06 BMatP= 3.87D-07
 IDIUse=3 WtCom= 3.83D-01 WtEn= 6.17D-01
 Coeff-Com: -0.308D-01 0.637D+00 0.394D+00
 Coeff-En:   0.000D+00 0.660D+00 0.340D+00
 Coeff:     -0.118D-01 0.651D+00 0.360D+00
 Gap=     0.337 Goal=   None    Shift=    0.000
 RMSDP=6.14D-05 MaxDP=3.38D-04 DE= 5.98D-07 OVMax= 0.00D+00

 Cycle   4  Pass 1  IDiag  1:
 E= -185.983946139073     Delta-E=       -0.000001090736 Rises=F Damp=F
 DIIS: error= 2.42D-05 at cycle   4 NSaved=   4.
 NSaved= 4 IEnMin= 4 EnMin= -185.983946139073     IErMin= 4 ErrMin= 2.42D-05
 ErrMax= 2.42D-05  0.00D+00 EMaxC= 1.00D-01 BMatC= 1.07D-08 BMatP= 3.87D-07
 IDIUse=1 WtCom= 1.00D+00 WtEn= 0.00D+00
 Coeff-Com:  0.186D-02-0.753D-01-0.171D+00 0.124D+01
 Coeff:      0.186D-02-0.753D-01-0.171D+00 0.124D+01
 Gap=     0.337 Goal=   None    Shift=    0.000
 RMSDP=7.56D-06 MaxDP=5.27D-05 DE=-1.09D-06 OVMax= 0.00D+00

 Cycle   5  Pass 1  IDiag  1:
 E= -185.983946150041     Delta-E=       -0.000000010968 Rises=F Damp=F
 DIIS: error= 2.33D-07 at cycle   5 NSaved=   5.
 NSaved= 5 IEnMin= 5 EnMin= -185.983946150041     IErMin= 5 ErrMin= 2.33D-07
 ErrMax= 2.33D-07  0.00D+00 EMaxC= 1.00D-01 BMatC= 6.55D-13 BMatP= 1.07D-08
 IDIUse=1 WtCom= 1.00D+00 WtEn= 0.00D+00
 Coeff-Com: -0.380D-04 0.177D-02 0.449D-02-0.418D-01 0.104D+01
 Coeff:     -0.380D-04 0.177D-02 0.449D-02-0.418D-01 0.104D+01
 Gap=     0.337 Goal=   None    Shift=    0.000
 RMSDP=5.05D-08 MaxDP=3.30D-07 DE=-1.10D-08 OVMax= 0.00D+00

 Cycle   6  Pass 1  IDiag  1:
 E= -185.983946150041     Delta-E=       -0.000000000000 Rises=F Damp=F
 DIIS: error= 1.23D-08 at cycle   6 NSaved=   6.
 NSaved= 6 IEnMin= 6 EnMin= -185.983946150041     IErMin= 6 ErrMin= 1.23D-08
 ErrMax= 1.23D-08  0.00D+00 EMaxC= 1.00D-01 BMatC= 2.20D-15 BMatP= 6.55D-13
 IDIUse=1 WtCom= 1.00D+00 WtEn= 0.00D+00
 Coeff-Com: -0.276D-05 0.224D-03 0.444D-03-0.374D-02 0.304D-01 0.973D+00
 Coeff:     -0.276D-05 0.224D-03 0.444D-03-0.374D-02 0.304D-01 0.973D+00
 Gap=     0.337 Goal=   None    Shift=    0.000
 RMSDP=3.33D-09 MaxDP=1.88D-08 DE=-4.55D-13 OVMax= 0.00D+00

 SCF Done:  E(RB3LYP) =  -185.983946150     A.U. after    6 cycles
            NFock=  6  Conv=0.33D-08     -V/T= 2.0172
 KE= 1.828405019216D+02 PE=-5.474710851181D+02 EE= 1.234630133891D+02
 Leave Link  502 at Wed Jul  1 22:03:26 2026, MaxMem=  4026531840 cpu:         7.0
 (Enter /home/p20190052/g09/l701.exe)
 Compute integral first derivatives.
 ... and contract with generalized density number  0.
 Leave Link  701 at Wed Jul  1 22:03:27 2026, MaxMem=  4026531840 cpu:        14.6
 (Enter /home/p20190052/g09/l702.exe)
 L702 exits ... SP integral derivatives will be done elsewhere.
 Leave Link  702 at Wed Jul  1 22:03:27 2026, MaxMem=  4026531840 cpu:         0.7
 (Enter /home/p20190052/g09/l703.exe)
 Compute integral first derivatives, UseDBF=F ICtDFT=           0.
 Integral derivatives from FoFJK, PRISM(SPDF).
 Calling FoFJK, ICntrl=      2127 FMM=F ISym2X=1 I1Cent= 0 IOpClX= 0 NMat=1 NMatS=1 NMatT=0.
 FoFJK:  IHMeth= 1 ICntrl=    2127 DoSepK=F KAlg= 0 I1Cent=   0 FoldK=F
 IRaf=         0 NMat=   1 IRICut=       1 DoRegI=T DoRafI=F ISym2E= 1.
 FoFCou: FMM=F IPFlag=           0 FMFlag=      100000 FMFlg1=         800
         NFxFlg=           0 DoJE=F BraDBF=F KetDBF=F FulRan=T
         wScrn=  0.000000 ICntrl=    2127 IOpCl=  0 I1Cent=           0 NGrid=           0
         NMat0=    1 NMatS0=      1 NMatT0=    0 NMatD0=    1 NMtDS0=    0 NMtDT0=    0
 Petite list used in FoFCou.
 Leave Link  703 at Wed Jul  1 22:03:27 2026, MaxMem=  4026531840 cpu:         8.1
 (Enter /home/p20190052/g09/l716.exe)
 Dipole        =-1.81724053D-16 2.27155067D-17 0.00000000D+00
 ***** Axes restored to original set *****
 -------------------------------------------------------------------
 Center     Atomic                   Forces (Hartrees/Bohr)
 Number     Number              X              Y              Z
 -------------------------------------------------------------------
      1        6          -0.000000000    0.000000000   -0.000000000
      2        8          -0.000013770    0.000003165   -0.000025524
      3        8           0.000013770   -0.000003165    0.000025524
 -------------------------------------------------------------------
 Cartesian Forces:  Max     0.000025524 RMS     0.000013753
 Leave Link  716 at Wed Jul  1 22:03:27 2026, MaxMem=  4026531840 cpu:         0.8
 (Enter /home/p20190052/g09/l103.exe)

 GradGradGradGradGradGradGradGradGradGradGradGradGradGradGradGradGradGrad
 Berny optimization.
 Using GEDIIS/GDIIS optimizer.
 Red2BG is reusing G-inverse.
 Internal  Forces:  Max     0.000029174 RMS     0.000020629
 Search for a local minimum.
 Step number   3 out of a maximum of   20
 All quantities printed in internal units (Hartrees-Bohrs-Radians)
 RMS Force = .20629D-04 SwitMx=.10000D-02 MixMth= 2
 Mixed Optimization -- En-DIIS/RFO-DIIS
 Update second derivatives using D2CorX and points    1    2    3
 DE= -3.46D-05 DEPred=-2.74D-05 R= 1.26D+00
 TightC=F SS=  1.41D+00  RLast= 8.44D-03 DXNew= 7.4315D-01 2.5312D-02
 Trust test= 1.26D+00 RLast= 8.44D-03 DXMaxT set to 4.42D-01
 The second derivative matrix:
                          R1        R2        A1        A2
           R1           1.10252
           R2          -0.11723   1.10252
           A1           0.00000   0.00000   0.04745
           A2           0.00000   0.00000   0.00000   0.04745
 ITU=  1  1  0
 Use linear search instead of GDIIS.
     Eigenvalues ---    0.04745   0.04745   0.98529   1.21976
 RFO step:  Lambda= 0.00000000D+00 EMin= 4.74521868D-02
 Quartic linear search produced a step of -0.00501.
 Iteration  1 RMS(Cart)=  0.00002115 RMS(Int)=  0.00000001
 Iteration  2 RMS(Cart)=  0.00000001 RMS(Int)=  0.00000001
 ITry= 1 IFail=0 DXMaxC= 2.62D-05 DCOld= 1.00D+10 DXMaxT= 4.42D-01 DXLimC= 3.00D+00 Rises=F
 ClnCor:  largest displacement from symmetrization is 1.44D-08 for atom     1.
 Variable       Old X    -DE/DX   Delta X   Delta X   Delta X     New X
                                 (Linear)    (Quad)   (Total)
    R1        2.31953  -0.00003  -0.00003   0.00000  -0.00003   2.31950
    R2        2.31953  -0.00003  -0.00003  -0.00000  -0.00003   2.31950
    A1        3.14159  -0.00000   0.00000  -0.00000   0.00000   3.14159
    A2        3.14159  -0.00000   0.00000  -0.00000   0.00000   3.14159
         Item               Value     Threshold  Converged?
 Maximum Force            0.000029     0.000450     YES
 RMS     Force            0.000021     0.000300     YES
 Maximum Displacement     0.000026     0.001800     YES
 RMS     Displacement     0.000021     0.001200     YES
 Predicted change in Energy=-8.637251D-10
 Optimization completed.
    -- Stationary point found.
                           ----------------------------
                           !   Optimized Parameters   !
                           ! (Angstroms and Degrees)  !
 --------------------------                            --------------------------
 ! Name  Definition              Value          Derivative Info.                !
 --------------------------------------------------------------------------------
 ! R1    R(1,2)                  1.2274         -DE/DX =    0.0                 !
 ! R2    R(1,3)                  1.2274         -DE/DX =    0.0                 !
 ! A1    L(2,1,3,-2,-1)        180.0            -DE/DX =    0.0                 !
 ! A2    L(2,1,3,-1,-2)        180.0            -DE/DX =    0.0                 !
 --------------------------------------------------------------------------------
 Lowest energy point so far.  Saving SCF results.
 GradGradGradGradGradGradGradGradGradGradGradGradGradGradGradGradGradGrad

 Largest change from initial coordinates is atom    3       0.058 Angstoms.
 Leave Link  103 at Wed Jul  1 22:03:27 2026, MaxMem=  4026531840 cpu:         6.8
 (Enter /home/p20190052/g09/l202.exe)
                          Input orientation:                          
 ---------------------------------------------------------------------
 Center     Atomic      Atomic             Coordinates (Angstroms)
 Number     Number       Type             X           Y           Z
 ---------------------------------------------------------------------
      1          6           0       -0.411850    0.488044   -1.620285
      2          8           0        0.167493    0.354891   -0.546392
      3          8           0       -0.991193    0.621197   -2.694177
 ---------------------------------------------------------------------
                    Distance matrix (angstroms):
                    1          2          3
     1  C    0.000000
     2  O    1.227442   0.000000
     3  O    1.227442   2.454883   0.000000
 Stoichiometry    CO2
 Framework group  D*H[O(C),C*(O.O)]
 Deg. of freedom     1
 Full point group                 D*H     NOp   8
 RotChk:  IX=0 Diff= 9.44D-16
 Largest Abelian subgroup         D2H     NOp   8
 Largest concise Abelian subgroup C2      NOp   2
                         Standard orientation:                         
 ---------------------------------------------------------------------
 Center     Atomic      Atomic             Coordinates (Angstroms)
 Number     Number       Type             X           Y           Z
 ---------------------------------------------------------------------
      1          6           0        0.000000    0.000000    0.000000
      2          8           0       -0.000000   -0.000000    1.227442
      3          8           0        0.000000    0.000000   -1.227442
 ---------------------------------------------------------------------
 Rotational constants (GHZ):      0.0000000     10.4858467     10.4858467
 Leave Link  202 at Wed Jul  1 22:03:27 2026, MaxMem=  4026531840 cpu:         1.0
 (Enter /home/p20190052/g09/l601.exe)
 Copying SCF densities to generalized density rwf, IOpCl= 0 IROHF=0.

 **********************************************************************

            Population analysis using the SCF density.

 **********************************************************************

 Orbital symmetries:
       Occupied  (SGU) (SGG) (SGG) (SGG) (SGU) (SGG) (PIU) (PIU)
                 (SGU) (PIG) (PIG)
       Virtual   (PIU) (PIU) (SGG) (SGU)
 The electronic state is 1-SGG.
 Alpha  occ. eigenvalues --  -18.98349 -18.98318 -10.16042  -1.06390  -1.01749
 Alpha  occ. eigenvalues --   -0.46232  -0.40486  -0.40486  -0.38181  -0.23142
 Alpha  occ. eigenvalues --   -0.23142
 Alpha virt. eigenvalues --    0.10599   0.10599   0.23911   0.85453
          Condensed to atoms (all electrons):
               1          2          3
     1  C    4.865241   0.427072   0.427072
     2  O    0.427072   7.719677  -0.006442
     3  O    0.427072  -0.006442   7.719677
 Mulliken charges:
               1
     1  C    0.280614
     2  O   -0.140307
     3  O   -0.140307
 Sum of Mulliken charges =  -0.00000
 Mulliken charges with hydrogens summed into heavy atoms:
               1
     1  C    0.280614
     2  O   -0.140307
     3  O   -0.140307
 Electronic spatial extent (au):  <R**2>=            118.3435
 Charge=             -0.0000 electrons
 Dipole moment (field-independent basis, Debye):
    X=              0.0000    Y=              0.0000    Z=              0.0000  Tot=              0.0000
 Quadrupole moment (field-independent basis, Debye-Ang):
   XX=            -13.2529   YY=            -13.2529   ZZ=            -16.8852
   XY=              0.0000   XZ=              0.0000   YZ=             -0.0000
 Traceless Quadrupole moment (field-independent basis, Debye-Ang):
   XX=              1.2108   YY=              1.2108   ZZ=             -2.4215
   XY=              0.0000   XZ=              0.0000   YZ=             -0.0000
 Octapole moment (field-independent basis, Debye-Ang**2):
  XXX=             -0.0000  YYY=              0.0000  ZZZ=              0.0000  XYY=             -0.0000
  XXY=              0.0000  XXZ=              0.0000  XZZ=              0.0000  YZZ=              0.0000
  YYZ=              0.0000  XYZ=             -0.0000
 Hexadecapole moment (field-independent basis, Debye-Ang**3):
 XXXX=             -7.6567 YYYY=             -7.6567 ZZZZ=            -93.1824 XXXY=              0.0000
 XXXZ=              0.0000 YYYX=              0.0000 YYYZ=             -0.0000 ZZZX=              0.0000
 ZZZY=             -0.0000 XXYY=             -2.5522 XXZZ=            -15.8018 YYZZ=            -15.8018
 XXYZ=             -0.0000 YYXZ=              0.0000 ZZXY=              0.0000
 N-N= 5.518362365727D+01 E-N=-5.474710850740D+02  KE= 1.828405019216D+02
 Symmetry AG   KE= 9.881862885830D+01
 Symmetry B1G  KE= 0.000000000000D+00
 Symmetry B2G  KE= 5.080090310660D+00
 Symmetry B3G  KE= 5.080090310660D+00
 Symmetry AU   KE= 0.000000000000D+00
 Symmetry B1U  KE= 6.716961417527D+01
 Symmetry B2U  KE= 3.346039133374D+00
 Symmetry B3U  KE= 3.346039133374D+00
 No NMR shielding tensors so no spin-rotation constants.
 Leave Link  601 at Wed Jul  1 22:03:28 2026, MaxMem=  4026531840 cpu:        16.1
 (Enter /home/p20190052/g09/l9999.exe)
 1\1\ WCSS.PL-BEM-NODE1\FOpt\RB3LYP\STO-3G\C1O2\P20190052\01-Jul-2026\0
 \\#p opt b3lyp/sto-3g geom=connectivity\\CO2 b3lyp STO-3G\\0,1\C,-0.41
 18503,0.48804406,-1.62028451\O,0.167492886,0.35489071,-0.5463921187\O,
 -0.991193486,0.62119741,-2.6941769013\\Version=ES64L-G09RevE.01\State=
 1-SGG\HF=-185.9839462\RMSD=3.329e-09\RMSF=1.375e-05\Dipole=0.,0.,0.\Qu
 adrupole=0.2985614,0.8683976,-1.166959,0.1382724,-1.1151782,0.256307\P
 G=D*H [O(C1),C*(O1.O1)]\\@


 ... IT CAN BE VERY DIFFICULT, IN THESE COMPLEX TIMES,
 TO UNDERSTAND JUST HOW SCIENTISTS DO WHAT THEY DO.

                     DON MOSER IN THE FEBRUARY 1979 SMITHSONIAN
 Job cpu time:       0 days  0 hours  4 minutes 34.9 seconds.
 File lengths (MBytes):  RWF=      5 Int=      0 D2E=      0 Chk=      1 Scr=      1
 Normal termination of Gaussian 09 at Wed Jul  1 22:03:28 2026.
