 Entering Gaussian System, Link 0=g16
 Input=O2-B3LYP-6-31g(d).gjf
 Output=O2-B3LYP-6-31g(d).log
 Initial command:
 /home/user/gaussian16_I/g16/l1.exe "/home/user/gaussian16_I/temp/Gau-3550766.inp" -scrdir="/home/user/gaussian16_I/temp/"
 Entering Link 1 = /home/user/gaussian16_I/g16/l1.exe PID=   3550767.
  
 Copyright (c) 1988-2021, Gaussian, Inc.  All Rights Reserved.
  
 This is part of the Gaussian(R) 16 program.  It is based on
 the Gaussian(R) 09 system (copyright 2009, Gaussian, Inc.),
 the Gaussian(R) 03 system (copyright 2003, Gaussian, Inc.),
 the Gaussian(R) 98 system (copyright 1998, Gaussian, Inc.),
 the Gaussian(R) 94 system (copyright 1995, Gaussian, Inc.),
 the Gaussian 92(TM) system (copyright 1992, Gaussian, Inc.),
 the Gaussian 90(TM) system (copyright 1990, Gaussian, Inc.),
 the Gaussian 88(TM) system (copyright 1988, Gaussian, Inc.),
 the Gaussian 86(TM) system (copyright 1986, Carnegie Mellon
 University), and the Gaussian 82(TM) system (copyright 1983,
 Carnegie Mellon University). Gaussian is a federally registered
 trademark of Gaussian, Inc.
  
 This software contains proprietary and confidential information,
 including trade secrets, belonging to Gaussian, Inc.
  
 This software is provided under written license and may be
 used, copied, transmitted, or stored only in accord with that
 written license.
  
 The following legend is applicable only to US Government
 contracts under FAR:
  
                    RESTRICTED RIGHTS LEGEND
  
 Use, reproduction and disclosure by the US Government is
 subject to restrictions as set forth in subparagraphs (a)
 and (c) of the Commercial Computer Software - Restricted
 Rights clause in FAR 52.227-19.
  
 Gaussian, Inc.
 340 Quinnipiac St., Bldg. 40, Wallingford CT 06492
  
  
 ---------------------------------------------------------------
 Warning -- This program may not be used in any manner that
 competes with the business of Gaussian, Inc. or will provide
 assistance to any competitor of Gaussian, Inc.  The licensee
 of this program is prohibited from giving any competitor of
 Gaussian, Inc. access to this program.  By using this program,
 the user acknowledges that Gaussian, Inc. is engaged in the
 business of creating and licensing software in the field of
 computational chemistry and represents and warrants to the
 licensee that it is not a competitor of Gaussian, Inc. and that
 it will not use this program in any manner prohibited above.
 ---------------------------------------------------------------
  

 Cite this work as:
 Gaussian 16, Revision C.02,
 M. J. Frisch, G. W. Trucks, H. B. Schlegel, G. E. Scuseria, 
 M. A. Robb, J. R. Cheeseman, G. Scalmani, V. Barone, 
 G. A. Petersson, H. Nakatsuji, X. Li, M. Caricato, A. V. Marenich, 
 J. Bloino, B. G. Janesko, R. Gomperts, B. Mennucci, H. P. Hratchian, 
 J. V. Ortiz, A. F. Izmaylov, J. L. Sonnenberg, D. Williams-Young, 
 F. Ding, F. Lipparini, F. Egidi, J. Goings, B. Peng, A. Petrone, 
 T. Henderson, D. Ranasinghe, V. G. Zakrzewski, J. Gao, N. Rega, 
 G. Zheng, W. Liang, M. Hada, M. Ehara, K. Toyota, R. Fukuda, 
 J. Hasegawa, M. Ishida, T. Nakajima, Y. Honda, O. Kitao, H. Nakai, 
 T. Vreven, K. Throssell, J. A. Montgomery, Jr., J. E. Peralta, 
 F. Ogliaro, M. J. Bearpark, J. J. Heyd, E. N. Brothers, K. N. Kudin, 
 V. N. Staroverov, T. A. Keith, R. Kobayashi, J. Normand, 
 K. Raghavachari, A. P. Rendell, J. C. Burant, S. S. Iyengar, 
 J. Tomasi, M. Cossi, J. M. Millam, M. Klene, C. Adamo, R. Cammi, 
 J. W. Ochterski, R. L. Martin, K. Morokuma, O. Farkas, 
 J. B. Foresman, and D. J. Fox, Gaussian, Inc., Wallingford CT, 2019.
 
 ******************************************
 Gaussian 16:  ES64L-G16RevC.02  7-Dec-2021
                21-Mar-2026 
 ******************************************
 %mem=10GB
 %CPU=0-23
 SetSPE:  set environment variable "OMP_PROC_BIND" = "true"
 SetSPE:  set environment variable "OMP_PLACES" = "{0},{1},{2},{3},{4},{5},{6},{7},{8},{9},{10},{11},{12},{13},{14},{15},{16},{17},{18},{19},{20},{21},{22},{23}"
 Will use up to   24 processors via shared memory.
 %chk=O2-B3LYP-6-31g(d).chk
 ---------------------------------------------------
 # opt freq b3lyp/6-31g(d) pop=nbo geom=connectivity
 ---------------------------------------------------
 1/18=20,19=15,26=3,38=1,57=2/1,3;
 2/9=110,12=2,17=6,18=5,40=1/2;
 3/5=1,6=6,7=1,11=2,25=1,30=1,71=1,74=-5/1,2,3;
 4//1;
 5/5=2,38=5/2;
 6/7=2,8=2,9=2,10=2,28=1,40=1/1,7;
 7//1,2,3,16;
 1/18=20,19=15,26=3/3(2);
 2/9=110/2;
 99//99;
 2/9=110/2;
 3/5=1,6=6,7=1,11=2,25=1,30=1,71=1,74=-5/1,2,3;
 4/5=5,16=3,69=1/1;
 5/5=2,38=5/2;
 7//1,2,3,16;
 1/18=20,19=15,26=3/3(-5);
 2/9=110/2;
 6/7=2,8=2,9=2,10=2,19=2,28=1,40=1/1,7;
 99/9=1/99;
 -----------------
 O2-B3LYP-6-31G(D)
 -----------------
 Symbolic Z-matrix:
 Charge =  0 Multiplicity = 1
 O                     0.82265   0.10684   0. 
 O                    -0.33895   0.10684   0. 
 

 GradGradGradGradGradGradGradGradGradGradGradGradGradGradGradGradGradGrad
 Berny optimization.
 Initialization pass.
                           ----------------------------
                           !    Initial Parameters    !
                           ! (Angstroms and Degrees)  !
 --------------------------                            --------------------------
 ! Name  Definition              Value          Derivative Info.                !
 --------------------------------------------------------------------------------
 ! R1    R(1,2)                  1.1616         estimate D2E/DX2                !
 --------------------------------------------------------------------------------
 Trust Radius=3.00D-01 FncErr=1.00D-07 GrdErr=1.00D-06 EigMax=2.50D+02 EigMin=1.00D-04
 Number of steps in this run=     20 maximum allowed number of steps=    100.
 GradGradGradGradGradGradGradGradGradGradGradGradGradGradGradGradGradGrad

                          Input orientation:                          
 ---------------------------------------------------------------------
 Center     Atomic      Atomic             Coordinates (Angstroms)
 Number     Number       Type             X           Y           Z
 ---------------------------------------------------------------------
      1          8           0        0.822650    0.106838    0.000000
      2          8           0       -0.338950    0.106838    0.000000
 ---------------------------------------------------------------------
 Stoichiometry    O2
 Framework group  D*H[C*(O.O)]
 Deg. of freedom     1
 Full point group                 D*H     NOp   8
 Largest Abelian subgroup         D2H     NOp   8
 Largest concise Abelian subgroup C2      NOp   2
                         Standard orientation:                         
 ---------------------------------------------------------------------
 Center     Atomic      Atomic             Coordinates (Angstroms)
 Number     Number       Type             X           Y           Z
 ---------------------------------------------------------------------
      1          8           0        0.000000    0.000000    0.580800
      2          8           0        0.000000    0.000000   -0.580800
 ---------------------------------------------------------------------
 Rotational constants (GHZ):           0.0000000          46.8330090          46.8330090
 Standard basis: 6-31G(d) (6D, 7F)
 There are     8 symmetry adapted cartesian basis functions of AG  symmetry.
 There are     1 symmetry adapted cartesian basis functions of B1G symmetry.
 There are     3 symmetry adapted cartesian basis functions of B2G symmetry.
 There are     3 symmetry adapted cartesian basis functions of B3G symmetry.
 There are     1 symmetry adapted cartesian basis functions of AU  symmetry.
 There are     8 symmetry adapted cartesian basis functions of B1U symmetry.
 There are     3 symmetry adapted cartesian basis functions of B2U symmetry.
 There are     3 symmetry adapted cartesian basis functions of B3U symmetry.
 There are     8 symmetry adapted basis functions of AG  symmetry.
 There are     1 symmetry adapted basis functions of B1G symmetry.
 There are     3 symmetry adapted basis functions of B2G symmetry.
 There are     3 symmetry adapted basis functions of B3G symmetry.
 There are     1 symmetry adapted basis functions of AU  symmetry.
 There are     8 symmetry adapted basis functions of B1U symmetry.
 There are     3 symmetry adapted basis functions of B2U symmetry.
 There are     3 symmetry adapted basis functions of B3U symmetry.
    30 basis functions,    56 primitive gaussians,    30 cartesian basis functions
     8 alpha electrons        8 beta electrons
       nuclear repulsion energy        29.1557691967 Hartrees.
 NAtoms=    2 NActive=    2 NUniq=    1 SFac= 4.00D+00 NAtFMM=   60 NAOKFM=F Big=F
 Integral buffers will be    131072 words long.
 Raffenetti 2 integral format.
 Two-electron integral symmetry is turned on.
 One-electron integrals computed using PRISM.
 NBasis=    30 RedAO= T EigKep=  6.03D-03  NBF=     8     1     3     3     1     8     3     3
 NBsUse=    30 1.00D-06 EigRej= -1.00D+00 NBFU=     8     1     3     3     1     8     3     3
 ExpMin= 2.70D-01 ExpMax= 5.48D+03 ExpMxC= 8.25D+02 IAcc=3 IRadAn=         5 AccDes= 0.00D+00
 Harris functional with IExCor=  402 and IRadAn=       5 diagonalized for initial guess.
 HarFok:  IExCor=  402 AccDes= 0.00D+00 IRadAn=         5 IDoV= 1 UseB2=F ITyADJ=14
 ICtDFT=  3500011 ScaDFX=  1.000000  1.000000  1.000000  1.000000
 FoFCou: FMM=F IPFlag=           0 FMFlag=      100000 FMFlg1=           0
         NFxFlg=           0 DoJE=T BraDBF=F KetDBF=T FulRan=T
         wScrn=  0.000000 ICntrl=       500 IOpCl=  0 I1Cent=   200000004 NGrid=           0
         NMat0=    1 NMatS0=      1 NMatT0=    0 NMatD0=    1 NMtDS0=    0 NMtDT0=    0
 Petite list used in FoFCou.
 Initial guess orbital symmetries:
       Occupied  (SGG) (SGU) (SGG) (SGU) (SGG) (PIU) (PIU) (PIG)
       Virtual   (PIG) (SGU) (SGG) (SGU) (PIU) (PIU) (SGG) (PIG)
                 (PIG) (SGU) (DLTG) (DLTG) (PIU) (PIU) (DLTU) (DLTU)
                 (SGG) (PIG) (PIG) (SGU) (SGG) (SGU)
 Keep R1 ints in memory in symmetry-blocked form, NReq=20837663.
 Requested convergence on RMS density matrix=1.00D-08 within 128 cycles.
 Requested convergence on MAX density matrix=1.00D-06.
 Requested convergence on             energy=1.00D-06.
 No special actions if energy rises.
 Integral accuracy reduced to 1.0D-05 until final iterations.
 Initial convergence to 1.0D-05 achieved.  Increase integral accuracy.
 SCF Done:  E(RB3LYP) =  -150.252506027     A.U. after    8 cycles
            NFock=  8  Conv=0.49D-08     -V/T= 2.0069

 **********************************************************************

            Population analysis using the SCF Density.

 **********************************************************************

 Orbital symmetries:
       Occupied  (SGG) (SGU) (SGG) (SGU) (SGG) (PIU) (PIU) (PIG)
       Virtual   (PIG) (SGU) (SGG) (SGU) (PIU) (PIU) (SGG) (PIG)
                 (PIG) (SGU) (PIU) (DLTG) (DLTG) (PIU) (DLTU) (DLTU)
                 (SGG) (PIG) (PIG) (SGU) (SGG) (SGU)
 Unable to determine electronic state:  partially filled degenerate orbitals.
 Alpha  occ. eigenvalues --  -19.30150 -19.30118  -1.32347  -0.78126  -0.53845
 Alpha  occ. eigenvalues --   -0.53621  -0.52660  -0.23159
 Alpha virt. eigenvalues --   -0.16002   0.28535   0.67571   0.72301   0.78661
 Alpha virt. eigenvalues --    0.80485   0.84101   0.91660   0.92805   1.31078
 Alpha virt. eigenvalues --    1.51367   1.51556   1.51733   1.54525   1.94958
 Alpha virt. eigenvalues --    1.95150   2.51473   2.59264   2.62288   2.80233
 Alpha virt. eigenvalues --    3.18856   3.53108
          Condensed to atoms (all electrons):
               1          2
     1  O    7.921653   0.078347
     2  O    0.078347   7.921653
 Mulliken charges:
               1
     1  O    0.000000
     2  O    0.000000
 Sum of Mulliken charges =   0.00000
 Mulliken charges with hydrogens summed into heavy atoms:
               1
     1  O    0.000000
     2  O    0.000000
 Electronic spatial extent (au):  <R**2>=             41.5035
 Charge=              0.0000 electrons
 Dipole moment (field-independent basis, Debye):
    X=              0.0000    Y=             -0.0000    Z=              0.0000  Tot=              0.0000
 Quadrupole moment (field-independent basis, Debye-Ang):
   XX=            -10.6266   YY=             -8.8813   ZZ=            -10.3915
   XY=              0.0000   XZ=              0.0000   YZ=             -0.0000
 Traceless Quadrupole moment (field-independent basis, Debye-Ang):
   XX=             -0.6601   YY=              1.0852   ZZ=             -0.4250
   XY=              0.0000   XZ=              0.0000   YZ=             -0.0000
 Octapole moment (field-independent basis, Debye-Ang**2):
  XXX=             -0.0000  YYY=              0.0000  ZZZ=              0.0000  XYY=             -0.0000
  XXY=              0.0000  XXZ=              0.0000  XZZ=             -0.0000  YZZ=              0.0000
  YYZ=             -0.0000  XYZ=             -0.0000
 Hexadecapole moment (field-independent basis, Debye-Ang**3):
 XXXX=             -7.1864 YYYY=             -5.5330 ZZZZ=            -26.1521 XXXY=              0.0000
 XXXZ=              0.0000 YYYX=              0.0000 YYYZ=              0.0000 ZZZX=              0.0000
 ZZZY=             -0.0000 XXYY=             -2.1199 XXZZ=             -6.2791 YYZZ=             -5.0193
 XXYZ=              0.0000 YYXZ=              0.0000 ZZXY=              0.0000
 N-N= 2.915576919669D+01 E-N=-4.130700368328D+02  KE= 1.492287991177D+02
 Symmetry AG   KE= 6.941629086340D+01
 Symmetry B1G  KE= 2.312942232393D-34
 Symmetry B2G  KE= 5.979408620891D+00
 Symmetry B3G  KE= 1.322247571348D-31
 Symmetry AU   KE= 5.265037060624D-34
 Symmetry B1U  KE= 6.469601447928D+01
 Symmetry B2U  KE= 4.521022521344D+00
 Symmetry B3U  KE= 4.616062632828D+00
 ******************************Gaussian NBO Version 3.1******************************
             N A T U R A L   A T O M I C   O R B I T A L   A N D
          N A T U R A L   B O N D   O R B I T A L   A N A L Y S I S
 ******************************Gaussian NBO Version 3.1******************************
       /RESON  / : Allow strongly delocalized NBO set

 Analyzing the SCF density

 Job title: O2-B3LYP-6-31G(D)                                               

 Storage needed:      2904 in NPA,      3709 in NBO (1342177252 available)
 GSVD:  LWork=         620 too small for GESVD, short by         150 words or         150 for optimal perf.
 GSVD:  LWork=         516 too small for GESVD, short by         432 words or         432 for optimal perf.


 NATURAL POPULATIONS:  Natural atomic orbital occupancies 
                                                          
   NAO  Atom  No  lang   Type(AO)    Occupancy      Energy
 ----------------------------------------------------------
     1    O    1  S      Cor( 1S)     1.99992     -19.14131
     2    O    1  S      Val( 2S)     1.77530      -0.96624
     3    O    1  S      Ryd( 3S)     0.01514       0.96835
     4    O    1  S      Ryd( 4S)     0.00000       3.23673
     5    O    1  px     Val( 2p)     1.99039      -0.37211
     6    O    1  px     Ryd( 3p)     0.00638       0.86992
     7    O    1  py     Val( 2p)     0.99584      -0.33898
     8    O    1  py     Ryd( 3p)     0.00001       0.85409
     9    O    1  pz     Val( 2p)     1.20203      -0.30608
    10    O    1  pz     Ryd( 3p)     0.00539       0.89753
    11    O    1  dxy    Ryd( 3d)     0.00000       1.73257
    12    O    1  dxz    Ryd( 3d)     0.00323       2.07360
    13    O    1  dyz    Ryd( 3d)     0.00415       2.04154
    14    O    1  dx2y2  Ryd( 3d)     0.00011       1.73431
    15    O    1  dz2    Ryd( 3d)     0.00211       2.62447
 
    16    O    2  S      Cor( 1S)     1.99992     -19.14131
    17    O    2  S      Val( 2S)     1.77530      -0.96624
    18    O    2  S      Ryd( 3S)     0.01514       0.96835
    19    O    2  S      Ryd( 4S)     0.00000       3.23673
    20    O    2  px     Val( 2p)     1.99039      -0.37211
    21    O    2  px     Ryd( 3p)     0.00638       0.86992
    22    O    2  py     Val( 2p)     0.99584      -0.33898
    23    O    2  py     Ryd( 3p)     0.00001       0.85409
    24    O    2  pz     Val( 2p)     1.20203      -0.30608
    25    O    2  pz     Ryd( 3p)     0.00539       0.89753
    26    O    2  dxy    Ryd( 3d)     0.00000       1.73257
    27    O    2  dxz    Ryd( 3d)     0.00323       2.07360
    28    O    2  dyz    Ryd( 3d)     0.00415       2.04154
    29    O    2  dx2y2  Ryd( 3d)     0.00011       1.73431
    30    O    2  dz2    Ryd( 3d)     0.00211       2.62447


 Summary of Natural Population Analysis:                  
                                                          
                                       Natural Population 
                Natural  -----------------------------------------------
    Atom  No    Charge         Core      Valence    Rydberg      Total
 -----------------------------------------------------------------------
      O    1    0.00000      1.99992     5.96356    0.03652     8.00000
      O    2    0.00000      1.99992     5.96356    0.03652     8.00000
 =======================================================================
   * Total *    0.00000      3.99983    11.92712    0.07304    16.00000

                                 Natural Population      
 --------------------------------------------------------
   Core                       3.99983 ( 99.9958% of   4)
   Valence                   11.92712 ( 99.3927% of  12)
   Natural Minimal Basis     15.92696 ( 99.5435% of  16)
   Natural Rydberg Basis      0.07304 (  0.4565% of  16)
 --------------------------------------------------------

    Atom  No          Natural Electron Configuration
 ----------------------------------------------------------------------------
      O    1      [core]2S( 1.78)2p( 4.19)3S( 0.02)3p( 0.01)3d( 0.01)
      O    2      [core]2S( 1.78)2p( 4.19)3S( 0.02)3p( 0.01)3d( 0.01)


 NATURAL BOND ORBITAL ANALYSIS:

                       Occupancies       Lewis Structure    Low   High
           Occ.    -------------------  -----------------   occ   occ
  Cycle   Thresh.   Lewis   Non-Lewis     CR  BD  3C  LP    (L)   (NL)   Dev
 =============================================================================
   1(1)    1.90    15.98538   0.01462      2   2   0   4     0      0    0.03
 -----------------------------------------------------------------------------

 Structure accepted: No low occupancy Lewis orbitals

 --------------------------------------------------------
   Core                      3.99983 ( 99.996% of   4)
   Valence Lewis            11.98555 ( 99.880% of  12)
  ==================       ============================
   Total Lewis              15.98538 ( 99.909% of  16)
  -----------------------------------------------------
   Valence non-Lewis         0.00000 (  0.000% of  16)
   Rydberg non-Lewis         0.01462 (  0.091% of  16)
  ==================       ============================
   Total non-Lewis           0.01462 (  0.091% of  16)
 --------------------------------------------------------


       (Occupancy)   Bond orbital/ Coefficients/ Hybrids
 ---------------------------------------------------------------------------------
     1. (2.00000) BD ( 1) O   1 - O   2  
                ( 50.00%)   0.7071* O   1 s( 23.28%)p 3.29( 76.53%)d 0.01(  0.20%)
                                           -0.0000 -0.4690  0.1130  0.0002  0.0000
                                            0.0000  0.0000  0.0000  0.8720 -0.0699
                                            0.0000  0.0000  0.0000  0.0046 -0.0441
                ( 50.00%)   0.7071* O   2 s( 23.28%)p 3.29( 76.53%)d 0.01(  0.20%)
                                            0.0000 -0.4690  0.1130  0.0002  0.0000
                                            0.0000  0.0000  0.0000 -0.8720  0.0699
                                            0.0000  0.0000  0.0000  0.0046 -0.0441
     2. (2.00000) BD ( 2) O   1 - O   2  
                ( 50.00%)   0.7071* O   1 s(  0.00%)p 1.00( 99.59%)d 0.00(  0.41%)
                                            0.0000  0.0000  0.0000  0.0000  0.0000
                                            0.0000  0.9979 -0.0029  0.0000  0.0000
                                            0.0000  0.0000 -0.0644  0.0000  0.0000
                ( 50.00%)   0.7071* O   2 s(  0.00%)p 1.00( 99.59%)d 0.00(  0.41%)
                                            0.0000  0.0000  0.0000  0.0000  0.0000
                                            0.0000  0.9979 -0.0029  0.0000  0.0000
                                            0.0000  0.0000  0.0644  0.0000  0.0000
     3. (1.99992) CR ( 1) O   1           s(100.00%)
                                            1.0000  0.0001  0.0000  0.0000  0.0000
                                            0.0000  0.0000  0.0000  0.0000 -0.0000
                                            0.0000  0.0000  0.0000 -0.0000 -0.0000
     4. (1.99992) CR ( 1) O   2           s(100.00%)
                                            1.0000  0.0001  0.0000  0.0000  0.0000
                                            0.0000  0.0000  0.0000 -0.0000  0.0000
                                            0.0000  0.0000  0.0000 -0.0000 -0.0000
     5. (1.99899) LP ( 1) O   1           s( 77.89%)p 0.28( 22.09%)d 0.00(  0.01%)
                                           -0.0001  0.8821  0.0300  0.0001  0.0000
                                            0.0000  0.0000  0.0000  0.4700 -0.0015
                                            0.0000  0.0000  0.0000 -0.0065 -0.0087
     6. (1.99379) LP ( 2) O   1           s(  0.00%)p 1.00( 99.94%)d 0.00(  0.06%)
                                            0.0000  0.0000  0.0000  0.0000  0.9991
                                            0.0328  0.0000  0.0000  0.0000  0.0000
                                            0.0000 -0.0252  0.0000  0.0000  0.0000
     7. (1.99899) LP ( 1) O   2           s( 77.89%)p 0.28( 22.09%)d 0.00(  0.01%)
                                           -0.0001  0.8821  0.0300  0.0001  0.0000
                                            0.0000  0.0000  0.0000 -0.4700  0.0015
                                            0.0000  0.0000  0.0000 -0.0065 -0.0087
     8. (1.99379) LP ( 2) O   2           s(  0.00%)p 1.00( 99.94%)d 0.00(  0.06%)
                                            0.0000  0.0000  0.0000  0.0000  0.9991
                                            0.0328  0.0000  0.0000  0.0000  0.0000
                                            0.0000  0.0252  0.0000  0.0000  0.0000
     9. (0.00621) RY*( 1) O   1           s(  0.00%)p 1.00( 68.37%)d 0.46( 31.63%)
                                            0.0000  0.0000  0.0000  0.0000 -0.0129
                                            0.8268  0.0000  0.0000  0.0000  0.0000
                                            0.0000  0.5624  0.0000  0.0000  0.0000
    10. (0.00108) RY*( 2) O   1           s( 52.55%)p 0.90( 47.43%)d 0.00(  0.03%)
                                            0.0000  0.0414  0.7229 -0.0332  0.0000
                                            0.0000  0.0000  0.0000 -0.1264 -0.6770
                                            0.0000  0.0000  0.0000 -0.0071 -0.0144
    11. (0.00002) RY*( 3) O   1           s( 22.39%)p 0.98( 21.94%)d 2.49( 55.67%)
    12. (0.00000) RY*( 4) O   1           s(  0.00%)p 1.00(100.00%)d 0.00(  0.00%)
    13. (0.00000) RY*( 5) O   1           s( 28.14%)p 1.13( 31.93%)d 1.42( 39.92%)
    14. (0.00000) RY*( 6) O   1           s(  0.00%)p 0.00(  0.00%)d 1.00(100.00%)
    15. (0.00000) RY*( 7) O   1           s(  0.00%)p 1.00( 31.69%)d 2.16( 68.31%)
    16. (0.00000) RY*( 8) O   1           s(  0.00%)p 1.00(  0.41%)d99.99( 99.59%)
    17. (0.00000) RY*( 9) O   1           s(  0.21%)p 0.02(  0.00%)d99.99( 99.78%)
    18. (0.00000) RY*(10) O   1           s( 95.54%)p 0.00(  0.07%)d 0.05(  4.39%)
    19. (0.00621) RY*( 1) O   2           s(  0.00%)p 1.00( 68.37%)d 0.46( 31.63%)
                                            0.0000  0.0000  0.0000  0.0000 -0.0129
                                            0.8268  0.0000  0.0000  0.0000  0.0000
                                            0.0000 -0.5624  0.0000  0.0000  0.0000
    20. (0.00108) RY*( 2) O   2           s( 52.55%)p 0.90( 47.43%)d 0.00(  0.03%)
                                           -0.0000  0.0414  0.7229 -0.0332  0.0000
                                            0.0000  0.0000  0.0000  0.1264  0.6770
                                            0.0000  0.0000  0.0000 -0.0071 -0.0144
    21. (0.00002) RY*( 3) O   2           s( 22.39%)p 0.98( 21.94%)d 2.49( 55.67%)
    22. (0.00000) RY*( 4) O   2           s(  0.00%)p 1.00(100.00%)d 0.00(  0.00%)
    23. (0.00000) RY*( 5) O   2           s( 28.14%)p 1.13( 31.93%)d 1.42( 39.92%)
    24. (0.00000) RY*( 6) O   2           s(  0.00%)p 0.00(  0.00%)d 1.00(100.00%)
    25. (0.00000) RY*( 7) O   2           s(  0.00%)p 1.00( 31.69%)d 2.16( 68.31%)
    26. (0.00000) RY*( 8) O   2           s(  0.00%)p 1.00(  0.41%)d99.99( 99.59%)
    27. (0.00000) RY*( 9) O   2           s(  0.21%)p 0.02(  0.00%)d99.99( 99.78%)
    28. (0.00000) RY*(10) O   2           s( 95.54%)p 0.00(  0.07%)d 0.05(  4.39%)
    29. (0.00000) BD*( 1) O   1 - O   2  
                ( 50.00%)   0.7071* O   1 s( 23.28%)p 3.29( 76.53%)d 0.01(  0.20%)
                ( 50.00%)  -0.7071* O   2 s( 23.28%)p 3.29( 76.53%)d 0.01(  0.20%)
    30. (0.00000) BD*( 2) O   1 - O   2  
                ( 50.00%)   0.7071* O   1 s(  0.00%)p 1.00( 99.59%)d 0.00(  0.41%)
                ( 50.00%)  -0.7071* O   2 s(  0.00%)p 1.00( 99.59%)d 0.00(  0.41%)


 NHO Directionality and "Bond Bending" (deviations from line of nuclear centers)

         [Thresholds for printing:  angular deviation  >  1.0 degree]
                                    hybrid p-character > 25.0%
                                    orbital occupancy  >  0.10e

                                Line of Centers        Hybrid 1              Hybrid 2
                                ---------------  -------------------   ------------------
                NBO               Theta   Phi    Theta   Phi    Dev    Theta   Phi    Dev
 ========================================================================================
     2. BD (   2) O   1 - O   2   180.0    0.0    90.0   90.0  90.0     90.0   90.0  90.0
     6. LP (   2) O   1             --     --     90.0    0.0   --       --     --    --
     8. LP (   2) O   2             --     --     90.0    0.0   --       --     --    --


 Second Order Perturbation Theory Analysis of Fock Matrix in NBO Basis

     Threshold for printing:   0.50 kcal/mol
                                                                              E(2)  E(j)-E(i) F(i,j)
         Donor NBO (i)                     Acceptor NBO (j)                 kcal/mol   a.u.    a.u. 
 ===================================================================================================

 within unit  1
   3. CR (   1) O   1                / 20. RY*(   2) O   2                    1.27   20.16    0.143
   4. CR (   1) O   2                / 10. RY*(   2) O   1                    1.27   20.16    0.143
   5. LP (   1) O   1                / 20. RY*(   2) O   2                    1.70    1.90    0.051
   6. LP (   2) O   1                / 19. RY*(   1) O   2                    6.25    1.59    0.089
   6. LP (   2) O   1                / 25. RY*(   7) O   2                    0.55    2.10    0.030
   7. LP (   1) O   2                / 10. RY*(   2) O   1                    1.70    1.90    0.051
   8. LP (   2) O   2                /  9. RY*(   1) O   1                    6.25    1.59    0.089
   8. LP (   2) O   2                / 15. RY*(   7) O   1                    0.55    2.10    0.030


 Natural Bond Orbitals (Summary):

                                                            Principal Delocalizations
           NBO                        Occupancy    Energy   (geminal,vicinal,remote)
 ====================================================================================
 Molecular unit  1  (O2)
     1. BD (   1) O   1 - O   2          2.00000    -1.19369   
     2. BD (   2) O   1 - O   2          2.00000    -0.53621   
     3. CR (   1) O   1                  1.99992   -19.14148  20(v)
     4. CR (   1) O   2                  1.99992   -19.14148  10(v)
     5. LP (   1) O   1                  1.99899    -0.88245  20(v)
     6. LP (   2) O   1                  1.99379    -0.37413  19(v),25(v)
     7. LP (   1) O   2                  1.99899    -0.88245  10(v)
     8. LP (   2) O   2                  1.99379    -0.37413  9(v),15(v)
     9. RY*(   1) O   1                  0.00621     1.21508   
    10. RY*(   2) O   1                  0.00108     1.02241   
    11. RY*(   3) O   1                  0.00002     1.91119   
    12. RY*(   4) O   1                  0.00000     0.85379   
    13. RY*(   5) O   1                  0.00000     1.56335   
    14. RY*(   6) O   1                  0.00000     1.73257   
    15. RY*(   7) O   1                  0.00000     1.73047   
    16. RY*(   8) O   1                  0.00000     2.03884   
    17. RY*(   9) O   1                  0.00000     1.77023   
    18. RY*(  10) O   1                  0.00000     3.16400   
    19. RY*(   1) O   2                  0.00621     1.21508   
    20. RY*(   2) O   2                  0.00108     1.02241   
    21. RY*(   3) O   2                  0.00002     1.91119   
    22. RY*(   4) O   2                  0.00000     0.85379   
    23. RY*(   5) O   2                  0.00000     1.56335   
    24. RY*(   6) O   2                  0.00000     1.73257   
    25. RY*(   7) O   2                  0.00000     1.73047   
    26. RY*(   8) O   2                  0.00000     2.03884   
    27. RY*(   9) O   2                  0.00000     1.77023   
    28. RY*(  10) O   2                  0.00000     3.16400   
    29. BD*(   1) O   1 - O   2          0.00000     0.47473   
    30. BD*(   2) O   1 - O   2          0.00000    -0.13575   
       -------------------------------
              Total Lewis   15.98538  ( 99.9086%)
        Valence non-Lewis    0.00000  (  0.0000%)
        Rydberg non-Lewis    0.01462  (  0.0914%)
       -------------------------------
            Total unit  1   16.00000  (100.0000%)
           Charge unit  1    0.00000
 Calling FoFJK, ICntrl=      2127 FMM=F ISym2X=1 I1Cent= 0 IOpClX= 0 NMat=1 NMatS=1 NMatT=0.
 ***** Axes restored to original set *****
 -------------------------------------------------------------------
 Center     Atomic                   Forces (Hartrees/Bohr)
 Number     Number              X              Y              Z
 -------------------------------------------------------------------
      1        8           0.102281203    0.000000000   -0.000000000
      2        8          -0.102281203   -0.000000000    0.000000000
 -------------------------------------------------------------------
 Cartesian Forces:  Max     0.102281203 RMS     0.059052080

 GradGradGradGradGradGradGradGradGradGradGradGradGradGradGradGradGradGrad
 Berny optimization.
 FormGI is forming the generalized inverse of G from B-inverse, IUseBI=4.
 Internal  Forces:  Max     0.102281203 RMS     0.102281203
 Search for a local minimum.
 Step number   1 out of a maximum of   20
 All quantities printed in internal units (Hartrees-Bohrs-Radians)
 Mixed Optimization -- RFO/linear search
 Second derivative matrix not updated -- first step.
 The second derivative matrix:
                          R1
           R1           1.26752
 ITU=  0
     Eigenvalues ---    1.26752
 RFO step:  Lambda=-8.20040092D-03 EMin= 1.26752315D+00
 Linear search not attempted -- first point.
 Iteration  1 RMS(Cart)=  0.05669232 RMS(Int)=  0.00000000
 Iteration  2 RMS(Cart)=  0.00000000 RMS(Int)=  0.00000000
 ClnCor:  largest displacement from symmetrization is 2.45D-18 for atom     2.
 Variable       Old X    -DE/DX   Delta X   Delta X   Delta X     New X
                                 (Linear)    (Quad)   (Total)
    R1        2.19511   0.10228   0.00000   0.08018   0.08018   2.27528
         Item               Value     Threshold  Converged?
 Maximum Force            0.102281     0.000450     NO 
 RMS     Force            0.102281     0.000300     NO 
 Maximum Displacement     0.040088     0.001800     NO 
 RMS     Displacement     0.056692     0.001200     NO 
 Predicted change in Energy=-4.126557D-03
 GradGradGradGradGradGradGradGradGradGradGradGradGradGradGradGradGradGrad

                          Input orientation:                          
 ---------------------------------------------------------------------
 Center     Atomic      Atomic             Coordinates (Angstroms)
 Number     Number       Type             X           Y           Z
 ---------------------------------------------------------------------
      1          8           0        0.843863    0.106838    0.000000
      2          8           0       -0.360164    0.106838   -0.000000
 ---------------------------------------------------------------------
 Stoichiometry    O2
 Framework group  D*H[C*(O.O)]
 Deg. of freedom     1
 Full point group                 D*H     NOp   8
 Largest Abelian subgroup         D2H     NOp   8
 Largest concise Abelian subgroup C2      NOp   2
                         Standard orientation:                         
 ---------------------------------------------------------------------
 Center     Atomic      Atomic             Coordinates (Angstroms)
 Number     Number       Type             X           Y           Z
 ---------------------------------------------------------------------
      1          8           0        0.000000   -0.000000    0.602013
      2          8           0        0.000000   -0.000000   -0.602013
 ---------------------------------------------------------------------
 Rotational constants (GHZ):           0.0000000          43.5906107          43.5906107
 Standard basis: 6-31G(d) (6D, 7F)
 There are     8 symmetry adapted cartesian basis functions of AG  symmetry.
 There are     1 symmetry adapted cartesian basis functions of B1G symmetry.
 There are     3 symmetry adapted cartesian basis functions of B2G symmetry.
 There are     3 symmetry adapted cartesian basis functions of B3G symmetry.
 There are     1 symmetry adapted cartesian basis functions of AU  symmetry.
 There are     8 symmetry adapted cartesian basis functions of B1U symmetry.
 There are     3 symmetry adapted cartesian basis functions of B2U symmetry.
 There are     3 symmetry adapted cartesian basis functions of B3U symmetry.
 There are     8 symmetry adapted basis functions of AG  symmetry.
 There are     1 symmetry adapted basis functions of B1G symmetry.
 There are     3 symmetry adapted basis functions of B2G symmetry.
 There are     3 symmetry adapted basis functions of B3G symmetry.
 There are     1 symmetry adapted basis functions of AU  symmetry.
 There are     8 symmetry adapted basis functions of B1U symmetry.
 There are     3 symmetry adapted basis functions of B2U symmetry.
 There are     3 symmetry adapted basis functions of B3U symmetry.
    30 basis functions,    56 primitive gaussians,    30 cartesian basis functions
     8 alpha electrons        8 beta electrons
       nuclear repulsion energy        28.1283948078 Hartrees.
 NAtoms=    2 NActive=    2 NUniq=    1 SFac= 4.00D+00 NAtFMM=   60 NAOKFM=F Big=F
 Integral buffers will be    131072 words long.
 Raffenetti 2 integral format.
 Two-electron integral symmetry is turned on.
 One-electron integrals computed using PRISM.
 NBasis=    30 RedAO= T EigKep=  6.94D-03  NBF=     8     1     3     3     1     8     3     3
 NBsUse=    30 1.00D-06 EigRej= -1.00D+00 NBFU=     8     1     3     3     1     8     3     3
 Initial guess from the checkpoint file:  "O2-B3LYP-6-31g(d).chk"
 B after Tr=     0.000000   -0.000000    0.000000
         Rot=    1.000000    0.000000   -0.000000    0.000000 Ang=   0.00 deg.
 Initial guess orbital symmetries:
       Occupied  (SGG) (SGU) (SGG) (SGU) (SGG) (PIU) (PIU) (PIG)
       Virtual   (PIG) (SGU) (SGG) (SGU) (PIU) (PIU) (SGG) (PIG)
                 (PIG) (SGU) (PIU) (DLTG) (DLTG) (PIU) (DLTU) (DLTU)
                 (SGG) (PIG) (PIG) (SGU) (SGG) (SGU)
 ExpMin= 2.70D-01 ExpMax= 5.48D+03 ExpMxC= 8.25D+02 IAcc=3 IRadAn=         5 AccDes= 0.00D+00
 Harris functional with IExCor=  402 and IRadAn=       5 diagonalized for initial guess.
 HarFok:  IExCor=  402 AccDes= 0.00D+00 IRadAn=         5 IDoV= 1 UseB2=F ITyADJ=14
 ICtDFT=  3500011 ScaDFX=  1.000000  1.000000  1.000000  1.000000
 FoFCou: FMM=F IPFlag=           0 FMFlag=      100000 FMFlg1=           0
         NFxFlg=           0 DoJE=T BraDBF=F KetDBF=T FulRan=T
         wScrn=  0.000000 ICntrl=       500 IOpCl=  0 I1Cent=   200000004 NGrid=           0
         NMat0=    1 NMatS0=      1 NMatT0=    0 NMatD0=    1 NMtDS0=    0 NMtDT0=    0
 Petite list used in FoFCou.
 Keep R1 ints in memory in symmetry-blocked form, NReq=20837663.
 Requested convergence on RMS density matrix=1.00D-08 within 128 cycles.
 Requested convergence on MAX density matrix=1.00D-06.
 Requested convergence on             energy=1.00D-06.
 No special actions if energy rises.
 Integral accuracy reduced to 1.0D-05 until final iterations.
 Initial convergence to 1.0D-05 achieved.  Increase integral accuracy.
 SCF Done:  E(RB3LYP) =  -150.257211319     A.U. after    9 cycles
            NFock=  9  Conv=0.81D-10     -V/T= 2.0080
 Calling FoFJK, ICntrl=      2127 FMM=F ISym2X=1 I1Cent= 0 IOpClX= 0 NMat=1 NMatS=1 NMatT=0.
 ***** Axes restored to original set *****
 -------------------------------------------------------------------
 Center     Atomic                   Forces (Hartrees/Bohr)
 Number     Number              X              Y              Z
 -------------------------------------------------------------------
      1        8           0.019198578   -0.000000000   -0.000000000
      2        8          -0.019198578    0.000000000    0.000000000
 -------------------------------------------------------------------
 Cartesian Forces:  Max     0.019198578 RMS     0.011084304

 GradGradGradGradGradGradGradGradGradGradGradGradGradGradGradGradGradGrad
 Berny optimization.
 Using GEDIIS/GDIIS optimizer.
 Internal  Forces:  Max     0.019198578 RMS     0.019198578
 Search for a local minimum.
 Step number   2 out of a maximum of   20
 All quantities printed in internal units (Hartrees-Bohrs-Radians)
 Mixed Optimization -- RFO/linear search
 Update second derivatives using D2CorX and points    1    2
 DE= -4.71D-03 DEPred=-4.13D-03 R= 1.14D+00
 TightC=F SS=  1.41D+00  RLast= 8.02D-02 DXNew= 5.0454D-01 2.4053D-01
 Trust test= 1.14D+00 RLast= 8.02D-02 DXMaxT set to 3.00D-01
 The second derivative matrix:
                          R1
           R1           1.03627
 ITU=  1  0
 Use linear search instead of GDIIS.
     Eigenvalues ---    1.03627
 RFO step:  Lambda= 0.00000000D+00 EMin= 1.03626531D+00
 Quartic linear search produced a step of  0.28275.
 Iteration  1 RMS(Cart)=  0.01602962 RMS(Int)=  0.00000000
 Iteration  2 RMS(Cart)=  0.00000000 RMS(Int)=  0.00000000
 ClnCor:  largest displacement from symmetrization is 6.94D-19 for atom     1.
 Variable       Old X    -DE/DX   Delta X   Delta X   Delta X     New X
                                 (Linear)    (Quad)   (Total)
    R1        2.27528   0.01920   0.02267  -0.00000   0.02267   2.29795
         Item               Value     Threshold  Converged?
 Maximum Force            0.019199     0.000450     NO 
 RMS     Force            0.019199     0.000300     NO 
 Maximum Displacement     0.011335     0.001800     NO 
 RMS     Displacement     0.016030     0.001200     NO 
 Predicted change in Energy=-1.689514D-04
 GradGradGradGradGradGradGradGradGradGradGradGradGradGradGradGradGradGrad

                          Input orientation:                          
 ---------------------------------------------------------------------
 Center     Atomic      Atomic             Coordinates (Angstroms)
 Number     Number       Type             X           Y           Z
 ---------------------------------------------------------------------
      1          8           0        0.849861    0.106838   -0.000000
      2          8           0       -0.366162    0.106838   -0.000000
 ---------------------------------------------------------------------
 Stoichiometry    O2
 Framework group  D*H[C*(O.O)]
 Deg. of freedom     1
 Full point group                 D*H     NOp   8
 Largest Abelian subgroup         D2H     NOp   8
 Largest concise Abelian subgroup C2      NOp   2
                         Standard orientation:                         
 ---------------------------------------------------------------------
 Center     Atomic      Atomic             Coordinates (Angstroms)
 Number     Number       Type             X           Y           Z
 ---------------------------------------------------------------------
      1          8           0        0.000000   -0.000000    0.608011
      2          8           0        0.000000   -0.000000   -0.608011
 ---------------------------------------------------------------------
 Rotational constants (GHZ):           0.0000000          42.7348092          42.7348092
 Standard basis: 6-31G(d) (6D, 7F)
 There are     8 symmetry adapted cartesian basis functions of AG  symmetry.
 There are     1 symmetry adapted cartesian basis functions of B1G symmetry.
 There are     3 symmetry adapted cartesian basis functions of B2G symmetry.
 There are     3 symmetry adapted cartesian basis functions of B3G symmetry.
 There are     1 symmetry adapted cartesian basis functions of AU  symmetry.
 There are     8 symmetry adapted cartesian basis functions of B1U symmetry.
 There are     3 symmetry adapted cartesian basis functions of B2U symmetry.
 There are     3 symmetry adapted cartesian basis functions of B3U symmetry.
 There are     8 symmetry adapted basis functions of AG  symmetry.
 There are     1 symmetry adapted basis functions of B1G symmetry.
 There are     3 symmetry adapted basis functions of B2G symmetry.
 There are     3 symmetry adapted basis functions of B3G symmetry.
 There are     1 symmetry adapted basis functions of AU  symmetry.
 There are     8 symmetry adapted basis functions of B1U symmetry.
 There are     3 symmetry adapted basis functions of B2U symmetry.
 There are     3 symmetry adapted basis functions of B3U symmetry.
    30 basis functions,    56 primitive gaussians,    30 cartesian basis functions
     8 alpha electrons        8 beta electrons
       nuclear repulsion energy        27.8509079051 Hartrees.
 NAtoms=    2 NActive=    2 NUniq=    1 SFac= 4.00D+00 NAtFMM=   60 NAOKFM=F Big=F
 Integral buffers will be    131072 words long.
 Raffenetti 2 integral format.
 Two-electron integral symmetry is turned on.
 One-electron integrals computed using PRISM.
 NBasis=    30 RedAO= T EigKep=  7.22D-03  NBF=     8     1     3     3     1     8     3     3
 NBsUse=    30 1.00D-06 EigRej= -1.00D+00 NBFU=     8     1     3     3     1     8     3     3
 Initial guess from the checkpoint file:  "O2-B3LYP-6-31g(d).chk"
 B after Tr=     0.000000    0.000000   -0.000000
         Rot=    1.000000   -0.000000    0.000000    0.000000 Ang=   0.00 deg.
 Initial guess orbital symmetries:
       Occupied  (SGG) (SGU) (SGG) (SGU) (SGG) (PIU) (PIU) (PIG)
       Virtual   (PIG) (SGU) (SGG) (SGU) (PIU) (PIU) (SGG) (PIG)
                 (PIG) (SGU) (PIU) (PIU) (DLTG) (DLTG) (DLTU) (DLTU)
                 (SGG) (PIG) (PIG) (SGU) (SGG) (SGU)
 Keep R1 ints in memory in symmetry-blocked form, NReq=20837663.
 Requested convergence on RMS density matrix=1.00D-08 within 128 cycles.
 Requested convergence on MAX density matrix=1.00D-06.
 Requested convergence on             energy=1.00D-06.
 No special actions if energy rises.
 SCF Done:  E(RB3LYP) =  -150.257424341     A.U. after    6 cycles
            NFock=  6  Conv=0.40D-08     -V/T= 2.0083
 Calling FoFJK, ICntrl=      2127 FMM=F ISym2X=1 I1Cent= 0 IOpClX= 0 NMat=1 NMatS=1 NMatT=0.
 ***** Axes restored to original set *****
 -------------------------------------------------------------------
 Center     Atomic                   Forces (Hartrees/Bohr)
 Number     Number              X              Y              Z
 -------------------------------------------------------------------
      1        8          -0.000129943    0.000000000   -0.000000000
      2        8           0.000129943   -0.000000000    0.000000000
 -------------------------------------------------------------------
 Cartesian Forces:  Max     0.000129943 RMS     0.000075023

 GradGradGradGradGradGradGradGradGradGradGradGradGradGradGradGradGradGrad
 Berny optimization.
 Using GEDIIS/GDIIS optimizer.
 Internal  Forces:  Max     0.000129943 RMS     0.000129943
 Search for a local minimum.
 Step number   3 out of a maximum of   20
 All quantities printed in internal units (Hartrees-Bohrs-Radians)
 Mixed Optimization -- En-DIIS/RFO-DIIS
 Update second derivatives using D2CorX and points    2    3
 DE= -2.13D-04 DEPred=-1.69D-04 R= 1.26D+00
 TightC=F SS=  1.41D+00  RLast= 2.27D-02 DXNew= 5.0454D-01 6.8008D-02
 Trust test= 1.26D+00 RLast= 2.27D-02 DXMaxT set to 3.00D-01
 The second derivative matrix:
                          R1
           R1           0.85263
 ITU=  1  1
 Use linear search instead of GDIIS.
     Eigenvalues ---    0.85263
 RFO step:  Lambda= 0.00000000D+00 EMin= 8.52629692D-01
 Quartic linear search produced a step of -0.00702.
 Iteration  1 RMS(Cart)=  0.00011250 RMS(Int)=  0.00000000
 Iteration  2 RMS(Cart)=  0.00000000 RMS(Int)=  0.00000000
 ClnCor:  largest displacement from symmetrization is 4.87D-21 for atom     2.
 Variable       Old X    -DE/DX   Delta X   Delta X   Delta X     New X
                                 (Linear)    (Quad)   (Total)
    R1        2.29795  -0.00013  -0.00016  -0.00000  -0.00016   2.29779
         Item               Value     Threshold  Converged?
 Maximum Force            0.000130     0.000450     YES
 RMS     Force            0.000130     0.000300     YES
 Maximum Displacement     0.000080     0.001800     YES
 RMS     Displacement     0.000112     0.001200     YES
 Predicted change in Energy=-9.882717D-09
 Optimization completed.
    -- Stationary point found.
                           ----------------------------
                           !   Optimized Parameters   !
                           ! (Angstroms and Degrees)  !
 --------------------------                            --------------------------
 ! Name  Definition              Value          Derivative Info.                !
 --------------------------------------------------------------------------------
 ! R1    R(1,2)                  1.216          -DE/DX =   -0.0001              !
 --------------------------------------------------------------------------------
 GradGradGradGradGradGradGradGradGradGradGradGradGradGradGradGradGradGrad

                          Input orientation:                          
 ---------------------------------------------------------------------
 Center     Atomic      Atomic             Coordinates (Angstroms)
 Number     Number       Type             X           Y           Z
 ---------------------------------------------------------------------
      1          8           0        0.849861    0.106838   -0.000000
      2          8           0       -0.366162    0.106838   -0.000000
 ---------------------------------------------------------------------
 Stoichiometry    O2
 Framework group  D*H[C*(O.O)]
 Deg. of freedom     1
 Full point group                 D*H     NOp   8
 Largest Abelian subgroup         D2H     NOp   8
 Largest concise Abelian subgroup C2      NOp   2
                         Standard orientation:                         
 ---------------------------------------------------------------------
 Center     Atomic      Atomic             Coordinates (Angstroms)
 Number     Number       Type             X           Y           Z
 ---------------------------------------------------------------------
      1          8           0        0.000000   -0.000000    0.608011
      2          8           0        0.000000   -0.000000   -0.608011
 ---------------------------------------------------------------------
 Rotational constants (GHZ):           0.0000000          42.7348092          42.7348092

 **********************************************************************

            Population analysis using the SCF Density.

 **********************************************************************

 Orbital symmetries:
       Occupied  (SGG) (SGU) (SGG) (SGU) (SGG) (PIU) (PIU) (PIG)
       Virtual   (PIG) (SGU) (SGG) (SGU) (PIU) (PIU) (SGG) (PIG)
                 (PIG) (SGU) (PIU) (PIU) (DLTG) (DLTG) (DLTU) (DLTU)
                 (SGG) (PIG) (PIG) (SGU) (SGG) (SGU)
 Unable to determine electronic state:  partially filled degenerate orbitals.
 Alpha  occ. eigenvalues --  -19.30736 -19.30712  -1.27663  -0.79821  -0.53151
 Alpha  occ. eigenvalues --   -0.51526  -0.50754  -0.25018
 Alpha virt. eigenvalues --   -0.17928   0.21200   0.67695   0.71502   0.79235
 Alpha virt. eigenvalues --    0.80967   0.86025   0.91525   0.92699   1.28455
 Alpha virt. eigenvalues --    1.48357   1.51443   1.53779   1.53954   1.92367
 Alpha virt. eigenvalues --    1.92557   2.41003   2.53678   2.56701   2.80550
 Alpha virt. eigenvalues --    3.17183   3.50545
          Condensed to atoms (all electrons):
               1          2
     1  O    7.901665   0.098335
     2  O    0.098335   7.901665
 Mulliken charges:
               1
     1  O   -0.000000
     2  O   -0.000000
 Sum of Mulliken charges =  -0.00000
 Mulliken charges with hydrogens summed into heavy atoms:
               1
     1  O   -0.000000
     2  O   -0.000000
 Electronic spatial extent (au):  <R**2>=             43.4135
 Charge=             -0.0000 electrons
 Dipole moment (field-independent basis, Debye):
    X=             -0.0000    Y=              0.0000    Z=              0.0000  Tot=              0.0000
 Quadrupole moment (field-independent basis, Debye-Ang):
   XX=            -10.7091   YY=             -8.9749   ZZ=            -10.2985
   XY=              0.0000   XZ=              0.0000   YZ=              0.0000
 Traceless Quadrupole moment (field-independent basis, Debye-Ang):
   XX=             -0.7149   YY=              1.0192   ZZ=             -0.3043
   XY=              0.0000   XZ=              0.0000   YZ=              0.0000
 Octapole moment (field-independent basis, Debye-Ang**2):
  XXX=             -0.0000  YYY=              0.0000  ZZZ=             -0.0000  XYY=             -0.0000
  XXY=              0.0000  XXZ=             -0.0000  XZZ=             -0.0000  YZZ=              0.0000
  YYZ=              0.0000  XYZ=              0.0000
 Hexadecapole moment (field-independent basis, Debye-Ang**3):
 XXXX=             -7.2754 YYYY=             -5.6464 ZZZZ=            -27.8507 XXXY=              0.0000
 XXXZ=              0.0000 YYYX=              0.0000 YYYZ=              0.0000 ZZZX=              0.0000
 ZZZY=             -0.0000 XXYY=             -2.1536 XXZZ=             -6.6142 YYZZ=             -5.3254
 XXYZ=              0.0000 YYXZ=              0.0000 ZZXY=              0.0000
 N-N= 2.785090790508D+01 E-N=-4.103782762193D+02  KE= 1.490168390413D+02
 Symmetry AG   KE= 6.923886509890D+01
 Symmetry B1G  KE= 1.896732670254D-34
 Symmetry B2G  KE= 5.932965291721D+00
 Symmetry B3G  KE= 2.964692798324D-32
 Symmetry AU   KE= 4.116484123970D-34
 Symmetry B1U  KE= 6.475503033286D+01
 Symmetry B2U  KE= 4.494792266313D+00
 Symmetry B3U  KE= 4.595186051540D+00
 ******************************Gaussian NBO Version 3.1******************************
             N A T U R A L   A T O M I C   O R B I T A L   A N D
          N A T U R A L   B O N D   O R B I T A L   A N A L Y S I S
 ******************************Gaussian NBO Version 3.1******************************
       /RESON  / : Allow strongly delocalized NBO set

 Analyzing the SCF density

 Job title: O2-B3LYP-6-31G(D)                                               

 Storage needed:      2904 in NPA,      3709 in NBO (1342177252 available)
 GSVD:  LWork=         620 too small for GESVD, short by         150 words or         150 for optimal perf.
 GSVD:  LWork=         516 too small for GESVD, short by         432 words or         432 for optimal perf.


 NATURAL POPULATIONS:  Natural atomic orbital occupancies 
                                                          
   NAO  Atom  No  lang   Type(AO)    Occupancy      Energy
 ----------------------------------------------------------
     1    O    1  S      Cor( 1S)     1.99994     -19.16346
     2    O    1  S      Val( 2S)     1.80823      -0.98133
     3    O    1  S      Ryd( 3S)     0.01245       0.97258
     4    O    1  S      Ryd( 4S)     0.00000       3.21782
     5    O    1  px     Val( 2p)     1.99303      -0.37363
     6    O    1  px     Ryd( 3p)     0.00423       0.87049
     7    O    1  py     Val( 2p)     0.99647      -0.34018
     8    O    1  py     Ryd( 3p)     0.00000       0.85499
     9    O    1  pz     Val( 2p)     1.17280      -0.31073
    10    O    1  pz     Ryd( 3p)     0.00428       0.91085
    11    O    1  dxy    Ryd( 3d)     0.00000       1.73073
    12    O    1  dxz    Ryd( 3d)     0.00274       2.03334
    13    O    1  dyz    Ryd( 3d)     0.00353       2.00189
    14    O    1  dx2y2  Ryd( 3d)     0.00011       1.73247
    15    O    1  dz2    Ryd( 3d)     0.00221       2.56473
 
    16    O    2  S      Cor( 1S)     1.99994     -19.16346
    17    O    2  S      Val( 2S)     1.80823      -0.98133
    18    O    2  S      Ryd( 3S)     0.01245       0.97258
    19    O    2  S      Ryd( 4S)     0.00000       3.21782
    20    O    2  px     Val( 2p)     1.99303      -0.37363
    21    O    2  px     Ryd( 3p)     0.00423       0.87049
    22    O    2  py     Val( 2p)     0.99647      -0.34018
    23    O    2  py     Ryd( 3p)     0.00000       0.85499
    24    O    2  pz     Val( 2p)     1.17280      -0.31073
    25    O    2  pz     Ryd( 3p)     0.00428       0.91085
    26    O    2  dxy    Ryd( 3d)     0.00000       1.73073
    27    O    2  dxz    Ryd( 3d)     0.00274       2.03334
    28    O    2  dyz    Ryd( 3d)     0.00353       2.00189
    29    O    2  dx2y2  Ryd( 3d)     0.00011       1.73247
    30    O    2  dz2    Ryd( 3d)     0.00221       2.56473


 Summary of Natural Population Analysis:                  
                                                          
                                       Natural Population 
                Natural  -----------------------------------------------
    Atom  No    Charge         Core      Valence    Rydberg      Total
 -----------------------------------------------------------------------
      O    1    0.00000      1.99994     5.97052    0.02955     8.00000
      O    2   -0.00000      1.99994     5.97052    0.02955     8.00000
 =======================================================================
   * Total *   -0.00000      3.99987    11.94104    0.05909    16.00000

                                 Natural Population      
 --------------------------------------------------------
   Core                       3.99987 ( 99.9968% of   4)
   Valence                   11.94104 ( 99.5087% of  12)
   Natural Minimal Basis     15.94091 ( 99.6307% of  16)
   Natural Rydberg Basis      0.05909 (  0.3693% of  16)
 --------------------------------------------------------

    Atom  No          Natural Electron Configuration
 ----------------------------------------------------------------------------
      O    1      [core]2S( 1.81)2p( 4.16)3S( 0.01)3p( 0.01)3d( 0.01)
      O    2      [core]2S( 1.81)2p( 4.16)3S( 0.01)3p( 0.01)3d( 0.01)


 NATURAL BOND ORBITAL ANALYSIS:

                       Occupancies       Lewis Structure    Low   High
           Occ.    -------------------  -----------------   occ   occ
  Cycle   Thresh.   Lewis   Non-Lewis     CR  BD  3C  LP    (L)   (NL)   Dev
 =============================================================================
   1(1)    1.90    15.98997   0.01003      2   2   0   4     0      0    0.02
 -----------------------------------------------------------------------------

 Structure accepted: No low occupancy Lewis orbitals

 --------------------------------------------------------
   Core                      3.99987 ( 99.997% of   4)
   Valence Lewis            11.99010 ( 99.917% of  12)
  ==================       ============================
   Total Lewis              15.98997 ( 99.937% of  16)
  -----------------------------------------------------
   Valence non-Lewis         0.00000 (  0.000% of  16)
   Rydberg non-Lewis         0.01003 (  0.063% of  16)
  ==================       ============================
   Total non-Lewis           0.01003 (  0.063% of  16)
 --------------------------------------------------------


       (Occupancy)   Bond orbital/ Coefficients/ Hybrids
 ---------------------------------------------------------------------------------
     1. (2.00000) BD ( 1) O   1 - O   2  
                ( 50.00%)   0.7071* O   1 s( 19.93%)p 4.01( 79.86%)d 0.01(  0.21%)
                                            0.0000 -0.4340  0.1046  0.0002  0.0000
                                            0.0000  0.0000  0.0000  0.8914 -0.0627
                                            0.0000  0.0000  0.0000  0.0042 -0.0459
                ( 50.00%)   0.7071* O   2 s( 19.93%)p 4.01( 79.86%)d 0.01(  0.21%)
                                           -0.0000 -0.4340  0.1046  0.0002  0.0000
                                            0.0000  0.0000  0.0000 -0.8914  0.0627
                                            0.0000  0.0000  0.0000  0.0042 -0.0459
     2. (2.00000) BD ( 2) O   1 - O   2  
                ( 50.00%)   0.7071* O   1 s(  0.00%)p 1.00( 99.65%)d 0.00(  0.35%)
                                            0.0000  0.0000  0.0000  0.0000  0.0000
                                            0.0000  0.9982  0.0018  0.0000  0.0000
                                            0.0000  0.0000 -0.0594  0.0000  0.0000
                ( 50.00%)   0.7071* O   2 s(  0.00%)p 1.00( 99.65%)d 0.00(  0.35%)
                                            0.0000  0.0000  0.0000  0.0000  0.0000
                                            0.0000  0.9982  0.0018  0.0000  0.0000
                                            0.0000  0.0000  0.0594  0.0000  0.0000
     3. (1.99994) CR ( 1) O   1           s(100.00%)
                                            1.0000  0.0000  0.0000  0.0000  0.0000
                                            0.0000  0.0000  0.0000  0.0000 -0.0000
                                            0.0000  0.0000  0.0000 -0.0000 -0.0000
     4. (1.99994) CR ( 1) O   2           s(100.00%)
                                            1.0000  0.0000  0.0000  0.0000  0.0000
                                            0.0000  0.0000  0.0000 -0.0000  0.0000
                                            0.0000  0.0000  0.0000 -0.0000 -0.0000
     5. (1.99946) LP ( 1) O   1           s( 81.08%)p 0.23( 18.91%)d 0.00(  0.01%)
                                           -0.0000  0.9001  0.0252  0.0001  0.0000
                                            0.0000  0.0000  0.0000  0.4349 -0.0009
                                            0.0000  0.0000  0.0000 -0.0066 -0.0069
     6. (1.99559) LP ( 2) O   1           s(  0.00%)p 1.00( 99.95%)d 0.00(  0.05%)
                                            0.0000  0.0000  0.0000  0.0000  0.9994
                                            0.0275  0.0000  0.0000  0.0000  0.0000
                                            0.0000 -0.0229  0.0000  0.0000  0.0000
     7. (1.99946) LP ( 1) O   2           s( 81.08%)p 0.23( 18.91%)d 0.00(  0.01%)
                                           -0.0000  0.9001  0.0252  0.0001  0.0000
                                            0.0000  0.0000  0.0000 -0.4349  0.0009
                                            0.0000  0.0000  0.0000 -0.0066 -0.0069
     8. (1.99559) LP ( 2) O   2           s(  0.00%)p 1.00( 99.95%)d 0.00(  0.05%)
                                            0.0000  0.0000  0.0000  0.0000  0.9994
                                            0.0275  0.0000  0.0000  0.0000  0.0000
                                            0.0000  0.0229  0.0000  0.0000  0.0000
     9. (0.00441) RY*( 1) O   1           s(  0.00%)p 1.00( 61.69%)d 0.62( 38.31%)
                                            0.0000  0.0000  0.0000  0.0000 -0.0075
                                            0.7854  0.0000  0.0000  0.0000  0.0000
                                            0.0000  0.6189  0.0000  0.0000  0.0000
    10. (0.00059) RY*( 2) O   1           s( 41.09%)p 1.43( 58.90%)d 0.00(  0.01%)
                                           -0.0000  0.0349  0.6366 -0.0664 -0.0000
                                           -0.0000 -0.0000 -0.0000 -0.1108 -0.7594
                                           -0.0000 -0.0000 -0.0000 -0.0083  0.0044
    11. (0.00000) RY*( 3) O   1           s( 58.13%)p 0.72( 41.87%)d 0.00(  0.00%)
    12. (0.00001) RY*( 4) O   1           s(  0.02%)p 9.67(  0.20%)d99.99( 99.78%)
    13. (0.00000) RY*( 5) O   1           s( 99.74%)p 0.00(  0.26%)d 0.00(  0.00%)
    14. (0.00000) RY*( 6) O   1           s(  0.00%)p 0.00(  0.00%)d 1.00(100.00%)
    15. (0.00000) RY*( 7) O   1           s(  0.00%)p 1.00( 38.36%)d 1.61( 61.64%)
    16. (0.00000) RY*( 8) O   1           s(  0.00%)p 1.00(  0.35%)d99.99( 99.65%)
    17. (0.00000) RY*( 9) O   1           s(  0.01%)p 0.00(  0.00%)d 1.00( 99.99%)
    18. (0.00000) RY*(10) O   1           s(  0.00%)p 1.00(100.00%)d 0.00(  0.00%)
    19. (0.00441) RY*( 1) O   2           s(  0.00%)p 1.00( 61.69%)d 0.62( 38.31%)
                                            0.0000  0.0000  0.0000  0.0000 -0.0075
                                            0.7854  0.0000  0.0000  0.0000  0.0000
                                            0.0000 -0.6189  0.0000  0.0000  0.0000
    20. (0.00059) RY*( 2) O   2           s( 41.09%)p 1.43( 58.90%)d 0.00(  0.01%)
                                            0.0000  0.0349  0.6366 -0.0664  0.0000
                                            0.0000  0.0000  0.0000  0.1108  0.7594
                                            0.0000  0.0000  0.0000 -0.0083  0.0044
    21. (0.00000) RY*( 3) O   2           s( 58.13%)p 0.72( 41.87%)d 0.00(  0.00%)
    22. (0.00001) RY*( 4) O   2           s(  0.02%)p 9.67(  0.20%)d99.99( 99.78%)
    23. (0.00000) RY*( 5) O   2           s( 99.74%)p 0.00(  0.26%)d 0.00(  0.00%)
    24. (0.00000) RY*( 6) O   2           s(  0.00%)p 0.00(  0.00%)d 1.00(100.00%)
    25. (0.00000) RY*( 7) O   2           s(  0.00%)p 1.00( 38.36%)d 1.61( 61.64%)
    26. (0.00000) RY*( 8) O   2           s(  0.00%)p 1.00(  0.35%)d99.99( 99.65%)
    27. (0.00000) RY*( 9) O   2           s(  0.01%)p 0.00(  0.00%)d 1.00( 99.99%)
    28. (0.00000) RY*(10) O   2           s(  0.00%)p 1.00(100.00%)d 0.00(  0.00%)
    29. (0.00000) BD*( 1) O   1 - O   2  
                ( 50.00%)   0.7071* O   1 s( 19.93%)p 4.01( 79.86%)d 0.01(  0.21%)
                ( 50.00%)  -0.7071* O   2 s( 19.93%)p 4.01( 79.86%)d 0.01(  0.21%)
    30. (0.00000) BD*( 2) O   1 - O   2  
                ( 50.00%)   0.7071* O   1 s(  0.00%)p 1.00( 99.65%)d 0.00(  0.35%)
                ( 50.00%)  -0.7071* O   2 s(  0.00%)p 1.00( 99.65%)d 0.00(  0.35%)


 NHO Directionality and "Bond Bending" (deviations from line of nuclear centers)

         [Thresholds for printing:  angular deviation  >  1.0 degree]
                                    hybrid p-character > 25.0%
                                    orbital occupancy  >  0.10e

                                Line of Centers        Hybrid 1              Hybrid 2
                                ---------------  -------------------   ------------------
                NBO               Theta   Phi    Theta   Phi    Dev    Theta   Phi    Dev
 ========================================================================================
     2. BD (   2) O   1 - O   2   180.0    0.0    90.0   90.0  90.0     90.0   90.0  90.0
     6. LP (   2) O   1             --     --     90.0    0.0   --       --     --    --
     8. LP (   2) O   2             --     --     90.0    0.0   --       --     --    --


 Second Order Perturbation Theory Analysis of Fock Matrix in NBO Basis

     Threshold for printing:   0.50 kcal/mol
                                                                              E(2)  E(j)-E(i) F(i,j)
         Donor NBO (i)                     Acceptor NBO (j)                 kcal/mol   a.u.    a.u. 
 ===================================================================================================

 within unit  1
   3. CR (   1) O   1                / 20. RY*(   2) O   2                    0.93   20.23    0.122
   4. CR (   1) O   2                / 10. RY*(   2) O   1                    0.93   20.23    0.122
   5. LP (   1) O   1                / 20. RY*(   2) O   2                    0.99    1.97    0.039
   6. LP (   2) O   1                / 19. RY*(   1) O   2                    4.60    1.65    0.078
   7. LP (   1) O   2                / 10. RY*(   2) O   1                    0.99    1.97    0.039
   8. LP (   2) O   2                /  9. RY*(   1) O   1                    4.60    1.65    0.078


 Natural Bond Orbitals (Summary):

                                                            Principal Delocalizations
           NBO                        Occupancy    Energy   (geminal,vicinal,remote)
 ====================================================================================
 Molecular unit  1  (O2)
     1. BD (   1) O   1 - O   2          2.00000    -1.08706   
     2. BD (   2) O   1 - O   2          2.00000    -0.51526   
     3. CR (   1) O   1                  1.99994   -19.16357  20(v)
     4. CR (   1) O   2                  1.99994   -19.16357  10(v)
     5. LP (   1) O   1                  1.99946    -0.90190  20(v)
     6. LP (   2) O   1                  1.99559    -0.37520  19(v)
     7. LP (   1) O   2                  1.99946    -0.90190  10(v)
     8. LP (   2) O   2                  1.99559    -0.37520  9(v)
     9. RY*(   1) O   1                  0.00441     1.27581   
    10. RY*(   2) O   1                  0.00059     1.06560   
    11. RY*(   3) O   1                  0.00000     0.82493   
    12. RY*(   4) O   1                  0.00001     2.56023   
    13. RY*(   5) O   1                  0.00000     3.18891   
    14. RY*(   6) O   1                  0.00000     1.73073   
    15. RY*(   7) O   1                  0.00000     1.62959   
    16. RY*(   8) O   1                  0.00000     1.99966   
    17. RY*(   9) O   1                  0.00000     1.73268   
    18. RY*(  10) O   1                  0.00000     0.85515   
    19. RY*(   1) O   2                  0.00441     1.27581   
    20. RY*(   2) O   2                  0.00059     1.06560   
    21. RY*(   3) O   2                  0.00000     0.82493   
    22. RY*(   4) O   2                  0.00001     2.56023   
    23. RY*(   5) O   2                  0.00000     3.18891   
    24. RY*(   6) O   2                  0.00000     1.73073   
    25. RY*(   7) O   2                  0.00000     1.62959   
    26. RY*(   8) O   2                  0.00000     1.99966   
    27. RY*(   9) O   2                  0.00000     1.73268   
    28. RY*(  10) O   2                  0.00000     0.85515   
    29. BD*(   1) O   1 - O   2          0.00000     0.35919   
    30. BD*(   2) O   1 - O   2          0.00000    -0.16095   
       -------------------------------
              Total Lewis   15.98997  ( 99.9373%)
        Valence non-Lewis    0.00000  (  0.0000%)
        Rydberg non-Lewis    0.01003  (  0.0627%)
       -------------------------------
            Total unit  1   16.00000  (100.0000%)
           Charge unit  1    0.00000
 Unable to Open any file for archive entry.
 1\1\GINC-LOCALHOST\FOpt\RB3LYP\6-31G(d)\O2\USER\21-Mar-2026\0\\# opt f
 req b3lyp/6-31g(d) pop=nbo geom=connectivity\\O2-B3LYP-6-31G(D)\\0,1\O
 ,0.8498609746,0.10683761,0.\O,-0.3661619146,0.10683761,0.\\Version=ES6
 4L-G16RevC.02\HF=-150.2574243\RMSD=3.954e-09\RMSF=7.502e-05\Dipole=0.,
 0.,0.\Quadrupole=-0.2262369,0.7577644,-0.5315275,0.,0.,0.\PG=D*H [C*(O
 1.O1)]\\@
 The archive entry for this job was punched.


 ON A TOMBSTONE, "HERE LIES LESTER MOORE,
 FOUR SLUGS FROM A 44, NO LES, NO MORE".
 Job cpu time:       0 days  0 hours  0 minutes 51.7 seconds.
 Elapsed time:       0 days  0 hours  0 minutes  3.5 seconds.
 File lengths (MBytes):  RWF=      6 Int=      0 D2E=      0 Chk=      1 Scr=      1
 Normal termination of Gaussian 16 at Sat Mar 21 10:16:23 2026.
 Link1:  Proceeding to internal job step number  2.
 --------------------------------------------------------------------
 #N Geom=AllCheck Guess=TCheck SCRF=Check GenChk RB3LYP/6-31G(d) Freq
 --------------------------------------------------------------------
 1/10=4,29=7,30=1,38=1,40=1/1,3;
 2/12=2,40=1/2;
 3/5=1,6=6,7=1,11=2,14=-4,25=1,30=1,70=2,71=2,74=-5,116=1,140=1/1,2,3;
 4/5=101/1;
 5/5=2,38=6,98=1/2;
 8/6=4,10=90,11=11/1;
 11/6=1,8=1,9=11,15=111,16=1/1,2,10;
 10/6=1/2;
 6/7=2,8=2,9=2,10=2,28=1,40=1/1,7;
 7/8=1,10=1,25=1/1,2,3,16;
 1/10=4,30=1/3;
 99//99;
 Structure from the checkpoint file:  "O2-B3LYP-6-31g(d).chk"
 -----------------
 O2-B3LYP-6-31G(D)
 -----------------
 Charge =  0 Multiplicity = 1
 Redundant internal coordinates found in file.  (old form).
 O,0,0.8498609746,0.10683761,0.
 O,0,-0.3661619146,0.10683761,0.
 Recover connectivity data from disk.

 GradGradGradGradGradGradGradGradGradGradGradGradGradGradGradGradGradGrad
 Berny optimization.
 Initialization pass.
                           ----------------------------
                           !    Initial Parameters    !
                           ! (Angstroms and Degrees)  !
 --------------------------                            --------------------------
 ! Name  Definition              Value          Derivative Info.                !
 --------------------------------------------------------------------------------
 ! R1    R(1,2)                  1.216          calculate D2E/DX2 analytically  !
 --------------------------------------------------------------------------------
 Trust Radius=3.00D-01 FncErr=1.00D-07 GrdErr=1.00D-07 EigMax=2.50D+02 EigMin=1.00D-04
 Number of steps in this run=      2 maximum allowed number of steps=      2.
 GradGradGradGradGradGradGradGradGradGradGradGradGradGradGradGradGradGrad

                          Input orientation:                          
 ---------------------------------------------------------------------
 Center     Atomic      Atomic             Coordinates (Angstroms)
 Number     Number       Type             X           Y           Z
 ---------------------------------------------------------------------
      1          8           0        0.849861    0.106838   -0.000000
      2          8           0       -0.366162    0.106838   -0.000000
 ---------------------------------------------------------------------
 Stoichiometry    O2
 Framework group  D*H[C*(O.O)]
 Deg. of freedom     1
 Full point group                 D*H     NOp   8
 Largest Abelian subgroup         D2H     NOp   8
 Largest concise Abelian subgroup C2      NOp   2
                         Standard orientation:                         
 ---------------------------------------------------------------------
 Center     Atomic      Atomic             Coordinates (Angstroms)
 Number     Number       Type             X           Y           Z
 ---------------------------------------------------------------------
      1          8           0        0.000000    0.000000    0.608011
      2          8           0        0.000000    0.000000   -0.608011
 ---------------------------------------------------------------------
 Rotational constants (GHZ):           0.0000000          42.7348092          42.7348092
 Standard basis: 6-31G(d) (6D, 7F)
 There are     8 symmetry adapted cartesian basis functions of AG  symmetry.
 There are     1 symmetry adapted cartesian basis functions of B1G symmetry.
 There are     3 symmetry adapted cartesian basis functions of B2G symmetry.
 There are     3 symmetry adapted cartesian basis functions of B3G symmetry.
 There are     1 symmetry adapted cartesian basis functions of AU  symmetry.
 There are     8 symmetry adapted cartesian basis functions of B1U symmetry.
 There are     3 symmetry adapted cartesian basis functions of B2U symmetry.
 There are     3 symmetry adapted cartesian basis functions of B3U symmetry.
 There are     8 symmetry adapted basis functions of AG  symmetry.
 There are     1 symmetry adapted basis functions of B1G symmetry.
 There are     3 symmetry adapted basis functions of B2G symmetry.
 There are     3 symmetry adapted basis functions of B3G symmetry.
 There are     1 symmetry adapted basis functions of AU  symmetry.
 There are     8 symmetry adapted basis functions of B1U symmetry.
 There are     3 symmetry adapted basis functions of B2U symmetry.
 There are     3 symmetry adapted basis functions of B3U symmetry.
    30 basis functions,    56 primitive gaussians,    30 cartesian basis functions
     8 alpha electrons        8 beta electrons
       nuclear repulsion energy        27.8509079051 Hartrees.
 NAtoms=    2 NActive=    2 NUniq=    1 SFac= 4.00D+00 NAtFMM=   60 NAOKFM=F Big=F
 Integral buffers will be    131072 words long.
 Raffenetti 2 integral format.
 Two-electron integral symmetry is turned on.
 One-electron integrals computed using PRISM.
 NBasis=    30 RedAO= T EigKep=  7.22D-03  NBF=     8     1     3     3     1     8     3     3
 NBsUse=    30 1.00D-06 EigRej= -1.00D+00 NBFU=     8     1     3     3     1     8     3     3
 Initial guess from the checkpoint file:  "O2-B3LYP-6-31g(d).chk"
 B after Tr=     0.000000    0.000000   -0.000000
         Rot=    1.000000   -0.000000    0.000000    0.000000 Ang=   0.00 deg.
 Initial guess orbital symmetries:
       Occupied  (SGG) (SGU) (SGG) (SGU) (SGG) (PIU) (PIU) (PIG)
       Virtual   (PIG) (SGU) (SGG) (SGU) (PIU) (PIU) (SGG) (PIG)
                 (PIG) (SGU) (PIU) (PIU) (DLTG) (DLTG) (DLTU) (DLTU)
                 (SGG) (PIG) (PIG) (SGU) (SGG) (SGU)
 Keep R1 ints in memory in symmetry-blocked form, NReq=20837663.
 Requested convergence on RMS density matrix=1.00D-08 within 128 cycles.
 Requested convergence on MAX density matrix=1.00D-06.
 Requested convergence on             energy=1.00D-06.
 No special actions if energy rises.
 SCF Done:  E(RB3LYP) =  -150.257424341     A.U. after    1 cycles
            NFock=  1  Conv=0.12D-09     -V/T= 2.0083
 DoSCS=F DFT=T ScalE2(SS,OS)=  1.000000  1.000000
 Range of M.O.s used for correlation:     1    30
 NBasis=    30 NAE=     8 NBE=     8 NFC=     0 NFV=     0
 NROrb=     30 NOA=     8 NOB=     8 NVA=    22 NVB=    22

 **** Warning!!: The smallest alpha delta epsilon is  0.70891133D-01

 Symmetrizing basis deriv contribution to polar:
 IMax=3 JMax=2 DiffMx= 0.00D+00
 G2DrvN: will do     3 centers at a time, making    1 passes.
 Calling FoFCou, ICntrl=  3107 FMM=F I1Cent=   0 AccDes= 0.00D+00.
 End of G2Drv F.D. properties file   721 does not exist.
 End of G2Drv F.D. properties file   722 does not exist.
 End of G2Drv F.D. properties file   788 does not exist.
          IDoAtm=11
          Differentiating once with respect to electric field.
                with respect to dipole field.
          Differentiating once with respect to nuclear coordinates.
 Keep R1 ints in memory in symmetry-blocked form, NReq=20755482.
          There are     6 degrees of freedom in the 1st order CPHF.  IDoFFX=4 NUNeed=     6.
      6 vectors produced by pass  0 Test12= 2.93D-15 1.67D-08 XBig12= 1.43D+01 3.42D+00.
 AX will form     6 AO Fock derivatives at one time.
      6 vectors produced by pass  1 Test12= 2.93D-15 1.67D-08 XBig12= 8.87D+00 1.53D+00.
      6 vectors produced by pass  2 Test12= 2.93D-15 1.67D-08 XBig12= 8.44D-02 1.23D-01.
      6 vectors produced by pass  3 Test12= 2.93D-15 1.67D-08 XBig12= 6.11D-04 1.52D-02.
      6 vectors produced by pass  4 Test12= 2.93D-15 1.67D-08 XBig12= 5.95D-06 1.83D-03.
      6 vectors produced by pass  5 Test12= 2.93D-15 1.67D-08 XBig12= 1.21D-08 4.79D-05.
      1 vectors produced by pass  6 Test12= 2.93D-15 1.67D-08 XBig12= 9.40D-12 1.22D-06.
      1 vectors produced by pass  7 Test12= 2.93D-15 1.67D-08 XBig12= 1.41D-14 4.82D-08.
 InvSVY:  IOpt=1 It=  1 EMax= 4.44D-16
 Solved reduced A of dimension    38 with     6 vectors.
 Isotropic polarizability for W=    0.000000        6.53 Bohr**3.
 End of Minotr F.D. properties file   721 does not exist.
 End of Minotr F.D. properties file   722 does not exist.
 End of Minotr F.D. properties file   788 does not exist.

 **********************************************************************

            Population analysis using the SCF Density.

 **********************************************************************

 Orbital symmetries:
       Occupied  (SGG) (SGU) (SGG) (SGU) (SGG) (PIU) (PIU) (PIG)
       Virtual   (PIG) (SGU) (SGG) (SGU) (PIU) (PIU) (SGG) (PIG)
                 (PIG) (SGU) (PIU) (PIU) (DLTG) (DLTG) (DLTU) (DLTU)
                 (SGG) (PIG) (PIG) (SGU) (SGG) (SGU)
 Unable to determine electronic state:  partially filled degenerate orbitals.
 Alpha  occ. eigenvalues --  -19.30736 -19.30712  -1.27663  -0.79821  -0.53151
 Alpha  occ. eigenvalues --   -0.51526  -0.50754  -0.25018
 Alpha virt. eigenvalues --   -0.17928   0.21200   0.67695   0.71502   0.79235
 Alpha virt. eigenvalues --    0.80967   0.86025   0.91525   0.92699   1.28455
 Alpha virt. eigenvalues --    1.48357   1.51443   1.53779   1.53954   1.92367
 Alpha virt. eigenvalues --    1.92557   2.41003   2.53678   2.56701   2.80550
 Alpha virt. eigenvalues --    3.17183   3.50545
          Condensed to atoms (all electrons):
               1          2
     1  O    7.901665   0.098335
     2  O    0.098335   7.901665
 Mulliken charges:
               1
     1  O    0.000000
     2  O    0.000000
 Sum of Mulliken charges =   0.00000
 Mulliken charges with hydrogens summed into heavy atoms:
               1
     1  O    0.000000
     2  O    0.000000
 APT charges:
               1
     1  O    0.000000
     2  O    0.000000
 Sum of APT charges =   0.00000
 APT charges with hydrogens summed into heavy atoms:
               1
     1  O    0.000000
     2  O    0.000000
 Electronic spatial extent (au):  <R**2>=             43.4135
 Charge=              0.0000 electrons
 Dipole moment (field-independent basis, Debye):
    X=              0.0000    Y=             -0.0000    Z=              0.0000  Tot=              0.0000
 Quadrupole moment (field-independent basis, Debye-Ang):
   XX=            -10.7091   YY=             -8.9749   ZZ=            -10.2985
   XY=             -0.0000   XZ=              0.0000   YZ=              0.0000
 Traceless Quadrupole moment (field-independent basis, Debye-Ang):
   XX=             -0.7149   YY=              1.0192   ZZ=             -0.3043
   XY=             -0.0000   XZ=              0.0000   YZ=              0.0000
 Octapole moment (field-independent basis, Debye-Ang**2):
  XXX=             -0.0000  YYY=             -0.0000  ZZZ=             -0.0000  XYY=             -0.0000
  XXY=             -0.0000  XXZ=              0.0000  XZZ=             -0.0000  YZZ=             -0.0000
  YYZ=              0.0000  XYZ=              0.0000
 Hexadecapole moment (field-independent basis, Debye-Ang**3):
 XXXX=             -7.2754 YYYY=             -5.6464 ZZZZ=            -27.8507 XXXY=             -0.0000
 XXXZ=              0.0000 YYYX=             -0.0000 YYYZ=              0.0000 ZZZX=              0.0000
 ZZZY=              0.0000 XXYY=             -2.1536 XXZZ=             -6.6142 YYZZ=             -5.3254
 XXYZ=              0.0000 YYXZ=              0.0000 ZZXY=             -0.0000
 N-N= 2.785090790508D+01 E-N=-4.103782761908D+02  KE= 1.490168390284D+02
 Symmetry AG   KE= 6.923886509776D+01
 Symmetry B1G  KE= 1.896732672482D-34
 Symmetry B2G  KE= 5.932965281065D+00
 Symmetry B3G  KE= 2.964692781084D-32
 Symmetry AU   KE= 4.116484115992D-34
 Symmetry B1U  KE= 6.475503033307D+01
 Symmetry B2U  KE= 4.494792265912D+00
 Symmetry B3U  KE= 4.595186050607D+00
  Exact polarizability:       3.765       0.000       4.451      -0.000      -0.000      11.365
 Approx polarizability:       4.408       0.000       6.353      -0.000      -0.000      24.739
 ******************************Gaussian NBO Version 3.1******************************
             N A T U R A L   A T O M I C   O R B I T A L   A N D
          N A T U R A L   B O N D   O R B I T A L   A N A L Y S I S
 ******************************Gaussian NBO Version 3.1******************************
       /RESON  / : Allow strongly delocalized NBO set

 Analyzing the SCF density

 Job title: O2-B3LYP-6-31G(D)                                               

 Storage needed:      2904 in NPA,      3709 in NBO (1342177252 available)
 GSVD:  LWork=         620 too small for GESVD, short by         150 words or         150 for optimal perf.
 GSVD:  LWork=         516 too small for GESVD, short by         432 words or         432 for optimal perf.


 NATURAL POPULATIONS:  Natural atomic orbital occupancies 
                                                          
   NAO  Atom  No  lang   Type(AO)    Occupancy      Energy
 ----------------------------------------------------------
     1    O    1  S      Cor( 1S)     1.99994     -19.16346
     2    O    1  S      Val( 2S)     1.80823      -0.98133
     3    O    1  S      Ryd( 3S)     0.01245       0.97258
     4    O    1  S      Ryd( 4S)     0.00000       3.21782
     5    O    1  px     Val( 2p)     1.99303      -0.37363
     6    O    1  px     Ryd( 3p)     0.00423       0.87049
     7    O    1  py     Val( 2p)     0.99647      -0.34018
     8    O    1  py     Ryd( 3p)     0.00000       0.85499
     9    O    1  pz     Val( 2p)     1.17280      -0.31073
    10    O    1  pz     Ryd( 3p)     0.00428       0.91085
    11    O    1  dxy    Ryd( 3d)     0.00000       1.73073
    12    O    1  dxz    Ryd( 3d)     0.00274       2.03334
    13    O    1  dyz    Ryd( 3d)     0.00353       2.00189
    14    O    1  dx2y2  Ryd( 3d)     0.00011       1.73247
    15    O    1  dz2    Ryd( 3d)     0.00221       2.56473
 
    16    O    2  S      Cor( 1S)     1.99994     -19.16346
    17    O    2  S      Val( 2S)     1.80823      -0.98133
    18    O    2  S      Ryd( 3S)     0.01245       0.97258
    19    O    2  S      Ryd( 4S)     0.00000       3.21782
    20    O    2  px     Val( 2p)     1.99303      -0.37363
    21    O    2  px     Ryd( 3p)     0.00423       0.87049
    22    O    2  py     Val( 2p)     0.99647      -0.34018
    23    O    2  py     Ryd( 3p)     0.00000       0.85499
    24    O    2  pz     Val( 2p)     1.17280      -0.31073
    25    O    2  pz     Ryd( 3p)     0.00428       0.91085
    26    O    2  dxy    Ryd( 3d)     0.00000       1.73073
    27    O    2  dxz    Ryd( 3d)     0.00274       2.03334
    28    O    2  dyz    Ryd( 3d)     0.00353       2.00189
    29    O    2  dx2y2  Ryd( 3d)     0.00011       1.73247
    30    O    2  dz2    Ryd( 3d)     0.00221       2.56473


 Summary of Natural Population Analysis:                  
                                                          
                                       Natural Population 
                Natural  -----------------------------------------------
    Atom  No    Charge         Core      Valence    Rydberg      Total
 -----------------------------------------------------------------------
      O    1    0.00000      1.99994     5.97052    0.02955     8.00000
      O    2    0.00000      1.99994     5.97052    0.02955     8.00000
 =======================================================================
   * Total *    0.00000      3.99987    11.94104    0.05909    16.00000

                                 Natural Population      
 --------------------------------------------------------
   Core                       3.99987 ( 99.9968% of   4)
   Valence                   11.94104 ( 99.5087% of  12)
   Natural Minimal Basis     15.94091 ( 99.6307% of  16)
   Natural Rydberg Basis      0.05909 (  0.3693% of  16)
 --------------------------------------------------------

    Atom  No          Natural Electron Configuration
 ----------------------------------------------------------------------------
      O    1      [core]2S( 1.81)2p( 4.16)3S( 0.01)3p( 0.01)3d( 0.01)
      O    2      [core]2S( 1.81)2p( 4.16)3S( 0.01)3p( 0.01)3d( 0.01)


 NATURAL BOND ORBITAL ANALYSIS:

                       Occupancies       Lewis Structure    Low   High
           Occ.    -------------------  -----------------   occ   occ
  Cycle   Thresh.   Lewis   Non-Lewis     CR  BD  3C  LP    (L)   (NL)   Dev
 =============================================================================
   1(1)    1.90    15.98997   0.01003      2   2   0   4     0      0    0.02
 -----------------------------------------------------------------------------

 Structure accepted: No low occupancy Lewis orbitals

 --------------------------------------------------------
   Core                      3.99987 ( 99.997% of   4)
   Valence Lewis            11.99010 ( 99.917% of  12)
  ==================       ============================
   Total Lewis              15.98997 ( 99.937% of  16)
  -----------------------------------------------------
   Valence non-Lewis         0.00000 (  0.000% of  16)
   Rydberg non-Lewis         0.01003 (  0.063% of  16)
  ==================       ============================
   Total non-Lewis           0.01003 (  0.063% of  16)
 --------------------------------------------------------


       (Occupancy)   Bond orbital/ Coefficients/ Hybrids
 ---------------------------------------------------------------------------------
     1. (2.00000) BD ( 1) O   1 - O   2  
                ( 50.00%)   0.7071* O   1 s( 19.93%)p 4.01( 79.86%)d 0.01(  0.21%)
                                            0.0000 -0.4340  0.1046  0.0002  0.0000
                                            0.0000  0.0000  0.0000  0.8914 -0.0627
                                            0.0000  0.0000  0.0000  0.0042 -0.0459
                ( 50.00%)   0.7071* O   2 s( 19.93%)p 4.01( 79.86%)d 0.01(  0.21%)
                                           -0.0000 -0.4340  0.1046  0.0002  0.0000
                                            0.0000  0.0000  0.0000 -0.8914  0.0627
                                            0.0000  0.0000  0.0000  0.0042 -0.0459
     2. (2.00000) BD ( 2) O   1 - O   2  
                ( 50.00%)   0.7071* O   1 s(  0.00%)p 1.00( 99.65%)d 0.00(  0.35%)
                                            0.0000  0.0000  0.0000  0.0000  0.0000
                                            0.0000  0.9982  0.0018  0.0000  0.0000
                                            0.0000  0.0000 -0.0594  0.0000  0.0000
                ( 50.00%)   0.7071* O   2 s(  0.00%)p 1.00( 99.65%)d 0.00(  0.35%)
                                            0.0000  0.0000  0.0000  0.0000  0.0000
                                            0.0000  0.9982  0.0018  0.0000  0.0000
                                            0.0000  0.0000  0.0594  0.0000  0.0000
     3. (1.99994) CR ( 1) O   1           s(100.00%)
                                            1.0000  0.0000  0.0000  0.0000  0.0000
                                            0.0000  0.0000  0.0000  0.0000 -0.0000
                                            0.0000  0.0000  0.0000 -0.0000 -0.0000
     4. (1.99994) CR ( 1) O   2           s(100.00%)
                                            1.0000  0.0000  0.0000  0.0000  0.0000
                                            0.0000  0.0000  0.0000 -0.0000  0.0000
                                            0.0000  0.0000  0.0000 -0.0000 -0.0000
     5. (1.99946) LP ( 1) O   1           s( 81.08%)p 0.23( 18.91%)d 0.00(  0.01%)
                                           -0.0000  0.9001  0.0252  0.0001  0.0000
                                            0.0000  0.0000  0.0000  0.4349 -0.0009
                                            0.0000  0.0000  0.0000 -0.0066 -0.0069
     6. (1.99559) LP ( 2) O   1           s(  0.00%)p 1.00( 99.95%)d 0.00(  0.05%)
                                            0.0000  0.0000  0.0000  0.0000  0.9994
                                            0.0275  0.0000  0.0000  0.0000  0.0000
                                            0.0000 -0.0229  0.0000  0.0000  0.0000
     7. (1.99946) LP ( 1) O   2           s( 81.08%)p 0.23( 18.91%)d 0.00(  0.01%)
                                           -0.0000  0.9001  0.0252  0.0001  0.0000
                                            0.0000  0.0000  0.0000 -0.4349  0.0009
                                            0.0000  0.0000  0.0000 -0.0066 -0.0069
     8. (1.99559) LP ( 2) O   2           s(  0.00%)p 1.00( 99.95%)d 0.00(  0.05%)
                                            0.0000  0.0000  0.0000  0.0000  0.9994
                                            0.0275  0.0000  0.0000  0.0000  0.0000
                                            0.0000  0.0229  0.0000  0.0000  0.0000
     9. (0.00441) RY*( 1) O   1           s(  0.00%)p 1.00( 61.69%)d 0.62( 38.31%)
                                            0.0000  0.0000  0.0000  0.0000 -0.0075
                                            0.7854  0.0000  0.0000  0.0000  0.0000
                                            0.0000  0.6189  0.0000  0.0000  0.0000
    10. (0.00059) RY*( 2) O   1           s( 41.09%)p 1.43( 58.90%)d 0.00(  0.01%)
                                           -0.0000  0.0349  0.6366 -0.0664 -0.0000
                                           -0.0000 -0.0000 -0.0000 -0.1108 -0.7594
                                           -0.0000 -0.0000 -0.0000 -0.0083  0.0044
    11. (0.00000) RY*( 3) O   1           s( 58.13%)p 0.72( 41.87%)d 0.00(  0.00%)
    12. (0.00001) RY*( 4) O   1           s(  0.02%)p 9.67(  0.20%)d99.99( 99.78%)
    13. (0.00000) RY*( 5) O   1           s( 99.74%)p 0.00(  0.26%)d 0.00(  0.00%)
    14. (0.00000) RY*( 6) O   1           s(  0.00%)p 0.00(  0.00%)d 1.00(100.00%)
    15. (0.00000) RY*( 7) O   1           s(  0.00%)p 1.00( 38.36%)d 1.61( 61.64%)
    16. (0.00000) RY*( 8) O   1           s(  0.00%)p 1.00(  0.35%)d99.99( 99.65%)
    17. (0.00000) RY*( 9) O   1           s(  0.01%)p 0.00(  0.00%)d 1.00( 99.99%)
    18. (0.00000) RY*(10) O   1           s(  0.00%)p 1.00(100.00%)d 0.00(  0.00%)
    19. (0.00441) RY*( 1) O   2           s(  0.00%)p 1.00( 61.69%)d 0.62( 38.31%)
                                            0.0000  0.0000  0.0000  0.0000 -0.0075
                                            0.7854  0.0000  0.0000  0.0000  0.0000
                                            0.0000 -0.6189  0.0000  0.0000  0.0000
    20. (0.00059) RY*( 2) O   2           s( 41.09%)p 1.43( 58.90%)d 0.00(  0.01%)
                                            0.0000  0.0349  0.6366 -0.0664  0.0000
                                            0.0000  0.0000  0.0000  0.1108  0.7594
                                            0.0000  0.0000  0.0000 -0.0083  0.0044
    21. (0.00000) RY*( 3) O   2           s( 58.13%)p 0.72( 41.87%)d 0.00(  0.00%)
    22. (0.00001) RY*( 4) O   2           s(  0.02%)p 9.67(  0.20%)d99.99( 99.78%)
    23. (0.00000) RY*( 5) O   2           s( 99.74%)p 0.00(  0.26%)d 0.00(  0.00%)
    24. (0.00000) RY*( 6) O   2           s(  0.00%)p 0.00(  0.00%)d 1.00(100.00%)
    25. (0.00000) RY*( 7) O   2           s(  0.00%)p 1.00( 38.36%)d 1.61( 61.64%)
    26. (0.00000) RY*( 8) O   2           s(  0.00%)p 1.00(  0.35%)d99.99( 99.65%)
    27. (0.00000) RY*( 9) O   2           s(  0.01%)p 0.00(  0.00%)d 1.00( 99.99%)
    28. (0.00000) RY*(10) O   2           s(  0.00%)p 1.00(100.00%)d 0.00(  0.00%)
    29. (0.00000) BD*( 1) O   1 - O   2  
                ( 50.00%)   0.7071* O   1 s( 19.93%)p 4.01( 79.86%)d 0.01(  0.21%)
                ( 50.00%)  -0.7071* O   2 s( 19.93%)p 4.01( 79.86%)d 0.01(  0.21%)
    30. (0.00000) BD*( 2) O   1 - O   2  
                ( 50.00%)   0.7071* O   1 s(  0.00%)p 1.00( 99.65%)d 0.00(  0.35%)
                ( 50.00%)  -0.7071* O   2 s(  0.00%)p 1.00( 99.65%)d 0.00(  0.35%)


 NHO Directionality and "Bond Bending" (deviations from line of nuclear centers)

         [Thresholds for printing:  angular deviation  >  1.0 degree]
                                    hybrid p-character > 25.0%
                                    orbital occupancy  >  0.10e

                                Line of Centers        Hybrid 1              Hybrid 2
                                ---------------  -------------------   ------------------
                NBO               Theta   Phi    Theta   Phi    Dev    Theta   Phi    Dev
 ========================================================================================
     2. BD (   2) O   1 - O   2   180.0    0.0    90.0   90.0  90.0     90.0   90.0  90.0
     6. LP (   2) O   1             --     --     90.0    0.0   --       --     --    --
     8. LP (   2) O   2             --     --     90.0    0.0   --       --     --    --


 Second Order Perturbation Theory Analysis of Fock Matrix in NBO Basis

     Threshold for printing:   0.50 kcal/mol
                                                                              E(2)  E(j)-E(i) F(i,j)
         Donor NBO (i)                     Acceptor NBO (j)                 kcal/mol   a.u.    a.u. 
 ===================================================================================================

 within unit  1
   3. CR (   1) O   1                / 20. RY*(   2) O   2                    0.93   20.23    0.122
   4. CR (   1) O   2                / 10. RY*(   2) O   1                    0.93   20.23    0.122
   5. LP (   1) O   1                / 20. RY*(   2) O   2                    0.99    1.97    0.039
   6. LP (   2) O   1                / 19. RY*(   1) O   2                    4.60    1.65    0.078
   7. LP (   1) O   2                / 10. RY*(   2) O   1                    0.99    1.97    0.039
   8. LP (   2) O   2                /  9. RY*(   1) O   1                    4.60    1.65    0.078


 Natural Bond Orbitals (Summary):

                                                            Principal Delocalizations
           NBO                        Occupancy    Energy   (geminal,vicinal,remote)
 ====================================================================================
 Molecular unit  1  (O2)
     1. BD (   1) O   1 - O   2          2.00000    -1.08706   
     2. BD (   2) O   1 - O   2          2.00000    -0.51526   
     3. CR (   1) O   1                  1.99994   -19.16357  20(v)
     4. CR (   1) O   2                  1.99994   -19.16357  10(v)
     5. LP (   1) O   1                  1.99946    -0.90190  20(v)
     6. LP (   2) O   1                  1.99559    -0.37520  19(v)
     7. LP (   1) O   2                  1.99946    -0.90190  10(v)
     8. LP (   2) O   2                  1.99559    -0.37520  9(v)
     9. RY*(   1) O   1                  0.00441     1.27581   
    10. RY*(   2) O   1                  0.00059     1.06560   
    11. RY*(   3) O   1                  0.00000     0.82493   
    12. RY*(   4) O   1                  0.00001     2.56023   
    13. RY*(   5) O   1                  0.00000     3.18891   
    14. RY*(   6) O   1                  0.00000     1.73073   
    15. RY*(   7) O   1                  0.00000     1.62959   
    16. RY*(   8) O   1                  0.00000     1.99966   
    17. RY*(   9) O   1                  0.00000     1.73268   
    18. RY*(  10) O   1                  0.00000     0.85515   
    19. RY*(   1) O   2                  0.00441     1.27581   
    20. RY*(   2) O   2                  0.00059     1.06560   
    21. RY*(   3) O   2                  0.00000     0.82493   
    22. RY*(   4) O   2                  0.00001     2.56023   
    23. RY*(   5) O   2                  0.00000     3.18891   
    24. RY*(   6) O   2                  0.00000     1.73073   
    25. RY*(   7) O   2                  0.00000     1.62959   
    26. RY*(   8) O   2                  0.00000     1.99966   
    27. RY*(   9) O   2                  0.00000     1.73268   
    28. RY*(  10) O   2                  0.00000     0.85515   
    29. BD*(   1) O   1 - O   2          0.00000     0.35919   
    30. BD*(   2) O   1 - O   2          0.00000    -0.16095   
       -------------------------------
              Total Lewis   15.98997  ( 99.9373%)
        Valence non-Lewis    0.00000  (  0.0000%)
        Rydberg non-Lewis    0.01003  (  0.0627%)
       -------------------------------
            Total unit  1   16.00000  (100.0000%)
           Charge unit  1    0.00000
 Calling FoFJK, ICntrl=    100127 FMM=F ISym2X=1 I1Cent= 0 IOpClX= 0 NMat=1 NMatS=1 NMatT=0.
 Full mass-weighted force constant matrix:
 Low frequencies ---   -0.0002   -0.0002    0.0012   13.3395   13.4978 1642.7408
 Diagonal vibrational polarizability:
        0.0000000       0.0000000       0.0000000
 Harmonic frequencies (cm**-1), IR intensities (KM/Mole), Raman scattering
 activities (A**4/AMU), depolarization ratios for plane and unpolarized
 incident light, reduced masses (AMU), force constants (mDyne/A),
 and normal coordinates:
                      1
                     SGG
 Frequencies --   1642.7408
 Red. masses --     15.9949
 Frc consts  --     25.4314
 IR Inten    --      0.0000
  Atom  AN      X      Y      Z
     1   8    -0.00  -0.00   0.71
     2   8     0.00   0.00  -0.71

 -------------------
 - Thermochemistry -
 -------------------
 Temperature   298.150 Kelvin.  Pressure   1.00000 Atm.
 Atom     1 has atomic number  8 and mass  15.99491
 Atom     2 has atomic number  8 and mass  15.99491
 Molecular mass:    31.98983 amu.
 Principal axes and moments of inertia in atomic units:
                           1         2         3
     Eigenvalues --     0.00000  42.23117  42.23117
           X           -0.00000   0.78482   0.61972
           Y           -0.00000  -0.61972   0.78482
           Z            1.00000   0.00000   0.00000
 This molecule is a prolate symmetric top.
 Rotational symmetry number  2.
 Rotational temperature (Kelvin)      2.05095
 Rotational constant (GHZ):          42.734809
 Zero-point vibrational energy       9825.8 (Joules/Mol)
                                    2.34842 (Kcal/Mol)
 Vibrational temperatures:   2363.54
          (Kelvin)
 
 Zero-point correction=                           0.003742 (Hartree/Particle)
 Thermal correction to Energy=                    0.006106
 Thermal correction to Enthalpy=                  0.007050
 Thermal correction to Gibbs Free Energy=        -0.015201
 Sum of electronic and zero-point Energies=           -150.253682
 Sum of electronic and thermal Energies=              -150.251319
 Sum of electronic and thermal Enthalpies=            -150.250375
 Sum of electronic and thermal Free Energies=         -150.272626
 
                     E (Thermal)             CV                S
                      KCal/Mol        Cal/Mol-Kelvin    Cal/Mol-Kelvin
 Total                    3.831              5.013             46.832
 Electronic               0.000              0.000              0.000
 Translational            0.889              2.981             36.321
 Rotational               0.592              1.987             10.505
 Vibrational              2.350              0.045              0.006
                       Q            Log10(Q)             Ln(Q)
 Total Bot       0.982150D+07          6.992178         16.100085
 Total V=0       0.517105D+09          8.713579         20.063757
 Vib (Bot)       0.190001D-01         -1.721244         -3.963311
 Vib (V=0)       0.100036D+01          0.000157          0.000361
 Electronic      0.100000D+01          0.000000          0.000000
 Translational   0.711167D+07          6.851972         15.777248
 Rotational      0.726859D+02          1.861450          4.286148
 ***** Axes restored to original set *****
 -------------------------------------------------------------------
 Center     Atomic                   Forces (Hartrees/Bohr)
 Number     Number              X              Y              Z
 -------------------------------------------------------------------
      1        8          -0.000129944    0.000000000   -0.000000000
      2        8           0.000129944   -0.000000000    0.000000000
 -------------------------------------------------------------------
 Cartesian Forces:  Max     0.000129944 RMS     0.000075023
 FormGI is forming the generalized inverse of G from B-inverse, IUseBI=4.

 GradGradGradGradGradGradGradGradGradGradGradGradGradGradGradGradGradGrad
 Berny optimization.
 Internal  Forces:  Max     0.000129944 RMS     0.000129944
 Search for a local minimum.
 Step number   1 out of a maximum of    2
 All quantities printed in internal units (Hartrees-Bohrs-Radians)
 Second derivative matrix not updated -- analytic derivatives used.
 The second derivative matrix:
                          R1
           R1           0.81674
 ITU=  0
     Eigenvalues ---    0.81674
 Angle between quadratic step and forces=   0.00 degrees.
 Linear search not attempted -- first point.
 Iteration  1 RMS(Cart)=  0.00011250 RMS(Int)=  0.00000000
 Iteration  2 RMS(Cart)=  0.00000000 RMS(Int)=  0.00000000
 ClnCor:  largest displacement from symmetrization is 4.87D-21 for atom     2.
 Variable       Old X    -DE/DX   Delta X   Delta X   Delta X     New X
                                 (Linear)    (Quad)   (Total)
    R1        2.29795  -0.00013   0.00000  -0.00016  -0.00016   2.29779
         Item               Value     Threshold  Converged?
 Maximum Force            0.000130     0.000450     YES
 RMS     Force            0.000130     0.000300     YES
 Maximum Displacement     0.000080     0.001800     YES
 RMS     Displacement     0.000113     0.001200     YES
 Predicted change in Energy=-1.033721D-08
 Optimization completed.
    -- Stationary point found.
                           ----------------------------
                           !   Optimized Parameters   !
                           ! (Angstroms and Degrees)  !
 --------------------------                            --------------------------
 ! Name  Definition              Value          Derivative Info.                !
 --------------------------------------------------------------------------------
 ! R1    R(1,2)                  1.216          -DE/DX =   -0.0001              !
 --------------------------------------------------------------------------------
 GradGradGradGradGradGradGradGradGradGradGradGradGradGradGradGradGradGrad

 Dipole is zero, so no output in dipole orientation.

 ----------------------------------------------------------------------

 Electric dipole moment (input orientation):
 (Debye = 10**-18 statcoulomb cm , SI units = C m)
                  (au)            (Debye)         (10**-30 SI)
   Tot        0.000000D+00      0.000000D+00      0.000000D+00
   x          0.000000D+00      0.000000D+00      0.000000D+00
   y          0.000000D+00      0.000000D+00      0.000000D+00
   z          0.000000D+00      0.000000D+00      0.000000D+00

 Dipole polarizability, Alpha (input orientation).
 (esu units = cm**3 , SI units = C**2 m**2 J**-1)
 Alpha(0;0):
               (au)            (10**-24 esu)      (10**-40 SI)
   iso        0.652706D+01      0.967211D+00      0.107617D+01
   aniso      0.728141D+01      0.107899D+01      0.120054D+01
   xx         0.113651D+02      0.168414D+01      0.187386D+01
   yx         0.000000D+00      0.000000D+00      0.000000D+00
   yy         0.445101D+01      0.659572D+00      0.733873D+00
   zx         0.000000D+00      0.000000D+00      0.000000D+00
   zy         0.000000D+00      0.000000D+00      0.000000D+00
   zz         0.376502D+01      0.557919D+00      0.620768D+00

 ----------------------------------------------------------------------
 Unable to Open any file for archive entry.
 1\1\GINC-LOCALHOST\Freq\RB3LYP\6-31G(d)\O2\USER\21-Mar-2026\0\\#N Geom
 =AllCheck Guess=TCheck SCRF=Check GenChk RB3LYP/6-31G(d) Freq\\O2-B3LY
 P-6-31G(D)\\0,1\O,0.8498609746,0.10683761,0.\O,-0.3661619146,0.1068376
 1,0.\\Version=ES64L-G16RevC.02\HF=-150.2574243\RMSD=1.152e-10\RMSF=7.5
 02e-05\ZeroPoint=0.0037424\Thermal=0.0061056\ETot=-150.2513187\HTot=-1
 50.2503746\GTot=-150.2726258\Dipole=0.,0.,0.\DipoleDeriv=0.,0.,0.,0.,0
 .,0.,0.,0.,0.,0.,0.,0.,0.,0.,0.,0.,0.,0.\Polar=11.3651479,0.,4.4510126
 ,0.,0.,3.7650215\Quadrupole=-0.2262369,0.7577644,-0.5315275,0.,0.,0.\P
 G=D*H [C*(O1.O1)]\NImag=0\\0.81673554,0.,0.00005385,0.,0.,0.00005514,-
 0.81673554,0.,0.,0.81673554,0.,-0.00005385,0.,0.,0.00005385,0.,0.,-0.0
 0005514,0.,0.,0.00005514\\0.00012994,0.,0.,-0.00012994,0.,0.\\\@
 The archive entry for this job was punched.


 SOME PEOPLE TRY TO PULL THE WOOL OVER YOUR EYES
 USING THE WRONG YARN.
 Job cpu time:       0 days  0 hours  0 minutes 34.5 seconds.
 Elapsed time:       0 days  0 hours  0 minutes  2.2 seconds.
 File lengths (MBytes):  RWF=      6 Int=      0 D2E=      0 Chk=      1 Scr=      1
 Normal termination of Gaussian 16 at Sat Mar 21 10:16:25 2026.
