 Entering Gaussian System, Link 0=g16
 Input=O2-B3LYP-CC-PVDZ.gjf
 Output=O2-B3LYP-CC-PVDZ.log
 Initial command:
 /home/user/gaussian16_I/g16/l1.exe "/home/user/gaussian16_I/temp/Gau-3552240.inp" -scrdir="/home/user/gaussian16_I/temp/"
 Entering Link 1 = /home/user/gaussian16_I/g16/l1.exe PID=   3552241.
  
 Copyright (c) 1988-2021, Gaussian, Inc.  All Rights Reserved.
  
 This is part of the Gaussian(R) 16 program.  It is based on
 the Gaussian(R) 09 system (copyright 2009, Gaussian, Inc.),
 the Gaussian(R) 03 system (copyright 2003, Gaussian, Inc.),
 the Gaussian(R) 98 system (copyright 1998, Gaussian, Inc.),
 the Gaussian(R) 94 system (copyright 1995, Gaussian, Inc.),
 the Gaussian 92(TM) system (copyright 1992, Gaussian, Inc.),
 the Gaussian 90(TM) system (copyright 1990, Gaussian, Inc.),
 the Gaussian 88(TM) system (copyright 1988, Gaussian, Inc.),
 the Gaussian 86(TM) system (copyright 1986, Carnegie Mellon
 University), and the Gaussian 82(TM) system (copyright 1983,
 Carnegie Mellon University). Gaussian is a federally registered
 trademark of Gaussian, Inc.
  
 This software contains proprietary and confidential information,
 including trade secrets, belonging to Gaussian, Inc.
  
 This software is provided under written license and may be
 used, copied, transmitted, or stored only in accord with that
 written license.
  
 The following legend is applicable only to US Government
 contracts under FAR:
  
                    RESTRICTED RIGHTS LEGEND
  
 Use, reproduction and disclosure by the US Government is
 subject to restrictions as set forth in subparagraphs (a)
 and (c) of the Commercial Computer Software - Restricted
 Rights clause in FAR 52.227-19.
  
 Gaussian, Inc.
 340 Quinnipiac St., Bldg. 40, Wallingford CT 06492
  
  
 ---------------------------------------------------------------
 Warning -- This program may not be used in any manner that
 competes with the business of Gaussian, Inc. or will provide
 assistance to any competitor of Gaussian, Inc.  The licensee
 of this program is prohibited from giving any competitor of
 Gaussian, Inc. access to this program.  By using this program,
 the user acknowledges that Gaussian, Inc. is engaged in the
 business of creating and licensing software in the field of
 computational chemistry and represents and warrants to the
 licensee that it is not a competitor of Gaussian, Inc. and that
 it will not use this program in any manner prohibited above.
 ---------------------------------------------------------------
  

 Cite this work as:
 Gaussian 16, Revision C.02,
 M. J. Frisch, G. W. Trucks, H. B. Schlegel, G. E. Scuseria, 
 M. A. Robb, J. R. Cheeseman, G. Scalmani, V. Barone, 
 G. A. Petersson, H. Nakatsuji, X. Li, M. Caricato, A. V. Marenich, 
 J. Bloino, B. G. Janesko, R. Gomperts, B. Mennucci, H. P. Hratchian, 
 J. V. Ortiz, A. F. Izmaylov, J. L. Sonnenberg, D. Williams-Young, 
 F. Ding, F. Lipparini, F. Egidi, J. Goings, B. Peng, A. Petrone, 
 T. Henderson, D. Ranasinghe, V. G. Zakrzewski, J. Gao, N. Rega, 
 G. Zheng, W. Liang, M. Hada, M. Ehara, K. Toyota, R. Fukuda, 
 J. Hasegawa, M. Ishida, T. Nakajima, Y. Honda, O. Kitao, H. Nakai, 
 T. Vreven, K. Throssell, J. A. Montgomery, Jr., J. E. Peralta, 
 F. Ogliaro, M. J. Bearpark, J. J. Heyd, E. N. Brothers, K. N. Kudin, 
 V. N. Staroverov, T. A. Keith, R. Kobayashi, J. Normand, 
 K. Raghavachari, A. P. Rendell, J. C. Burant, S. S. Iyengar, 
 J. Tomasi, M. Cossi, J. M. Millam, M. Klene, C. Adamo, R. Cammi, 
 J. W. Ochterski, R. L. Martin, K. Morokuma, O. Farkas, 
 J. B. Foresman, and D. J. Fox, Gaussian, Inc., Wallingford CT, 2019.
 
 ******************************************
 Gaussian 16:  ES64L-G16RevC.02  7-Dec-2021
                21-Mar-2026 
 ******************************************
 %mem=10GB
 %CPU=0-23
 SetSPE:  set environment variable "OMP_PROC_BIND" = "true"
 SetSPE:  set environment variable "OMP_PLACES" = "{0},{1},{2},{3},{4},{5},{6},{7},{8},{9},{10},{11},{12},{13},{14},{15},{16},{17},{18},{19},{20},{21},{22},{23}"
 Will use up to   24 processors via shared memory.
 %chk=O2-B3LYP-CC-PVDZ.chk
 --------------------------------------------------
 # opt freq b3lyp/cc-pvdz pop=nbo geom=connectivity
 --------------------------------------------------
 1/18=20,19=15,26=3,38=1,57=2/1,3;
 2/9=110,12=2,17=6,18=5,40=1/2;
 3/5=16,11=2,25=1,30=1,71=1,74=-5/1,2,3;
 4//1;
 5/5=2,38=5/2;
 6/7=2,8=2,9=2,10=2,28=1,40=1/1,7;
 7//1,2,3,16;
 1/18=20,19=15,26=3/3(2);
 2/9=110/2;
 99//99;
 2/9=110/2;
 3/5=16,11=2,25=1,30=1,71=1,74=-5/1,2,3;
 4/5=5,16=3,69=1/1;
 5/5=2,38=5/2;
 7//1,2,3,16;
 1/18=20,19=15,26=3/3(-5);
 2/9=110/2;
 6/7=2,8=2,9=2,10=2,19=2,28=1,40=1/1,7;
 99/9=1/99;
 ----------------
 O2-B3LYP-CC-PVDZ
 ----------------
 Symbolic Z-matrix:
 Charge =  0 Multiplicity = 1
 O                     0.82265   0.10684   0. 
 O                    -0.33895   0.10684   0. 
 

 GradGradGradGradGradGradGradGradGradGradGradGradGradGradGradGradGradGrad
 Berny optimization.
 Initialization pass.
                           ----------------------------
                           !    Initial Parameters    !
                           ! (Angstroms and Degrees)  !
 --------------------------                            --------------------------
 ! Name  Definition              Value          Derivative Info.                !
 --------------------------------------------------------------------------------
 ! R1    R(1,2)                  1.1616         estimate D2E/DX2                !
 --------------------------------------------------------------------------------
 Trust Radius=3.00D-01 FncErr=1.00D-07 GrdErr=1.00D-06 EigMax=2.50D+02 EigMin=1.00D-04
 Number of steps in this run=     20 maximum allowed number of steps=    100.
 GradGradGradGradGradGradGradGradGradGradGradGradGradGradGradGradGradGrad

                          Input orientation:                          
 ---------------------------------------------------------------------
 Center     Atomic      Atomic             Coordinates (Angstroms)
 Number     Number       Type             X           Y           Z
 ---------------------------------------------------------------------
      1          8           0        0.822650    0.106838    0.000000
      2          8           0       -0.338950    0.106838    0.000000
 ---------------------------------------------------------------------
 Stoichiometry    O2
 Framework group  D*H[C*(O.O)]
 Deg. of freedom     1
 Full point group                 D*H     NOp   8
 Largest Abelian subgroup         D2H     NOp   8
 Largest concise Abelian subgroup C2      NOp   2
                         Standard orientation:                         
 ---------------------------------------------------------------------
 Center     Atomic      Atomic             Coordinates (Angstroms)
 Number     Number       Type             X           Y           Z
 ---------------------------------------------------------------------
      1          8           0        0.000000    0.000000    0.580800
      2          8           0        0.000000    0.000000   -0.580800
 ---------------------------------------------------------------------
 Rotational constants (GHZ):           0.0000000          46.8330090          46.8330090
 Standard basis: CC-pVDZ (5D, 7F)
 There are     8 symmetry adapted cartesian basis functions of AG  symmetry.
 There are     1 symmetry adapted cartesian basis functions of B1G symmetry.
 There are     3 symmetry adapted cartesian basis functions of B2G symmetry.
 There are     3 symmetry adapted cartesian basis functions of B3G symmetry.
 There are     1 symmetry adapted cartesian basis functions of AU  symmetry.
 There are     8 symmetry adapted cartesian basis functions of B1U symmetry.
 There are     3 symmetry adapted cartesian basis functions of B2U symmetry.
 There are     3 symmetry adapted cartesian basis functions of B3U symmetry.
 There are     7 symmetry adapted basis functions of AG  symmetry.
 There are     1 symmetry adapted basis functions of B1G symmetry.
 There are     3 symmetry adapted basis functions of B2G symmetry.
 There are     3 symmetry adapted basis functions of B3G symmetry.
 There are     1 symmetry adapted basis functions of AU  symmetry.
 There are     7 symmetry adapted basis functions of B1U symmetry.
 There are     3 symmetry adapted basis functions of B2U symmetry.
 There are     3 symmetry adapted basis functions of B3U symmetry.
    28 basis functions,    66 primitive gaussians,    30 cartesian basis functions
     8 alpha electrons        8 beta electrons
       nuclear repulsion energy        29.1557691967 Hartrees.
 NAtoms=    2 NActive=    2 NUniq=    1 SFac= 4.00D+00 NAtFMM=   60 NAOKFM=F Big=F
 Integral buffers will be    131072 words long.
 Raffenetti 2 integral format.
 Two-electron integral symmetry is turned on.
 One-electron integrals computed using PRISM.
 NBasis=    28 RedAO= T EigKep=  1.66D-02  NBF=     7     1     3     3     1     7     3     3
 NBsUse=    28 1.00D-06 EigRej= -1.00D+00 NBFU=     7     1     3     3     1     7     3     3
 ExpMin= 2.75D-01 ExpMax= 1.17D+04 ExpMxC= 4.01D+02 IAcc=3 IRadAn=         5 AccDes= 0.00D+00
 Harris functional with IExCor=  402 and IRadAn=       5 diagonalized for initial guess.
 HarFok:  IExCor=  402 AccDes= 0.00D+00 IRadAn=         5 IDoV= 1 UseB2=F ITyADJ=14
 ICtDFT=  3500011 ScaDFX=  1.000000  1.000000  1.000000  1.000000
 FoFCou: FMM=F IPFlag=           0 FMFlag=      100000 FMFlg1=           0
         NFxFlg=           0 DoJE=T BraDBF=F KetDBF=T FulRan=T
         wScrn=  0.000000 ICntrl=       500 IOpCl=  0 I1Cent=   200000004 NGrid=           0
         NMat0=    1 NMatS0=      1 NMatT0=    0 NMatD0=    1 NMtDS0=    0 NMtDT0=    0
 Petite list used in FoFCou.
 Initial guess orbital symmetries:
       Occupied  (SGU) (SGG) (SGG) (SGU) (SGG) (PIU) (PIU) (PIG)
       Virtual   (PIG) (SGU) (SGU) (PIU) (PIU) (SGG) (PIG) (PIG)
                 (SGG) (SGU) (PIU) (PIU) (DLTG) (DLTG) (DLTU) (DLTU)
                 (SGG) (PIG) (PIG) (SGU)
 Keep R1 ints in memory in symmetry-blocked form, NReq=20812887.
 Requested convergence on RMS density matrix=1.00D-08 within 128 cycles.
 Requested convergence on MAX density matrix=1.00D-06.
 Requested convergence on             energy=1.00D-06.
 No special actions if energy rises.
 Integral accuracy reduced to 1.0D-05 until final iterations.
 Initial convergence to 1.0D-05 achieved.  Increase integral accuracy.
 SCF Done:  E(RB3LYP) =  -150.267652321     A.U. after    8 cycles
            NFock=  8  Conv=0.45D-08     -V/T= 2.0029

 **********************************************************************

            Population analysis using the SCF Density.

 **********************************************************************

 Orbital symmetries:
       Occupied  (SGG) (SGU) (SGG) (SGU) (PIU) (SGG) (PIU) (PIG)
       Virtual   (PIG) (SGU) (SGU) (PIU) (PIU) (SGG) (PIG) (PIG)
                 (SGG) (SGU) (PIU) (PIU) (DLTG) (DLTG) (DLTU) (DLTU)
                 (SGG) (PIG) (PIG) (SGU)
 Unable to determine electronic state:  partially filled degenerate orbitals.
 Alpha  occ. eigenvalues --  -19.28077 -19.28055  -1.32136  -0.77814  -0.53252
 Alpha  occ. eigenvalues --   -0.53196  -0.52315  -0.22720
 Alpha virt. eigenvalues --   -0.15597   0.28594   0.80228   0.82030   0.83881
 Alpha virt. eigenvalues --    0.87967   0.94417   0.95601   1.06212   1.72380
 Alpha virt. eigenvalues --    2.06292   2.09535   2.32030   2.32258   2.67433
 Alpha virt. eigenvalues --    2.67691   2.91800   3.34808   3.38145   3.77509
          Condensed to atoms (all electrons):
               1          2
     1  O    7.881673   0.118327
     2  O    0.118327   7.881673
 Mulliken charges:
               1
     1  O   -0.000000
     2  O   -0.000000
 Sum of Mulliken charges =  -0.00000
 Mulliken charges with hydrogens summed into heavy atoms:
               1
     1  O   -0.000000
     2  O   -0.000000
 Electronic spatial extent (au):  <R**2>=             41.4140
 Charge=             -0.0000 electrons
 Dipole moment (field-independent basis, Debye):
    X=             -0.0000    Y=             -0.0000    Z=             -0.0000  Tot=              0.0000
 Quadrupole moment (field-independent basis, Debye-Ang):
   XX=             -8.7712   YY=            -10.5410   ZZ=            -10.4669
   XY=              0.0000   XZ=              0.0000   YZ=              0.0000
 Traceless Quadrupole moment (field-independent basis, Debye-Ang):
   XX=              1.1551   YY=             -0.6146   ZZ=             -0.5405
   XY=              0.0000   XZ=              0.0000   YZ=              0.0000
 Octapole moment (field-independent basis, Debye-Ang**2):
  XXX=             -0.0000  YYY=             -0.0000  ZZZ=              0.0000  XYY=             -0.0000
  XXY=             -0.0000  XXZ=              0.0000  XZZ=             -0.0000  YZZ=             -0.0000
  YYZ=              0.0000  XYZ=              0.0000
 Hexadecapole moment (field-independent basis, Debye-Ang**3):
 XXXX=             -5.3559 YYYY=             -7.0281 ZZZZ=            -25.9538 XXXY=              0.0000
 XXXZ=              0.0000 YYYX=              0.0000 YYYZ=              0.0000 ZZZX=              0.0000
 ZZZY=              0.0000 XXYY=             -2.0640 XXZZ=             -4.9337 YYZZ=             -6.1953
 XXYZ=              0.0000 YYXZ=              0.0000 ZZXY=             -0.0000
 N-N= 2.915576919669D+01 E-N=-4.138075453259D+02  KE= 1.498272480323D+02
 Symmetry AG   KE= 6.977726563830D+01
 Symmetry B1G  KE= 1.518470602988D-34
 Symmetry B2G  KE= 3.369481017639D-32
 Symmetry B3G  KE= 5.985018201882D+00
 Symmetry AU   KE= 3.295495278494D-34
 Symmetry B1U  KE= 6.491139278263D+01
 Symmetry B2U  KE= 4.623921817848D+00
 Symmetry B3U  KE= 4.529649591662D+00
 ******************************Gaussian NBO Version 3.1******************************
             N A T U R A L   A T O M I C   O R B I T A L   A N D
          N A T U R A L   B O N D   O R B I T A L   A N A L Y S I S
 ******************************Gaussian NBO Version 3.1******************************
       /RESON  / : Allow strongly delocalized NBO set

 Analyzing the SCF density

 Job title: O2-B3LYP-CC-PVDZ                                                

 Storage needed:      2518 in NPA,      3238 in NBO (1342177252 available)
 GSVD:  LWork=         504 too small for GESVD, short by         266 words or         266 for optimal perf.
 GSVD:  LWork=         592 too small for GESVD, short by           8 words or           8 for optimal perf.
 GSVD:  LWork=         504 too small for GESVD, short by         266 words or         266 for optimal perf.


 NATURAL POPULATIONS:  Natural atomic orbital occupancies 
                                                          
   NAO  Atom  No  lang   Type(AO)    Occupancy      Energy
 ----------------------------------------------------------
     1    O    1  S      Cor( 1S)     1.99989     -19.11964
     2    O    1  S      Val( 2S)     1.77726      -0.96540
     3    O    1  S      Ryd( 3S)     0.01083       1.38273
     4    O    1  px     Val( 2p)     0.99684      -0.33538
     5    O    1  px     Ryd( 3p)     0.00000       0.88099
     6    O    1  py     Val( 2p)     1.99136      -0.36822
     7    O    1  py     Ryd( 3p)     0.00601       0.89717
     8    O    1  pz     Val( 2p)     1.20378      -0.30022
     9    O    1  pz     Ryd( 3p)     0.00542       0.84452
    10    O    1  dxy    Ryd( 3d)     0.00000       2.49732
    11    O    1  dxz    Ryd( 3d)     0.00316       2.69787
    12    O    1  dyz    Ryd( 3d)     0.00263       2.73168
    13    O    1  dx2y2  Ryd( 3d)     0.00008       2.49975
    14    O    1  dz2    Ryd( 3d)     0.00274       3.28506
 
    15    O    2  S      Cor( 1S)     1.99989     -19.11964
    16    O    2  S      Val( 2S)     1.77726      -0.96540
    17    O    2  S      Ryd( 3S)     0.01083       1.38273
    18    O    2  px     Val( 2p)     0.99684      -0.33538
    19    O    2  px     Ryd( 3p)     0.00000       0.88099
    20    O    2  py     Val( 2p)     1.99136      -0.36822
    21    O    2  py     Ryd( 3p)     0.00601       0.89717
    22    O    2  pz     Val( 2p)     1.20378      -0.30022
    23    O    2  pz     Ryd( 3p)     0.00542       0.84452
    24    O    2  dxy    Ryd( 3d)     0.00000       2.49732
    25    O    2  dxz    Ryd( 3d)     0.00316       2.69787
    26    O    2  dyz    Ryd( 3d)     0.00263       2.73168
    27    O    2  dx2y2  Ryd( 3d)     0.00008       2.49975
    28    O    2  dz2    Ryd( 3d)     0.00274       3.28506


 Summary of Natural Population Analysis:                  
                                                          
                                       Natural Population 
                Natural  -----------------------------------------------
    Atom  No    Charge         Core      Valence    Rydberg      Total
 -----------------------------------------------------------------------
      O    1   -0.00000      1.99989     5.96924    0.03087     8.00000
      O    2   -0.00000      1.99989     5.96924    0.03087     8.00000
 =======================================================================
   * Total *   -0.00000      3.99978    11.93849    0.06174    16.00000

                                 Natural Population      
 --------------------------------------------------------
   Core                       3.99978 ( 99.9944% of   4)
   Valence                   11.93849 ( 99.4874% of  12)
   Natural Minimal Basis     15.93826 ( 99.6141% of  16)
   Natural Rydberg Basis      0.06174 (  0.3859% of  16)
 --------------------------------------------------------

    Atom  No          Natural Electron Configuration
 ----------------------------------------------------------------------------
      O    1      [core]2S( 1.78)2p( 4.19)3S( 0.01)3p( 0.01)3d( 0.01)
      O    2      [core]2S( 1.78)2p( 4.19)3S( 0.01)3p( 0.01)3d( 0.01)


 NATURAL BOND ORBITAL ANALYSIS:

                       Occupancies       Lewis Structure    Low   High
           Occ.    -------------------  -----------------   occ   occ
  Cycle   Thresh.   Lewis   Non-Lewis     CR  BD  3C  LP    (L)   (NL)   Dev
 =============================================================================
   1(1)    1.90    15.98716   0.01284      2   2   0   4     0      0    0.03
 -----------------------------------------------------------------------------

 Structure accepted: No low occupancy Lewis orbitals

 --------------------------------------------------------
   Core                      3.99978 ( 99.994% of   4)
   Valence Lewis            11.98739 ( 99.895% of  12)
  ==================       ============================
   Total Lewis              15.98716 ( 99.920% of  16)
  -----------------------------------------------------
   Valence non-Lewis         0.00000 (  0.000% of  16)
   Rydberg non-Lewis         0.01284 (  0.080% of  16)
  ==================       ============================
   Total non-Lewis           0.01284 (  0.080% of  16)
 --------------------------------------------------------


       (Occupancy)   Bond orbital/ Coefficients/ Hybrids
 ---------------------------------------------------------------------------------
     1. (2.00000) BD ( 1) O   1 - O   2  
                ( 50.00%)   0.7071* O   1 s( 22.78%)p 3.38( 76.97%)d 0.01(  0.25%)
                                            0.0000 -0.4676 -0.0957  0.0000  0.0000
                                            0.0000  0.0000  0.8745 -0.0704  0.0000
                                            0.0000  0.0000 -0.0037 -0.0500
                ( 50.00%)   0.7071* O   2 s( 22.78%)p 3.38( 76.97%)d 0.01(  0.25%)
                                           -0.0000 -0.4676 -0.0957  0.0000  0.0000
                                            0.0000  0.0000 -0.8745  0.0704  0.0000
                                            0.0000  0.0000 -0.0037 -0.0500
     2. (2.00000) BD ( 2) O   1 - O   2  
                ( 50.00%)   0.7071* O   1 s(  0.00%)p 1.00( 99.68%)d 0.00(  0.32%)
                                            0.0000  0.0000  0.0000  0.9984 -0.0013
                                            0.0000  0.0000  0.0000  0.0000  0.0000
                                           -0.0562  0.0000  0.0000  0.0000
                ( 50.00%)   0.7071* O   2 s(  0.00%)p 1.00( 99.68%)d 0.00(  0.32%)
                                            0.0000  0.0000  0.0000  0.9984 -0.0013
                                            0.0000  0.0000  0.0000  0.0000  0.0000
                                            0.0562  0.0000  0.0000  0.0000
     3. (1.99989) CR ( 1) O   1           s(100.00%)
                                            1.0000  0.0001 -0.0000  0.0000  0.0000
                                            0.0000  0.0000  0.0000 -0.0000  0.0000
                                            0.0000  0.0000  0.0000 -0.0000
     4. (1.99989) CR ( 1) O   2           s(100.00%)
                                            1.0000  0.0001 -0.0000  0.0000  0.0000
                                            0.0000  0.0000 -0.0000  0.0000  0.0000
                                            0.0000  0.0000  0.0000 -0.0000
     5. (1.99924) LP ( 1) O   1           s( 78.02%)p 0.28( 21.96%)d 0.00(  0.01%)
                                           -0.0001  0.8830 -0.0253  0.0000  0.0000
                                            0.0000  0.0000  0.4686 -0.0019  0.0000
                                            0.0000  0.0000  0.0056 -0.0106
     6. (1.99446) LP ( 2) O   1           s(  0.00%)p 1.00( 99.95%)d 0.00(  0.05%)
                                            0.0000  0.0000  0.0000  0.0000  0.0000
                                            0.9992  0.0324  0.0000  0.0000  0.0000
                                            0.0000 -0.0224  0.0000  0.0000
     7. (1.99924) LP ( 1) O   2           s( 78.02%)p 0.28( 21.96%)d 0.00(  0.01%)
                                           -0.0001  0.8830 -0.0253  0.0000  0.0000
                                            0.0000  0.0000 -0.4686  0.0019  0.0000
                                            0.0000  0.0000  0.0056 -0.0106
     8. (1.99446) LP ( 2) O   2           s(  0.00%)p 1.00( 99.95%)d 0.00(  0.05%)
                                            0.0000  0.0000  0.0000  0.0000  0.0000
                                            0.9992  0.0324  0.0000  0.0000  0.0000
                                            0.0000  0.0224  0.0000  0.0000
     9. (0.00554) RY*( 1) O   1           s(  0.00%)p 1.00( 70.65%)d 0.42( 29.35%)
                                            0.0000  0.0000  0.0000  0.0000  0.0000
                                           -0.0151  0.8404  0.0000  0.0000  0.0000
                                            0.0000  0.5417  0.0000  0.0000
    10. (0.00085) RY*( 2) O   1           s( 45.33%)p 1.21( 54.66%)d 0.00(  0.00%)
                                            0.0000 -0.0386  0.6722  0.0000  0.0000
                                            0.0000  0.0000  0.1121  0.7308  0.0000
                                            0.0000  0.0000  0.0010  0.0063
    11. (0.00002) RY*( 3) O   1           s(  9.41%)p 0.78(  7.29%)d 8.86( 83.30%)
    12. (0.00000) RY*( 4) O   1           s(  0.00%)p 1.00(100.00%)
    13. (0.00000) RY*( 5) O   1           s(  0.00%)p 0.00(  0.00%)d 1.00(100.00%)
    14. (0.00000) RY*( 6) O   1           s(  0.00%)p 1.00(  0.32%)d99.99( 99.68%)
    15. (0.00000) RY*( 7) O   1           s(  0.00%)p 1.00( 29.40%)d 2.40( 70.60%)
    16. (0.00000) RY*( 8) O   1           s(  0.10%)p 0.85(  0.09%)d99.99( 99.81%)
    17. (0.00000) RY*( 9) O   1           s( 44.35%)p 0.88( 39.03%)d 0.37( 16.62%)
    18. (0.00554) RY*( 1) O   2           s(  0.00%)p 1.00( 70.65%)d 0.42( 29.35%)
                                            0.0000  0.0000  0.0000  0.0000  0.0000
                                           -0.0151  0.8404  0.0000  0.0000  0.0000
                                            0.0000 -0.5417  0.0000  0.0000
    19. (0.00085) RY*( 2) O   2           s( 45.33%)p 1.21( 54.66%)d 0.00(  0.00%)
                                           -0.0000 -0.0386  0.6722 -0.0000 -0.0000
                                           -0.0000 -0.0000 -0.1121 -0.7308 -0.0000
                                           -0.0000 -0.0000  0.0010  0.0063
    20. (0.00002) RY*( 3) O   2           s(  9.41%)p 0.78(  7.29%)d 8.86( 83.30%)
    21. (0.00000) RY*( 4) O   2           s(  0.00%)p 1.00(100.00%)
    22. (0.00000) RY*( 5) O   2           s(  0.00%)p 0.00(  0.00%)d 1.00(100.00%)
    23. (0.00000) RY*( 6) O   2           s(  0.00%)p 1.00(  0.32%)d99.99( 99.68%)
    24. (0.00000) RY*( 7) O   2           s(  0.00%)p 1.00( 29.40%)d 2.40( 70.60%)
    25. (0.00000) RY*( 8) O   2           s(  0.10%)p 0.85(  0.09%)d99.99( 99.81%)
    26. (0.00000) RY*( 9) O   2           s( 44.35%)p 0.88( 39.03%)d 0.37( 16.62%)
    27. (0.00000) BD*( 1) O   1 - O   2  
                ( 50.00%)   0.7071* O   1 s( 22.78%)p 3.38( 76.97%)d 0.01(  0.25%)
                ( 50.00%)  -0.7071* O   2 s( 22.78%)p 3.38( 76.97%)d 0.01(  0.25%)
    28. (0.00000) BD*( 2) O   1 - O   2  
                ( 50.00%)   0.7071* O   1 s(  0.00%)p 1.00( 99.68%)d 0.00(  0.32%)
                ( 50.00%)  -0.7071* O   2 s(  0.00%)p 1.00( 99.68%)d 0.00(  0.32%)


 NHO Directionality and "Bond Bending" (deviations from line of nuclear centers)

         [Thresholds for printing:  angular deviation  >  1.0 degree]
                                    hybrid p-character > 25.0%
                                    orbital occupancy  >  0.10e

                                Line of Centers        Hybrid 1              Hybrid 2
                                ---------------  -------------------   ------------------
                NBO               Theta   Phi    Theta   Phi    Dev    Theta   Phi    Dev
 ========================================================================================
     2. BD (   2) O   1 - O   2   180.0    0.0    90.0    0.0  90.0     90.0    0.0  90.0
     6. LP (   2) O   1             --     --     90.0   90.0   --       --     --    --
     8. LP (   2) O   2             --     --     90.0   90.0   --       --     --    --


 Second Order Perturbation Theory Analysis of Fock Matrix in NBO Basis

     Threshold for printing:   0.50 kcal/mol
                                                                              E(2)  E(j)-E(i) F(i,j)
         Donor NBO (i)                     Acceptor NBO (j)                 kcal/mol   a.u.    a.u. 
 ===================================================================================================

 within unit  1
   3. CR (   1) O   1                / 19. RY*(   2) O   2                    1.65   20.25    0.163
   4. CR (   1) O   2                / 10. RY*(   2) O   1                    1.65   20.25    0.163
   5. LP (   1) O   1                / 19. RY*(   2) O   2                    1.50    2.01    0.049
   6. LP (   2) O   1                / 18. RY*(   1) O   2                    6.15    1.75    0.093
   6. LP (   2) O   1                / 24. RY*(   7) O   2                    0.87    2.62    0.043
   7. LP (   1) O   2                / 10. RY*(   2) O   1                    1.50    2.01    0.049
   8. LP (   2) O   2                /  9. RY*(   1) O   1                    6.15    1.75    0.093
   8. LP (   2) O   2                / 15. RY*(   7) O   1                    0.87    2.62    0.043


 Natural Bond Orbitals (Summary):

                                                            Principal Delocalizations
           NBO                        Occupancy    Energy   (geminal,vicinal,remote)
 ====================================================================================
 Molecular unit  1  (O2)
     1. BD (   1) O   1 - O   2          2.00000    -1.18675   
     2. BD (   2) O   1 - O   2          2.00000    -0.53252   
     3. CR (   1) O   1                  1.99989   -19.11982  19(v)
     4. CR (   1) O   2                  1.99989   -19.11982  10(v)
     5. LP (   1) O   1                  1.99924    -0.88092  19(v)
     6. LP (   2) O   1                  1.99446    -0.37029  18(v),24(v)
     7. LP (   1) O   2                  1.99924    -0.88092  10(v)
     8. LP (   2) O   2                  1.99446    -0.37029  9(v),15(v)
     9. RY*(   1) O   1                  0.00554     1.38201   
    10. RY*(   2) O   1                  0.00085     1.12678   
    11. RY*(   3) O   1                  0.00002     2.98547   
    12. RY*(   4) O   1                  0.00000     0.88087   
    13. RY*(   5) O   1                  0.00000     2.49732   
    14. RY*(   6) O   1                  0.00000     2.69530   
    15. RY*(   7) O   1                  0.00000     2.24891   
    16. RY*(   8) O   1                  0.00000     2.50259   
    17. RY*(   9) O   1                  0.00000     1.36243   
    18. RY*(   1) O   2                  0.00554     1.38201   
    19. RY*(   2) O   2                  0.00085     1.12678   
    20. RY*(   3) O   2                  0.00002     2.98547   
    21. RY*(   4) O   2                  0.00000     0.88087   
    22. RY*(   5) O   2                  0.00000     2.49732   
    23. RY*(   6) O   2                  0.00000     2.69530   
    24. RY*(   7) O   2                  0.00000     2.24891   
    25. RY*(   8) O   2                  0.00000     2.50259   
    26. RY*(   9) O   2                  0.00000     1.36243   
    27. BD*(   1) O   1 - O   2          0.00000     0.48728   
    28. BD*(   2) O   1 - O   2          0.00000    -0.13284   
       -------------------------------
              Total Lewis   15.98716  ( 99.9198%)
        Valence non-Lewis    0.00000  (  0.0000%)
        Rydberg non-Lewis    0.01284  (  0.0802%)
       -------------------------------
            Total unit  1   16.00000  (100.0000%)
           Charge unit  1    0.00000
 Calling FoFJK, ICntrl=      2127 FMM=F ISym2X=1 I1Cent= 0 IOpClX= 0 NMat=1 NMatS=1 NMatT=0.
 ***** Axes restored to original set *****
 -------------------------------------------------------------------
 Center     Atomic                   Forces (Hartrees/Bohr)
 Number     Number              X              Y              Z
 -------------------------------------------------------------------
      1        8           0.088189229   -0.000000000   -0.000000000
      2        8          -0.088189229    0.000000000    0.000000000
 -------------------------------------------------------------------
 Cartesian Forces:  Max     0.088189229 RMS     0.050916075

 GradGradGradGradGradGradGradGradGradGradGradGradGradGradGradGradGradGrad
 Berny optimization.
 FormGI is forming the generalized inverse of G from B-inverse, IUseBI=4.
 Internal  Forces:  Max     0.088189229 RMS     0.088189229
 Search for a local minimum.
 Step number   1 out of a maximum of   20
 All quantities printed in internal units (Hartrees-Bohrs-Radians)
 Mixed Optimization -- RFO/linear search
 Second derivative matrix not updated -- first step.
 The second derivative matrix:
                          R1
           R1           1.26752
 ITU=  0
     Eigenvalues ---    1.26752
 RFO step:  Lambda=-6.10643801D-03 EMin= 1.26752315D+00
 Linear search not attempted -- first point.
 Iteration  1 RMS(Cart)=  0.04896180 RMS(Int)=  0.00000000
 Iteration  2 RMS(Cart)=  0.00000000 RMS(Int)=  0.00000000
 ClnCor:  largest displacement from symmetrization is 2.22D-16 for atom     1.
 Variable       Old X    -DE/DX   Delta X   Delta X   Delta X     New X
                                 (Linear)    (Quad)   (Total)
    R1        2.19511   0.08819   0.00000   0.06924   0.06924   2.26435
         Item               Value     Threshold  Converged?
 Maximum Force            0.088189     0.000450     NO 
 RMS     Force            0.088189     0.000300     NO 
 Maximum Displacement     0.034621     0.001800     NO 
 RMS     Displacement     0.048962     0.001200     NO 
 Predicted change in Energy=-3.067858D-03
 GradGradGradGradGradGradGradGradGradGradGradGradGradGradGradGradGradGrad

                          Input orientation:                          
 ---------------------------------------------------------------------
 Center     Atomic      Atomic             Coordinates (Angstroms)
 Number     Number       Type             X           Y           Z
 ---------------------------------------------------------------------
      1          8           0        0.840970    0.106838    0.000000
      2          8           0       -0.357271    0.106838   -0.000000
 ---------------------------------------------------------------------
 Stoichiometry    O2
 Framework group  D*H[C*(O.O)]
 Deg. of freedom     1
 Full point group                 D*H     NOp   8
 Largest Abelian subgroup         D2H     NOp   8
 Largest concise Abelian subgroup C2      NOp   2
                         Standard orientation:                         
 ---------------------------------------------------------------------
 Center     Atomic      Atomic             Coordinates (Angstroms)
 Number     Number       Type             X           Y           Z
 ---------------------------------------------------------------------
      1          8           0        0.000000    0.000000    0.599121
      2          8           0        0.000000    0.000000   -0.599121
 ---------------------------------------------------------------------
 Rotational constants (GHZ):           0.0000000          44.0125505          44.0125505
 Standard basis: CC-pVDZ (5D, 7F)
 There are     8 symmetry adapted cartesian basis functions of AG  symmetry.
 There are     1 symmetry adapted cartesian basis functions of B1G symmetry.
 There are     3 symmetry adapted cartesian basis functions of B2G symmetry.
 There are     3 symmetry adapted cartesian basis functions of B3G symmetry.
 There are     1 symmetry adapted cartesian basis functions of AU  symmetry.
 There are     8 symmetry adapted cartesian basis functions of B1U symmetry.
 There are     3 symmetry adapted cartesian basis functions of B2U symmetry.
 There are     3 symmetry adapted cartesian basis functions of B3U symmetry.
 There are     7 symmetry adapted basis functions of AG  symmetry.
 There are     1 symmetry adapted basis functions of B1G symmetry.
 There are     3 symmetry adapted basis functions of B2G symmetry.
 There are     3 symmetry adapted basis functions of B3G symmetry.
 There are     1 symmetry adapted basis functions of AU  symmetry.
 There are     7 symmetry adapted basis functions of B1U symmetry.
 There are     3 symmetry adapted basis functions of B2U symmetry.
 There are     3 symmetry adapted basis functions of B3U symmetry.
    28 basis functions,    66 primitive gaussians,    30 cartesian basis functions
     8 alpha electrons        8 beta electrons
       nuclear repulsion energy        28.2642028294 Hartrees.
 NAtoms=    2 NActive=    2 NUniq=    1 SFac= 4.00D+00 NAtFMM=   60 NAOKFM=F Big=F
 Integral buffers will be    131072 words long.
 Raffenetti 2 integral format.
 Two-electron integral symmetry is turned on.
 One-electron integrals computed using PRISM.
 NBasis=    28 RedAO= T EigKep=  1.88D-02  NBF=     7     1     3     3     1     7     3     3
 NBsUse=    28 1.00D-06 EigRej= -1.00D+00 NBFU=     7     1     3     3     1     7     3     3
 Initial guess from the checkpoint file:  "O2-B3LYP-CC-PVDZ.chk"
 B after Tr=     0.000000    0.000000    0.000000
         Rot=    1.000000    0.000000    0.000000    0.000000 Ang=   0.00 deg.
 Initial guess orbital symmetries:
       Occupied  (SGG) (SGU) (SGG) (SGU) (PIU) (SGG) (PIU) (PIG)
       Virtual   (PIG) (SGU) (SGU) (PIU) (PIU) (SGG) (PIG) (PIG)
                 (SGG) (SGU) (PIU) (PIU) (DLTG) (DLTG) (DLTU) (DLTU)
                 (SGG) (PIG) (PIG) (SGU)
 ExpMin= 2.75D-01 ExpMax= 1.17D+04 ExpMxC= 4.01D+02 IAcc=3 IRadAn=         5 AccDes= 0.00D+00
 Harris functional with IExCor=  402 and IRadAn=       5 diagonalized for initial guess.
 HarFok:  IExCor=  402 AccDes= 0.00D+00 IRadAn=         5 IDoV= 1 UseB2=F ITyADJ=14
 ICtDFT=  3500011 ScaDFX=  1.000000  1.000000  1.000000  1.000000
 FoFCou: FMM=F IPFlag=           0 FMFlag=      100000 FMFlg1=           0
         NFxFlg=           0 DoJE=T BraDBF=F KetDBF=T FulRan=T
         wScrn=  0.000000 ICntrl=       500 IOpCl=  0 I1Cent=   200000004 NGrid=           0
         NMat0=    1 NMatS0=      1 NMatT0=    0 NMatD0=    1 NMtDS0=    0 NMtDT0=    0
 Petite list used in FoFCou.
 Keep R1 ints in memory in symmetry-blocked form, NReq=20812887.
 Requested convergence on RMS density matrix=1.00D-08 within 128 cycles.
 Requested convergence on MAX density matrix=1.00D-06.
 Requested convergence on             energy=1.00D-06.
 No special actions if energy rises.
 Integral accuracy reduced to 1.0D-05 until final iterations.
 Initial convergence to 1.0D-05 achieved.  Increase integral accuracy.
 SCF Done:  E(RB3LYP) =  -150.271249886     A.U. after    7 cycles
            NFock=  7  Conv=0.98D-08     -V/T= 2.0039
 Calling FoFJK, ICntrl=      2127 FMM=F ISym2X=1 I1Cent= 0 IOpClX= 0 NMat=1 NMatS=1 NMatT=0.
 ***** Axes restored to original set *****
 -------------------------------------------------------------------
 Center     Atomic                   Forces (Hartrees/Bohr)
 Number     Number              X              Y              Z
 -------------------------------------------------------------------
      1        8           0.018734539   -0.000000000   -0.000000000
      2        8          -0.018734539    0.000000000    0.000000000
 -------------------------------------------------------------------
 Cartesian Forces:  Max     0.018734539 RMS     0.010816391

 GradGradGradGradGradGradGradGradGradGradGradGradGradGradGradGradGradGrad
 Berny optimization.
 Using GEDIIS/GDIIS optimizer.
 Internal  Forces:  Max     0.018734539 RMS     0.018734539
 Search for a local minimum.
 Step number   2 out of a maximum of   20
 All quantities printed in internal units (Hartrees-Bohrs-Radians)
 Mixed Optimization -- RFO/linear search
 Update second derivatives using D2CorX and points    1    2
 DE= -3.60D-03 DEPred=-3.07D-03 R= 1.17D+00
 TightC=F SS=  1.41D+00  RLast= 6.92D-02 DXNew= 5.0454D-01 2.0773D-01
 Trust test= 1.17D+00 RLast= 6.92D-02 DXMaxT set to 3.00D-01
 The second derivative matrix:
                          R1
           R1           1.00307
 ITU=  1  0
 Use linear search instead of GDIIS.
     Eigenvalues ---    1.00307
 RFO step:  Lambda= 0.00000000D+00 EMin= 1.00306522D+00
 Quartic linear search produced a step of  0.32343.
 Iteration  1 RMS(Cart)=  0.01583555 RMS(Int)=  0.00000000
 Iteration  2 RMS(Cart)=  0.00000000 RMS(Int)=  0.00000000
 ClnCor:  largest displacement from symmetrization is 6.86D-19 for atom     2.
 Variable       Old X    -DE/DX   Delta X   Delta X   Delta X     New X
                                 (Linear)    (Quad)   (Total)
    R1        2.26435   0.01873   0.02239  -0.00000   0.02239   2.28674
         Item               Value     Threshold  Converged?
 Maximum Force            0.018735     0.000450     NO 
 RMS     Force            0.018735     0.000300     NO 
 Maximum Displacement     0.011197     0.001800     NO 
 RMS     Displacement     0.015836     0.001200     NO 
 Predicted change in Energy=-1.680239D-04
 GradGradGradGradGradGradGradGradGradGradGradGradGradGradGradGradGradGrad

                          Input orientation:                          
 ---------------------------------------------------------------------
 Center     Atomic      Atomic             Coordinates (Angstroms)
 Number     Number       Type             X           Y           Z
 ---------------------------------------------------------------------
      1          8           0        0.846896    0.106838    0.000000
      2          8           0       -0.363197    0.106838   -0.000000
 ---------------------------------------------------------------------
 Stoichiometry    O2
 Framework group  D*H[C*(O.O)]
 Deg. of freedom     1
 Full point group                 D*H     NOp   8
 Largest Abelian subgroup         D2H     NOp   8
 Largest concise Abelian subgroup C2      NOp   2
                         Standard orientation:                         
 ---------------------------------------------------------------------
 Center     Atomic      Atomic             Coordinates (Angstroms)
 Number     Number       Type             X           Y           Z
 ---------------------------------------------------------------------
      1          8           0        0.000000    0.000000    0.605046
      2          8           0        0.000000    0.000000   -0.605046
 ---------------------------------------------------------------------
 Rotational constants (GHZ):           0.0000000          43.1547120          43.1547120
 Standard basis: CC-pVDZ (5D, 7F)
 There are     8 symmetry adapted cartesian basis functions of AG  symmetry.
 There are     1 symmetry adapted cartesian basis functions of B1G symmetry.
 There are     3 symmetry adapted cartesian basis functions of B2G symmetry.
 There are     3 symmetry adapted cartesian basis functions of B3G symmetry.
 There are     1 symmetry adapted cartesian basis functions of AU  symmetry.
 There are     8 symmetry adapted cartesian basis functions of B1U symmetry.
 There are     3 symmetry adapted cartesian basis functions of B2U symmetry.
 There are     3 symmetry adapted cartesian basis functions of B3U symmetry.
 There are     7 symmetry adapted basis functions of AG  symmetry.
 There are     1 symmetry adapted basis functions of B1G symmetry.
 There are     3 symmetry adapted basis functions of B2G symmetry.
 There are     3 symmetry adapted basis functions of B3G symmetry.
 There are     1 symmetry adapted basis functions of AU  symmetry.
 There are     7 symmetry adapted basis functions of B1U symmetry.
 There are     3 symmetry adapted basis functions of B2U symmetry.
 There are     3 symmetry adapted basis functions of B3U symmetry.
    28 basis functions,    66 primitive gaussians,    30 cartesian basis functions
     8 alpha electrons        8 beta electrons
       nuclear repulsion energy        27.9874018744 Hartrees.
 NAtoms=    2 NActive=    2 NUniq=    1 SFac= 4.00D+00 NAtFMM=   60 NAOKFM=F Big=F
 Integral buffers will be    131072 words long.
 Raffenetti 2 integral format.
 Two-electron integral symmetry is turned on.
 One-electron integrals computed using PRISM.
 NBasis=    28 RedAO= T EigKep=  1.96D-02  NBF=     7     1     3     3     1     7     3     3
 NBsUse=    28 1.00D-06 EigRej= -1.00D+00 NBFU=     7     1     3     3     1     7     3     3
 Initial guess from the checkpoint file:  "O2-B3LYP-CC-PVDZ.chk"
 B after Tr=     0.000000    0.000000    0.000000
         Rot=    1.000000    0.000000    0.000000    0.000000 Ang=   0.00 deg.
 Initial guess orbital symmetries:
       Occupied  (SGG) (SGU) (SGG) (SGU) (SGG) (PIU) (PIU) (PIG)
       Virtual   (PIG) (SGU) (SGU) (PIU) (PIU) (SGG) (PIG) (PIG)
                 (SGG) (SGU) (PIU) (PIU) (DLTG) (DLTG) (DLTU) (DLTU)
                 (SGG) (PIG) (PIG) (SGU)
 Keep R1 ints in memory in symmetry-blocked form, NReq=20812887.
 Requested convergence on RMS density matrix=1.00D-08 within 128 cycles.
 Requested convergence on MAX density matrix=1.00D-06.
 Requested convergence on             energy=1.00D-06.
 No special actions if energy rises.
 SCF Done:  E(RB3LYP) =  -150.271455516     A.U. after    6 cycles
            NFock=  6  Conv=0.33D-08     -V/T= 2.0042
 Calling FoFJK, ICntrl=      2127 FMM=F ISym2X=1 I1Cent= 0 IOpClX= 0 NMat=1 NMatS=1 NMatT=0.
 ***** Axes restored to original set *****
 -------------------------------------------------------------------
 Center     Atomic                   Forces (Hartrees/Bohr)
 Number     Number              X              Y              Z
 -------------------------------------------------------------------
      1        8          -0.000101528   -0.000000000   -0.000000000
      2        8           0.000101528    0.000000000    0.000000000
 -------------------------------------------------------------------
 Cartesian Forces:  Max     0.000101528 RMS     0.000058617

 GradGradGradGradGradGradGradGradGradGradGradGradGradGradGradGradGradGrad
 Berny optimization.
 Using GEDIIS/GDIIS optimizer.
 Internal  Forces:  Max     0.000101528 RMS     0.000101528
 Search for a local minimum.
 Step number   3 out of a maximum of   20
 All quantities printed in internal units (Hartrees-Bohrs-Radians)
 Mixed Optimization -- En-DIIS/RFO-DIIS
 Update second derivatives using D2CorX and points    2    3
 DE= -2.06D-04 DEPred=-1.68D-04 R= 1.22D+00
 TightC=F SS=  1.41D+00  RLast= 2.24D-02 DXNew= 5.0454D-01 6.7185D-02
 Trust test= 1.22D+00 RLast= 2.24D-02 DXMaxT set to 3.00D-01
 The second derivative matrix:
                          R1
           R1           0.84109
 ITU=  1  1
 Use linear search instead of GDIIS.
     Eigenvalues ---    0.84109
 RFO step:  Lambda= 0.00000000D+00 EMin= 8.41089048D-01
 Quartic linear search produced a step of -0.00563.
 Iteration  1 RMS(Cart)=  0.00008912 RMS(Int)=  0.00000000
 Iteration  2 RMS(Cart)=  0.00000000 RMS(Int)=  0.00000000
 ClnCor:  largest displacement from symmetrization is 3.86D-21 for atom     1.
 Variable       Old X    -DE/DX   Delta X   Delta X   Delta X     New X
                                 (Linear)    (Quad)   (Total)
    R1        2.28674  -0.00010  -0.00013   0.00000  -0.00013   2.28662
         Item               Value     Threshold  Converged?
 Maximum Force            0.000102     0.000450     YES
 RMS     Force            0.000102     0.000300     YES
 Maximum Displacement     0.000063     0.001800     YES
 RMS     Displacement     0.000089     0.001200     YES
 Predicted change in Energy=-6.115727D-09
 Optimization completed.
    -- Stationary point found.
                           ----------------------------
                           !   Optimized Parameters   !
                           ! (Angstroms and Degrees)  !
 --------------------------                            --------------------------
 ! Name  Definition              Value          Derivative Info.                !
 --------------------------------------------------------------------------------
 ! R1    R(1,2)                  1.2101         -DE/DX =   -0.0001              !
 --------------------------------------------------------------------------------
 GradGradGradGradGradGradGradGradGradGradGradGradGradGradGradGradGradGrad

                          Input orientation:                          
 ---------------------------------------------------------------------
 Center     Atomic      Atomic             Coordinates (Angstroms)
 Number     Number       Type             X           Y           Z
 ---------------------------------------------------------------------
      1          8           0        0.846896    0.106838    0.000000
      2          8           0       -0.363197    0.106838   -0.000000
 ---------------------------------------------------------------------
 Stoichiometry    O2
 Framework group  D*H[C*(O.O)]
 Deg. of freedom     1
 Full point group                 D*H     NOp   8
 Largest Abelian subgroup         D2H     NOp   8
 Largest concise Abelian subgroup C2      NOp   2
                         Standard orientation:                         
 ---------------------------------------------------------------------
 Center     Atomic      Atomic             Coordinates (Angstroms)
 Number     Number       Type             X           Y           Z
 ---------------------------------------------------------------------
      1          8           0        0.000000    0.000000    0.605046
      2          8           0        0.000000    0.000000   -0.605046
 ---------------------------------------------------------------------
 Rotational constants (GHZ):           0.0000000          43.1547120          43.1547120

 **********************************************************************

            Population analysis using the SCF Density.

 **********************************************************************

 Orbital symmetries:
       Occupied  (SGG) (SGU) (SGG) (SGU) (SGG) (PIU) (PIU) (PIG)
       Virtual   (PIG) (SGU) (SGU) (PIU) (PIU) (SGG) (PIG) (PIG)
                 (SGG) (SGU) (PIU) (PIU) (?A) (?A) (DLTU) (DLTU)
                 (?A) (PIG) (PIG) (SGU)
 Unable to determine electronic state:  partially filled degenerate orbitals.
 Alpha  occ. eigenvalues --  -19.28658 -19.28643  -1.28053  -0.79372  -0.52628
 Alpha  occ. eigenvalues --   -0.51405  -0.50634  -0.24427
 Alpha virt. eigenvalues --   -0.17363   0.22044   0.79166   0.82335   0.84103
 Alpha virt. eigenvalues --    0.90035   0.94193   0.95405   1.07267   1.68958
 Alpha virt. eigenvalues --    2.06435   2.09607   2.34933   2.35150   2.64774
 Alpha virt. eigenvalues --    2.65030   2.78371   3.26298   3.29572   3.77702
          Condensed to atoms (all electrons):
               1          2
     1  O    7.867290   0.132710
     2  O    0.132710   7.867290
 Mulliken charges:
               1
     1  O    0.000000
     2  O    0.000000
 Sum of Mulliken charges =   0.00000
 Mulliken charges with hydrogens summed into heavy atoms:
               1
     1  O    0.000000
     2  O    0.000000
 Electronic spatial extent (au):  <R**2>=             43.1217
 Charge=             -0.0000 electrons
 Dipole moment (field-independent basis, Debye):
    X=              0.0000    Y=              0.0000    Z=             -0.0000  Tot=              0.0000
 Quadrupole moment (field-independent basis, Debye-Ang):
   XX=             -8.8629   YY=            -10.6218   ZZ=            -10.3817
   XY=              0.0000   XZ=              0.0000   YZ=              0.0000
 Traceless Quadrupole moment (field-independent basis, Debye-Ang):
   XX=              1.0926   YY=             -0.6663   ZZ=             -0.4263
   XY=              0.0000   XZ=              0.0000   YZ=              0.0000
 Octapole moment (field-independent basis, Debye-Ang**2):
  XXX=             -0.0000  YYY=             -0.0000  ZZZ=              0.0000  XYY=             -0.0000
  XXY=              0.0000  XXZ=             -0.0000  XZZ=             -0.0000  YZZ=              0.0000
  YYZ=             -0.0000  XYZ=              0.0000
 Hexadecapole moment (field-independent basis, Debye-Ang**3):
 XXXX=             -5.4642 YYYY=             -7.1134 ZZZZ=            -27.4461 XXXY=              0.0000
 XXXZ=              0.0000 YYYX=              0.0000 YYYZ=              0.0000 ZZZX=              0.0000
 ZZZY=              0.0000 XXYY=             -2.0962 XXZZ=             -5.2042 YYZZ=             -6.4908
 XXYZ=              0.0000 YYXZ=              0.0000 ZZXY=             -0.0000
 N-N= 2.798740187440D+01 E-N=-4.113960640636D+02  KE= 1.496454112240D+02
 Symmetry AG   KE= 6.961687103399D+01
 Symmetry B1G  KE= 1.214242728164D-34
 Symmetry B2G  KE= 9.820847078322D-33
 Symmetry B3G  KE= 5.945741707192D+00
 Symmetry AU   KE= 2.601184106554D-34
 Symmetry B1U  KE= 6.497488525246D+01
 Symmetry B2U  KE= 4.603662958584D+00
 Symmetry B3U  KE= 4.504250271808D+00
 ******************************Gaussian NBO Version 3.1******************************
             N A T U R A L   A T O M I C   O R B I T A L   A N D
          N A T U R A L   B O N D   O R B I T A L   A N A L Y S I S
 ******************************Gaussian NBO Version 3.1******************************
       /RESON  / : Allow strongly delocalized NBO set

 Analyzing the SCF density

 Job title: O2-B3LYP-CC-PVDZ                                                

 Storage needed:      2518 in NPA,      3238 in NBO (1342177252 available)
 GSVD:  LWork=         504 too small for GESVD, short by         266 words or         266 for optimal perf.
 GSVD:  LWork=         592 too small for GESVD, short by           8 words or           8 for optimal perf.
 GSVD:  LWork=         504 too small for GESVD, short by         266 words or         266 for optimal perf.


 NATURAL POPULATIONS:  Natural atomic orbital occupancies 
                                                          
   NAO  Atom  No  lang   Type(AO)    Occupancy      Energy
 ----------------------------------------------------------
     1    O    1  S      Cor( 1S)     1.99991     -19.13948
     2    O    1  S      Val( 2S)     1.80752      -0.98099
     3    O    1  S      Ryd( 3S)     0.00866       1.37989
     4    O    1  px     Val( 2p)     0.99736      -0.33688
     5    O    1  px     Ryd( 3p)     0.00001       0.88152
     6    O    1  py     Val( 2p)     1.99371      -0.37003
     7    O    1  py     Ryd( 3p)     0.00411       0.89737
     8    O    1  pz     Val( 2p)     1.17667      -0.30543
     9    O    1  pz     Ryd( 3p)     0.00440       0.86049
    10    O    1  dxy    Ryd( 3d)     0.00000       2.49854
    11    O    1  dxz    Ryd( 3d)     0.00263       2.65783
    12    O    1  dyz    Ryd( 3d)     0.00218       2.69078
    13    O    1  dx2y2  Ryd( 3d)     0.00008       2.50097
    14    O    1  dz2    Ryd( 3d)     0.00277       3.21640
 
    15    O    2  S      Cor( 1S)     1.99991     -19.13948
    16    O    2  S      Val( 2S)     1.80752      -0.98099
    17    O    2  S      Ryd( 3S)     0.00866       1.37989
    18    O    2  px     Val( 2p)     0.99736      -0.33688
    19    O    2  px     Ryd( 3p)     0.00001       0.88152
    20    O    2  py     Val( 2p)     1.99371      -0.37003
    21    O    2  py     Ryd( 3p)     0.00411       0.89737
    22    O    2  pz     Val( 2p)     1.17667      -0.30543
    23    O    2  pz     Ryd( 3p)     0.00440       0.86049
    24    O    2  dxy    Ryd( 3d)     0.00000       2.49854
    25    O    2  dxz    Ryd( 3d)     0.00263       2.65783
    26    O    2  dyz    Ryd( 3d)     0.00218       2.69078
    27    O    2  dx2y2  Ryd( 3d)     0.00008       2.50097
    28    O    2  dz2    Ryd( 3d)     0.00277       3.21640


 Summary of Natural Population Analysis:                  
                                                          
                                       Natural Population 
                Natural  -----------------------------------------------
    Atom  No    Charge         Core      Valence    Rydberg      Total
 -----------------------------------------------------------------------
      O    1   -0.00000      1.99991     5.97526    0.02483     8.00000
      O    2    0.00000      1.99991     5.97526    0.02483     8.00000
 =======================================================================
   * Total *    0.00000      3.99982    11.95052    0.04966    16.00000

                                 Natural Population      
 --------------------------------------------------------
   Core                       3.99982 ( 99.9955% of   4)
   Valence                   11.95052 ( 99.5876% of  12)
   Natural Minimal Basis     15.95034 ( 99.6896% of  16)
   Natural Rydberg Basis      0.04966 (  0.3104% of  16)
 --------------------------------------------------------

    Atom  No          Natural Electron Configuration
 ----------------------------------------------------------------------------
      O    1      [core]2S( 1.81)2p( 4.17)3S( 0.01)3p( 0.01)3d( 0.01)
      O    2      [core]2S( 1.81)2p( 4.17)3S( 0.01)3p( 0.01)3d( 0.01)


 NATURAL BOND ORBITAL ANALYSIS:

                       Occupancies       Lewis Structure    Low   High
           Occ.    -------------------  -----------------   occ   occ
  Cycle   Thresh.   Lewis   Non-Lewis     CR  BD  3C  LP    (L)   (NL)   Dev
 =============================================================================
   1(1)    1.90    15.99100   0.00900      2   2   0   4     0      0    0.02
 -----------------------------------------------------------------------------

 Structure accepted: No low occupancy Lewis orbitals

 --------------------------------------------------------
   Core                      3.99982 ( 99.996% of   4)
   Valence Lewis            11.99118 ( 99.926% of  12)
  ==================       ============================
   Total Lewis              15.99100 ( 99.944% of  16)
  -----------------------------------------------------
   Valence non-Lewis         0.00000 (  0.000% of  16)
   Rydberg non-Lewis         0.00900 (  0.056% of  16)
  ==================       ============================
   Total non-Lewis           0.00900 (  0.056% of  16)
 --------------------------------------------------------


       (Occupancy)   Bond orbital/ Coefficients/ Hybrids
 ---------------------------------------------------------------------------------
     1. (2.00000) BD ( 1) O   1 - O   2  
                ( 50.00%)   0.7071* O   1 s( 19.70%)p 4.06( 80.04%)d 0.01(  0.26%)
                                            0.0000 -0.4352 -0.0871  0.0000  0.0000
                                            0.0000  0.0000  0.8924 -0.0637  0.0000
                                            0.0000  0.0000 -0.0034 -0.0510
                ( 50.00%)   0.7071* O   2 s( 19.70%)p 4.06( 80.04%)d 0.01(  0.26%)
                                           -0.0000 -0.4352 -0.0871  0.0000  0.0000
                                            0.0000  0.0000 -0.8924  0.0637  0.0000
                                            0.0000  0.0000 -0.0034 -0.0510
     2. (2.00000) BD ( 2) O   1 - O   2  
                ( 50.00%)   0.7071* O   1 s(  0.00%)p 1.00( 99.74%)d 0.00(  0.26%)
                                            0.0000  0.0000  0.0000  0.9987  0.0028
                                            0.0000  0.0000  0.0000  0.0000  0.0000
                                           -0.0513  0.0000  0.0000  0.0000
                ( 50.00%)   0.7071* O   2 s(  0.00%)p 1.00( 99.74%)d 0.00(  0.26%)
                                            0.0000  0.0000  0.0000  0.9987  0.0028
                                            0.0000  0.0000  0.0000  0.0000  0.0000
                                            0.0513  0.0000  0.0000  0.0000
     3. (1.99991) CR ( 1) O   1           s(100.00%)
                                            1.0000  0.0000 -0.0000  0.0000  0.0000
                                            0.0000  0.0000  0.0000 -0.0000  0.0000
                                            0.0000  0.0000  0.0000 -0.0000
     4. (1.99991) CR ( 1) O   2           s(100.00%)
                                            1.0000  0.0000 -0.0000  0.0000  0.0000
                                            0.0000  0.0000 -0.0000  0.0000  0.0000
                                            0.0000  0.0000  0.0000 -0.0000
     5. (1.99954) LP ( 1) O   1           s( 80.97%)p 0.23( 19.02%)d 0.00(  0.01%)
                                           -0.0000  0.8996 -0.0211  0.0000  0.0000
                                            0.0000  0.0000  0.4361 -0.0011  0.0000
                                            0.0000  0.0000  0.0057 -0.0088
     6. (1.99605) LP ( 2) O   1           s(  0.00%)p 1.00( 99.96%)d 0.00(  0.04%)
                                            0.0000  0.0000  0.0000  0.0000  0.0000
                                            0.9994  0.0276  0.0000  0.0000  0.0000
                                            0.0000 -0.0204  0.0000  0.0000
     7. (1.99954) LP ( 1) O   2           s( 80.97%)p 0.23( 19.02%)d 0.00(  0.01%)
                                           -0.0000  0.8996 -0.0211  0.0000  0.0000
                                            0.0000  0.0000 -0.4361  0.0011  0.0000
                                            0.0000  0.0000  0.0057 -0.0088
     8. (1.99605) LP ( 2) O   2           s(  0.00%)p 1.00( 99.96%)d 0.00(  0.04%)
                                            0.0000  0.0000  0.0000  0.0000  0.0000
                                            0.9994  0.0276  0.0000  0.0000  0.0000
                                            0.0000  0.0204  0.0000  0.0000
     9. (0.00395) RY*( 1) O   1           s(  0.00%)p 1.00( 65.63%)d 0.52( 34.37%)
                                            0.0000  0.0000  0.0000  0.0000  0.0000
                                           -0.0104  0.8100  0.0000  0.0000  0.0000
                                            0.0000  0.5863  0.0000  0.0000
    10. (0.00053) RY*( 2) O   1           s( 35.08%)p 1.85( 64.89%)d 0.00(  0.02%)
                                            0.0000 -0.0328  0.5914  0.0000  0.0000
                                            0.0000  0.0000  0.0979  0.7996  0.0000
                                            0.0000  0.0000  0.0011 -0.0153
    11. (0.00002) RY*( 3) O   1           s(  1.89%)p 0.78(  1.48%)d51.18( 96.63%)
    12. (0.00000) RY*( 4) O   1           s(  0.00%)p 1.00(100.00%)d 0.00(  0.00%)
    13. (0.00000) RY*( 5) O   1           s(  0.00%)p 0.00(  0.00%)d 1.00(100.00%)
    14. (0.00000) RY*( 6) O   1           s(  0.00%)p 1.00(  0.26%)d99.99( 99.74%)
    15. (0.00000) RY*( 7) O   1           s(  0.00%)p 1.00( 34.41%)d 1.91( 65.59%)
    16. (0.00000) RY*( 8) O   1           s(  0.02%)p 0.91(  0.02%)d99.99( 99.96%)
    17. (0.00000) RY*( 9) O   1           s( 62.34%)p 0.55( 34.55%)d 0.05(  3.12%)
    18. (0.00395) RY*( 1) O   2           s(  0.00%)p 1.00( 65.63%)d 0.52( 34.37%)
                                            0.0000  0.0000  0.0000  0.0000  0.0000
                                           -0.0104  0.8100  0.0000  0.0000  0.0000
                                            0.0000 -0.5863  0.0000  0.0000
    19. (0.00053) RY*( 2) O   2           s( 35.08%)p 1.85( 64.89%)d 0.00(  0.02%)
                                           -0.0000 -0.0328  0.5914 -0.0000 -0.0000
                                           -0.0000 -0.0000 -0.0979 -0.7996 -0.0000
                                           -0.0000 -0.0000  0.0011 -0.0153
    20. (0.00002) RY*( 3) O   2           s(  1.89%)p 0.78(  1.48%)d51.18( 96.63%)
    21. (0.00000) RY*( 4) O   2           s(  0.00%)p 1.00(100.00%)d 0.00(  0.00%)
    22. (0.00000) RY*( 5) O   2           s(  0.00%)p 0.00(  0.00%)d 1.00(100.00%)
    23. (0.00000) RY*( 6) O   2           s(  0.00%)p 1.00(  0.26%)d99.99( 99.74%)
    24. (0.00000) RY*( 7) O   2           s(  0.00%)p 1.00( 34.41%)d 1.91( 65.59%)
    25. (0.00000) RY*( 8) O   2           s(  0.02%)p 0.91(  0.02%)d99.99( 99.96%)
    26. (0.00000) RY*( 9) O   2           s( 62.34%)p 0.55( 34.55%)d 0.05(  3.12%)
    27. (0.00000) BD*( 1) O   1 - O   2  
                ( 50.00%)   0.7071* O   1 s( 19.70%)p 4.06( 80.04%)d 0.01(  0.26%)
                ( 50.00%)  -0.7071* O   2 s( 19.70%)p 4.06( 80.04%)d 0.01(  0.26%)
    28. (0.00000) BD*( 2) O   1 - O   2  
                ( 50.00%)   0.7071* O   1 s(  0.00%)p 1.00( 99.74%)d 0.00(  0.26%)
                ( 50.00%)  -0.7071* O   2 s(  0.00%)p 1.00( 99.74%)d 0.00(  0.26%)


 NHO Directionality and "Bond Bending" (deviations from line of nuclear centers)

         [Thresholds for printing:  angular deviation  >  1.0 degree]
                                    hybrid p-character > 25.0%
                                    orbital occupancy  >  0.10e

                                Line of Centers        Hybrid 1              Hybrid 2
                                ---------------  -------------------   ------------------
                NBO               Theta   Phi    Theta   Phi    Dev    Theta   Phi    Dev
 ========================================================================================
     2. BD (   2) O   1 - O   2   180.0    0.0    90.0    0.0  90.0     90.0    0.0  90.0
     6. LP (   2) O   1             --     --     90.0   90.0   --       --     --    --
     8. LP (   2) O   2             --     --     90.0   90.0   --       --     --    --


 Second Order Perturbation Theory Analysis of Fock Matrix in NBO Basis

     Threshold for printing:   0.50 kcal/mol
                                                                              E(2)  E(j)-E(i) F(i,j)
         Donor NBO (i)                     Acceptor NBO (j)                 kcal/mol   a.u.    a.u. 
 ===================================================================================================

 within unit  1
   3. CR (   1) O   1                / 19. RY*(   2) O   2                    1.25   20.23    0.142
   4. CR (   1) O   2                / 10. RY*(   2) O   1                    1.25   20.23    0.142
   5. LP (   1) O   1                / 19. RY*(   2) O   2                    0.95    1.99    0.039
   6. LP (   2) O   1                / 18. RY*(   1) O   2                    4.57    1.83    0.082
   6. LP (   2) O   1                / 24. RY*(   7) O   2                    0.69    2.50    0.037
   7. LP (   1) O   2                / 10. RY*(   2) O   1                    0.95    1.99    0.039
   8. LP (   2) O   2                /  9. RY*(   1) O   1                    4.57    1.83    0.082
   8. LP (   2) O   2                / 15. RY*(   7) O   1                    0.69    2.50    0.037


 Natural Bond Orbitals (Summary):

                                                            Principal Delocalizations
           NBO                        Occupancy    Energy   (geminal,vicinal,remote)
 ====================================================================================
 Molecular unit  1  (O2)
     1. BD (   1) O   1 - O   2          2.00000    -1.09130   
     2. BD (   2) O   1 - O   2          2.00000    -0.51405   
     3. CR (   1) O   1                  1.99991   -19.13960  19(v)
     4. CR (   1) O   2                  1.99991   -19.13960  10(v)
     5. LP (   1) O   1                  1.99954    -0.89989  19(v)
     6. LP (   2) O   1                  1.99605    -0.37168  18(v),24(v)
     7. LP (   1) O   2                  1.99954    -0.89989  10(v)
     8. LP (   2) O   2                  1.99605    -0.37168  9(v),15(v)
     9. RY*(   1) O   1                  0.00395     1.46052   
    10. RY*(   2) O   1                  0.00053     1.08708   
    11. RY*(   3) O   1                  0.00002     3.17296   
    12. RY*(   4) O   1                  0.00000     0.88176   
    13. RY*(   5) O   1                  0.00000     2.49854   
    14. RY*(   6) O   1                  0.00000     2.65580   
    15. RY*(   7) O   1                  0.00000     2.12928   
    16. RY*(   8) O   1                  0.00000     2.50631   
    17. RY*(   9) O   1                  0.00000     1.16245   
    18. RY*(   1) O   2                  0.00395     1.46052   
    19. RY*(   2) O   2                  0.00053     1.08708   
    20. RY*(   3) O   2                  0.00002     3.17296   
    21. RY*(   4) O   2                  0.00000     0.88176   
    22. RY*(   5) O   2                  0.00000     2.49854   
    23. RY*(   6) O   2                  0.00000     2.65580   
    24. RY*(   7) O   2                  0.00000     2.12928   
    25. RY*(   8) O   2                  0.00000     2.50631   
    26. RY*(   9) O   2                  0.00000     1.16245   
    27. BD*(   1) O   1 - O   2          0.00000     0.37638   
    28. BD*(   2) O   1 - O   2          0.00000    -0.15614   
       -------------------------------
              Total Lewis   15.99100  ( 99.9437%)
        Valence non-Lewis    0.00000  (  0.0000%)
        Rydberg non-Lewis    0.00900  (  0.0563%)
       -------------------------------
            Total unit  1   16.00000  (100.0000%)
           Charge unit  1    0.00000
 Unable to Open any file for archive entry.
 1\1\GINC-LOCALHOST\FOpt\RB3LYP\CC-pVDZ\O2\USER\21-Mar-2026\0\\# opt fr
 eq b3lyp/cc-pvdz pop=nbo geom=connectivity\\O2-B3LYP-CC-PVDZ\\0,1\O,0.
 8468957156,0.10683761,0.\O,-0.3631966556,0.10683761,0.\\Version=ES64L-
 G16RevC.02\HF=-150.2714555\RMSD=3.325e-09\RMSF=5.862e-05\Dipole=0.,0.,
 0.\Quadrupole=-0.3169118,-0.4953798,0.8122916,0.,0.,0.\PG=D*H [C*(O1.O
 1)]\\@
 The archive entry for this job was punched.


 WE HAVE SEEN THAT MAN ON THE AVERAGE DOES NOT LIVE ABOVE
 TWO-AND-TWENTY YEARS.  DURING THESE TWO AND TWENTY
 YEARS HE IS LIABLE TO TWO AND TWENTY THOUSAND EVILS,
 MANY OF WHICH ARE INCURABLE.  YET EVEN IN THIS DREADFUL STATE
 MEN STILL STRUT AND POSE ON THE STAGE OF LIFE.
 THEY MAKE LOVE AT THE RISK OF DESTRUCTION,
 INTRIGUE, CARRY ON WAR, AND FORM PROJECTS, JUST AS IF THEY
 WERE TO LIVE IN LUXURY AND HAPPINESS FOR A THOUSAND
 AGES.

                                              -- VOLTAIRE
 Job cpu time:       0 days  0 hours  0 minutes 50.7 seconds.
 Elapsed time:       0 days  0 hours  0 minutes  3.5 seconds.
 File lengths (MBytes):  RWF=      6 Int=      0 D2E=      0 Chk=      1 Scr=      1
 Normal termination of Gaussian 16 at Sat Mar 21 10:16:29 2026.
 Link1:  Proceeding to internal job step number  2.
 -------------------------------------------------------------------
 #N Geom=AllCheck Guess=TCheck SCRF=Check GenChk RB3LYP/CC-pVDZ Freq
 -------------------------------------------------------------------
 1/10=4,29=7,30=1,38=1,40=1/1,3;
 2/12=2,40=1/2;
 3/5=16,11=2,14=-4,25=1,30=1,70=2,71=2,74=-5,116=1,140=1/1,2,3;
 4/5=101/1;
 5/5=2,38=6,98=1/2;
 8/6=4,10=90,11=11/1;
 11/6=1,8=1,9=11,15=111,16=1/1,2,10;
 10/6=1/2;
 6/7=2,8=2,9=2,10=2,28=1,40=1/1,7;
 7/8=1,10=1,25=1/1,2,3,16;
 1/10=4,30=1/3;
 99//99;
 Structure from the checkpoint file:  "O2-B3LYP-CC-PVDZ.chk"
 ----------------
 O2-B3LYP-CC-PVDZ
 ----------------
 Charge =  0 Multiplicity = 1
 Redundant internal coordinates found in file.  (old form).
 O,0,0.8468957156,0.10683761,0.
 O,0,-0.3631966556,0.10683761,0.
 Recover connectivity data from disk.

 GradGradGradGradGradGradGradGradGradGradGradGradGradGradGradGradGradGrad
 Berny optimization.
 Initialization pass.
                           ----------------------------
                           !    Initial Parameters    !
                           ! (Angstroms and Degrees)  !
 --------------------------                            --------------------------
 ! Name  Definition              Value          Derivative Info.                !
 --------------------------------------------------------------------------------
 ! R1    R(1,2)                  1.2101         calculate D2E/DX2 analytically  !
 --------------------------------------------------------------------------------
 Trust Radius=3.00D-01 FncErr=1.00D-07 GrdErr=1.00D-07 EigMax=2.50D+02 EigMin=1.00D-04
 Number of steps in this run=      2 maximum allowed number of steps=      2.
 GradGradGradGradGradGradGradGradGradGradGradGradGradGradGradGradGradGrad

                          Input orientation:                          
 ---------------------------------------------------------------------
 Center     Atomic      Atomic             Coordinates (Angstroms)
 Number     Number       Type             X           Y           Z
 ---------------------------------------------------------------------
      1          8           0        0.846896    0.106838    0.000000
      2          8           0       -0.363197    0.106838   -0.000000
 ---------------------------------------------------------------------
 Stoichiometry    O2
 Framework group  D*H[C*(O.O)]
 Deg. of freedom     1
 Full point group                 D*H     NOp   8
 Largest Abelian subgroup         D2H     NOp   8
 Largest concise Abelian subgroup C2      NOp   2
                         Standard orientation:                         
 ---------------------------------------------------------------------
 Center     Atomic      Atomic             Coordinates (Angstroms)
 Number     Number       Type             X           Y           Z
 ---------------------------------------------------------------------
      1          8           0        0.000000    0.000000    0.605046
      2          8           0        0.000000    0.000000   -0.605046
 ---------------------------------------------------------------------
 Rotational constants (GHZ):           0.0000000          43.1547120          43.1547120
 Standard basis: CC-pVDZ (5D, 7F)
 There are     8 symmetry adapted cartesian basis functions of AG  symmetry.
 There are     1 symmetry adapted cartesian basis functions of B1G symmetry.
 There are     3 symmetry adapted cartesian basis functions of B2G symmetry.
 There are     3 symmetry adapted cartesian basis functions of B3G symmetry.
 There are     1 symmetry adapted cartesian basis functions of AU  symmetry.
 There are     8 symmetry adapted cartesian basis functions of B1U symmetry.
 There are     3 symmetry adapted cartesian basis functions of B2U symmetry.
 There are     3 symmetry adapted cartesian basis functions of B3U symmetry.
 There are     7 symmetry adapted basis functions of AG  symmetry.
 There are     1 symmetry adapted basis functions of B1G symmetry.
 There are     3 symmetry adapted basis functions of B2G symmetry.
 There are     3 symmetry adapted basis functions of B3G symmetry.
 There are     1 symmetry adapted basis functions of AU  symmetry.
 There are     7 symmetry adapted basis functions of B1U symmetry.
 There are     3 symmetry adapted basis functions of B2U symmetry.
 There are     3 symmetry adapted basis functions of B3U symmetry.
    28 basis functions,    66 primitive gaussians,    30 cartesian basis functions
     8 alpha electrons        8 beta electrons
       nuclear repulsion energy        27.9874018744 Hartrees.
 NAtoms=    2 NActive=    2 NUniq=    1 SFac= 4.00D+00 NAtFMM=   60 NAOKFM=F Big=F
 Integral buffers will be    131072 words long.
 Raffenetti 2 integral format.
 Two-electron integral symmetry is turned on.
 One-electron integrals computed using PRISM.
 NBasis=    28 RedAO= T EigKep=  1.96D-02  NBF=     7     1     3     3     1     7     3     3
 NBsUse=    28 1.00D-06 EigRej= -1.00D+00 NBFU=     7     1     3     3     1     7     3     3
 Initial guess from the checkpoint file:  "O2-B3LYP-CC-PVDZ.chk"
 B after Tr=    -0.000000    0.000000    0.000000
         Rot=    1.000000    0.000000    0.000000    0.000000 Ang=   0.00 deg.
 Initial guess orbital symmetries:
       Occupied  (SGG) (SGU) (SGG) (SGU) (SGG) (PIU) (PIU) (PIG)
       Virtual   (PIG) (SGU) (SGU) (PIU) (PIU) (SGG) (PIG) (PIG)
                 (SGG) (SGU) (PIU) (PIU) (?A) (?A) (DLTU) (DLTU)
                 (?A) (PIG) (PIG) (SGU)
 Keep R1 ints in memory in symmetry-blocked form, NReq=20812887.
 Requested convergence on RMS density matrix=1.00D-08 within 128 cycles.
 Requested convergence on MAX density matrix=1.00D-06.
 Requested convergence on             energy=1.00D-06.
 No special actions if energy rises.
 SCF Done:  E(RB3LYP) =  -150.271455516     A.U. after    1 cycles
            NFock=  1  Conv=0.90D-10     -V/T= 2.0042
 DoSCS=F DFT=T ScalE2(SS,OS)=  1.000000  1.000000
 Range of M.O.s used for correlation:     1    28
 NBasis=    28 NAE=     8 NBE=     8 NFC=     0 NFV=     0
 NROrb=     28 NOA=     8 NOB=     8 NVA=    20 NVB=    20

 **** Warning!!: The smallest alpha delta epsilon is  0.70642738D-01

 Symmetrizing basis deriv contribution to polar:
 IMax=3 JMax=2 DiffMx= 0.00D+00
 G2DrvN: will do     3 centers at a time, making    1 passes.
 Calling FoFCou, ICntrl=  3107 FMM=F I1Cent=   0 AccDes= 0.00D+00.
 End of G2Drv F.D. properties file   721 does not exist.
 End of G2Drv F.D. properties file   722 does not exist.
 End of G2Drv F.D. properties file   788 does not exist.
          IDoAtm=11
          Differentiating once with respect to electric field.
                with respect to dipole field.
          Differentiating once with respect to nuclear coordinates.
 Keep R1 ints in memory in symmetry-blocked form, NReq=20730700.
          There are     6 degrees of freedom in the 1st order CPHF.  IDoFFX=4 NUNeed=     6.
      6 vectors produced by pass  0 Test12= 2.67D-15 1.67D-08 XBig12= 1.40D+01 3.39D+00.
 AX will form     6 AO Fock derivatives at one time.
      6 vectors produced by pass  1 Test12= 2.67D-15 1.67D-08 XBig12= 8.02D+00 1.46D+00.
      6 vectors produced by pass  2 Test12= 2.67D-15 1.67D-08 XBig12= 4.92D-02 1.04D-01.
      6 vectors produced by pass  3 Test12= 2.67D-15 1.67D-08 XBig12= 5.00D-04 1.29D-02.
      6 vectors produced by pass  4 Test12= 2.67D-15 1.67D-08 XBig12= 3.45D-06 1.47D-03.
      5 vectors produced by pass  5 Test12= 2.67D-15 1.67D-08 XBig12= 5.78D-09 3.01D-05.
      1 vectors produced by pass  6 Test12= 2.67D-15 1.67D-08 XBig12= 4.04D-12 8.19D-07.
      1 vectors produced by pass  7 Test12= 2.67D-15 1.67D-08 XBig12= 4.18D-15 2.24D-08.
 InvSVY:  IOpt=1 It=  1 EMax= 4.44D-16
 Solved reduced A of dimension    37 with     6 vectors.
 Isotropic polarizability for W=    0.000000        5.71 Bohr**3.
 End of Minotr F.D. properties file   721 does not exist.
 End of Minotr F.D. properties file   722 does not exist.
 End of Minotr F.D. properties file   788 does not exist.

 **********************************************************************

            Population analysis using the SCF Density.

 **********************************************************************

 Orbital symmetries:
       Occupied  (SGG) (SGU) (SGG) (SGU) (SGG) (PIU) (PIU) (PIG)
       Virtual   (PIG) (SGU) (SGU) (PIU) (PIU) (SGG) (PIG) (PIG)
                 (SGG) (SGU) (PIU) (PIU) (?A) (?A) (DLTU) (DLTU)
                 (?A) (PIG) (PIG) (SGU)
 Unable to determine electronic state:  partially filled degenerate orbitals.
 Alpha  occ. eigenvalues --  -19.28658 -19.28643  -1.28053  -0.79372  -0.52628
 Alpha  occ. eigenvalues --   -0.51405  -0.50634  -0.24427
 Alpha virt. eigenvalues --   -0.17363   0.22044   0.79166   0.82335   0.84103
 Alpha virt. eigenvalues --    0.90035   0.94193   0.95405   1.07267   1.68958
 Alpha virt. eigenvalues --    2.06435   2.09607   2.34933   2.35150   2.64774
 Alpha virt. eigenvalues --    2.65030   2.78371   3.26298   3.29572   3.77702
          Condensed to atoms (all electrons):
               1          2
     1  O    7.867290   0.132710
     2  O    0.132710   7.867290
 Mulliken charges:
               1
     1  O    0.000000
     2  O    0.000000
 Sum of Mulliken charges =   0.00000
 Mulliken charges with hydrogens summed into heavy atoms:
               1
     1  O    0.000000
     2  O    0.000000
 APT charges:
               1
     1  O    0.000000
     2  O    0.000000
 Sum of APT charges =   0.00000
 APT charges with hydrogens summed into heavy atoms:
               1
     1  O    0.000000
     2  O    0.000000
 Electronic spatial extent (au):  <R**2>=             43.1217
 Charge=              0.0000 electrons
 Dipole moment (field-independent basis, Debye):
    X=             -0.0000    Y=              0.0000    Z=             -0.0000  Tot=              0.0000
 Quadrupole moment (field-independent basis, Debye-Ang):
   XX=             -8.8629   YY=            -10.6218   ZZ=            -10.3817
   XY=              0.0000   XZ=              0.0000   YZ=              0.0000
 Traceless Quadrupole moment (field-independent basis, Debye-Ang):
   XX=              1.0926   YY=             -0.6663   ZZ=             -0.4263
   XY=              0.0000   XZ=              0.0000   YZ=              0.0000
 Octapole moment (field-independent basis, Debye-Ang**2):
  XXX=             -0.0000  YYY=             -0.0000  ZZZ=             -0.0000  XYY=             -0.0000
  XXY=             -0.0000  XXZ=             -0.0000  XZZ=             -0.0000  YZZ=              0.0000
  YYZ=             -0.0000  XYZ=              0.0000
 Hexadecapole moment (field-independent basis, Debye-Ang**3):
 XXXX=             -5.4642 YYYY=             -7.1134 ZZZZ=            -27.4461 XXXY=              0.0000
 XXXZ=              0.0000 YYYX=              0.0000 YYYZ=              0.0000 ZZZX=              0.0000
 ZZZY=              0.0000 XXYY=             -2.0962 XXZZ=             -5.2042 YYZZ=             -6.4908
 XXYZ=              0.0000 YYXZ=              0.0000 ZZXY=             -0.0000
 N-N= 2.798740187440D+01 E-N=-4.113960640325D+02  KE= 1.496454112092D+02
 Symmetry AG   KE= 6.961687103068D+01
 Symmetry B1G  KE= 1.214242729792D-34
 Symmetry B2G  KE= 9.820846878590D-33
 Symmetry B3G  KE= 5.945741698685D+00
 Symmetry AU   KE= 2.601184097232D-34
 Symmetry B1U  KE= 6.497488524997D+01
 Symmetry B2U  KE= 4.603662958587D+00
 Symmetry B3U  KE= 4.504250271299D+00
  Exact polarizability:       3.545       0.000       2.540      -0.000       0.000      11.054
 Approx polarizability:       4.955      -0.000       2.874      -0.000      -0.000      24.030
 ******************************Gaussian NBO Version 3.1******************************
             N A T U R A L   A T O M I C   O R B I T A L   A N D
          N A T U R A L   B O N D   O R B I T A L   A N A L Y S I S
 ******************************Gaussian NBO Version 3.1******************************
       /RESON  / : Allow strongly delocalized NBO set

 Analyzing the SCF density

 Job title: O2-B3LYP-CC-PVDZ                                                

 Storage needed:      2518 in NPA,      3238 in NBO (1342177252 available)
 GSVD:  LWork=         504 too small for GESVD, short by         266 words or         266 for optimal perf.
 GSVD:  LWork=         592 too small for GESVD, short by           8 words or           8 for optimal perf.
 GSVD:  LWork=         504 too small for GESVD, short by         266 words or         266 for optimal perf.


 NATURAL POPULATIONS:  Natural atomic orbital occupancies 
                                                          
   NAO  Atom  No  lang   Type(AO)    Occupancy      Energy
 ----------------------------------------------------------
     1    O    1  S      Cor( 1S)     1.99991     -19.13948
     2    O    1  S      Val( 2S)     1.80752      -0.98099
     3    O    1  S      Ryd( 3S)     0.00866       1.37989
     4    O    1  px     Val( 2p)     0.99736      -0.33688
     5    O    1  px     Ryd( 3p)     0.00001       0.88152
     6    O    1  py     Val( 2p)     1.99371      -0.37003
     7    O    1  py     Ryd( 3p)     0.00411       0.89737
     8    O    1  pz     Val( 2p)     1.17667      -0.30543
     9    O    1  pz     Ryd( 3p)     0.00440       0.86049
    10    O    1  dxy    Ryd( 3d)     0.00000       2.49854
    11    O    1  dxz    Ryd( 3d)     0.00263       2.65783
    12    O    1  dyz    Ryd( 3d)     0.00218       2.69078
    13    O    1  dx2y2  Ryd( 3d)     0.00008       2.50097
    14    O    1  dz2    Ryd( 3d)     0.00277       3.21640
 
    15    O    2  S      Cor( 1S)     1.99991     -19.13948
    16    O    2  S      Val( 2S)     1.80752      -0.98099
    17    O    2  S      Ryd( 3S)     0.00866       1.37989
    18    O    2  px     Val( 2p)     0.99736      -0.33688
    19    O    2  px     Ryd( 3p)     0.00001       0.88152
    20    O    2  py     Val( 2p)     1.99371      -0.37003
    21    O    2  py     Ryd( 3p)     0.00411       0.89737
    22    O    2  pz     Val( 2p)     1.17667      -0.30543
    23    O    2  pz     Ryd( 3p)     0.00440       0.86049
    24    O    2  dxy    Ryd( 3d)     0.00000       2.49854
    25    O    2  dxz    Ryd( 3d)     0.00263       2.65783
    26    O    2  dyz    Ryd( 3d)     0.00218       2.69078
    27    O    2  dx2y2  Ryd( 3d)     0.00008       2.50097
    28    O    2  dz2    Ryd( 3d)     0.00277       3.21640


 Summary of Natural Population Analysis:                  
                                                          
                                       Natural Population 
                Natural  -----------------------------------------------
    Atom  No    Charge         Core      Valence    Rydberg      Total
 -----------------------------------------------------------------------
      O    1    0.00000      1.99991     5.97526    0.02483     8.00000
      O    2    0.00000      1.99991     5.97526    0.02483     8.00000
 =======================================================================
   * Total *    0.00000      3.99982    11.95052    0.04966    16.00000

                                 Natural Population      
 --------------------------------------------------------
   Core                       3.99982 ( 99.9955% of   4)
   Valence                   11.95052 ( 99.5876% of  12)
   Natural Minimal Basis     15.95034 ( 99.6896% of  16)
   Natural Rydberg Basis      0.04966 (  0.3104% of  16)
 --------------------------------------------------------

    Atom  No          Natural Electron Configuration
 ----------------------------------------------------------------------------
      O    1      [core]2S( 1.81)2p( 4.17)3S( 0.01)3p( 0.01)3d( 0.01)
      O    2      [core]2S( 1.81)2p( 4.17)3S( 0.01)3p( 0.01)3d( 0.01)


 NATURAL BOND ORBITAL ANALYSIS:

                       Occupancies       Lewis Structure    Low   High
           Occ.    -------------------  -----------------   occ   occ
  Cycle   Thresh.   Lewis   Non-Lewis     CR  BD  3C  LP    (L)   (NL)   Dev
 =============================================================================
   1(1)    1.90    15.99100   0.00900      2   2   0   4     0      0    0.02
 -----------------------------------------------------------------------------

 Structure accepted: No low occupancy Lewis orbitals

 --------------------------------------------------------
   Core                      3.99982 ( 99.996% of   4)
   Valence Lewis            11.99118 ( 99.926% of  12)
  ==================       ============================
   Total Lewis              15.99100 ( 99.944% of  16)
  -----------------------------------------------------
   Valence non-Lewis         0.00000 (  0.000% of  16)
   Rydberg non-Lewis         0.00900 (  0.056% of  16)
  ==================       ============================
   Total non-Lewis           0.00900 (  0.056% of  16)
 --------------------------------------------------------


       (Occupancy)   Bond orbital/ Coefficients/ Hybrids
 ---------------------------------------------------------------------------------
     1. (2.00000) BD ( 1) O   1 - O   2  
                ( 50.00%)   0.7071* O   1 s( 19.70%)p 4.06( 80.04%)d 0.01(  0.26%)
                                            0.0000 -0.4352 -0.0871  0.0000  0.0000
                                            0.0000  0.0000  0.8924 -0.0637  0.0000
                                            0.0000  0.0000 -0.0034 -0.0510
                ( 50.00%)   0.7071* O   2 s( 19.70%)p 4.06( 80.04%)d 0.01(  0.26%)
                                           -0.0000 -0.4352 -0.0871  0.0000  0.0000
                                            0.0000  0.0000 -0.8924  0.0637  0.0000
                                            0.0000  0.0000 -0.0034 -0.0510
     2. (2.00000) BD ( 2) O   1 - O   2  
                ( 50.00%)   0.7071* O   1 s(  0.00%)p 1.00( 99.74%)d 0.00(  0.26%)
                                            0.0000  0.0000  0.0000  0.9987  0.0028
                                            0.0000  0.0000  0.0000  0.0000  0.0000
                                           -0.0513  0.0000  0.0000  0.0000
                ( 50.00%)   0.7071* O   2 s(  0.00%)p 1.00( 99.74%)d 0.00(  0.26%)
                                            0.0000  0.0000  0.0000  0.9987  0.0028
                                            0.0000  0.0000  0.0000  0.0000  0.0000
                                            0.0513  0.0000  0.0000  0.0000
     3. (1.99991) CR ( 1) O   1           s(100.00%)
                                            1.0000  0.0000 -0.0000  0.0000  0.0000
                                            0.0000  0.0000  0.0000 -0.0000  0.0000
                                            0.0000  0.0000  0.0000 -0.0000
     4. (1.99991) CR ( 1) O   2           s(100.00%)
                                            1.0000  0.0000 -0.0000  0.0000  0.0000
                                            0.0000  0.0000 -0.0000  0.0000  0.0000
                                            0.0000  0.0000  0.0000 -0.0000
     5. (1.99954) LP ( 1) O   1           s( 80.97%)p 0.23( 19.02%)d 0.00(  0.01%)
                                           -0.0000  0.8996 -0.0211  0.0000  0.0000
                                            0.0000  0.0000  0.4361 -0.0011  0.0000
                                            0.0000  0.0000  0.0057 -0.0088
     6. (1.99605) LP ( 2) O   1           s(  0.00%)p 1.00( 99.96%)d 0.00(  0.04%)
                                            0.0000  0.0000  0.0000  0.0000  0.0000
                                            0.9994  0.0276  0.0000  0.0000  0.0000
                                            0.0000 -0.0204  0.0000  0.0000
     7. (1.99954) LP ( 1) O   2           s( 80.97%)p 0.23( 19.02%)d 0.00(  0.01%)
                                           -0.0000  0.8996 -0.0211  0.0000  0.0000
                                            0.0000  0.0000 -0.4361  0.0011  0.0000
                                            0.0000  0.0000  0.0057 -0.0088
     8. (1.99605) LP ( 2) O   2           s(  0.00%)p 1.00( 99.96%)d 0.00(  0.04%)
                                            0.0000  0.0000  0.0000  0.0000  0.0000
                                            0.9994  0.0276  0.0000  0.0000  0.0000
                                            0.0000  0.0204  0.0000  0.0000
     9. (0.00395) RY*( 1) O   1           s(  0.00%)p 1.00( 65.63%)d 0.52( 34.37%)
                                            0.0000  0.0000  0.0000  0.0000  0.0000
                                           -0.0104  0.8100  0.0000  0.0000  0.0000
                                            0.0000  0.5863  0.0000  0.0000
    10. (0.00053) RY*( 2) O   1           s( 35.08%)p 1.85( 64.89%)d 0.00(  0.02%)
                                            0.0000 -0.0328  0.5914  0.0000  0.0000
                                            0.0000  0.0000  0.0979  0.7996  0.0000
                                            0.0000  0.0000  0.0011 -0.0153
    11. (0.00002) RY*( 3) O   1           s(  1.89%)p 0.78(  1.48%)d51.18( 96.63%)
    12. (0.00000) RY*( 4) O   1           s(  0.00%)p 1.00(100.00%)d 0.00(  0.00%)
    13. (0.00000) RY*( 5) O   1           s(  0.00%)p 0.00(  0.00%)d 1.00(100.00%)
    14. (0.00000) RY*( 6) O   1           s(  0.00%)p 1.00(  0.26%)d99.99( 99.74%)
    15. (0.00000) RY*( 7) O   1           s(  0.00%)p 1.00( 34.41%)d 1.91( 65.59%)
    16. (0.00000) RY*( 8) O   1           s(  0.02%)p 0.91(  0.02%)d99.99( 99.96%)
    17. (0.00000) RY*( 9) O   1           s( 62.34%)p 0.55( 34.55%)d 0.05(  3.12%)
    18. (0.00395) RY*( 1) O   2           s(  0.00%)p 1.00( 65.63%)d 0.52( 34.37%)
                                            0.0000  0.0000  0.0000  0.0000  0.0000
                                           -0.0104  0.8100  0.0000  0.0000  0.0000
                                            0.0000 -0.5863  0.0000  0.0000
    19. (0.00053) RY*( 2) O   2           s( 35.08%)p 1.85( 64.89%)d 0.00(  0.02%)
                                           -0.0000 -0.0328  0.5914 -0.0000 -0.0000
                                           -0.0000 -0.0000 -0.0979 -0.7996 -0.0000
                                           -0.0000 -0.0000  0.0011 -0.0153
    20. (0.00002) RY*( 3) O   2           s(  1.89%)p 0.78(  1.48%)d51.18( 96.63%)
    21. (0.00000) RY*( 4) O   2           s(  0.00%)p 1.00(100.00%)d 0.00(  0.00%)
    22. (0.00000) RY*( 5) O   2           s(  0.00%)p 0.00(  0.00%)d 1.00(100.00%)
    23. (0.00000) RY*( 6) O   2           s(  0.00%)p 1.00(  0.26%)d99.99( 99.74%)
    24. (0.00000) RY*( 7) O   2           s(  0.00%)p 1.00( 34.41%)d 1.91( 65.59%)
    25. (0.00000) RY*( 8) O   2           s(  0.02%)p 0.91(  0.02%)d99.99( 99.96%)
    26. (0.00000) RY*( 9) O   2           s( 62.34%)p 0.55( 34.55%)d 0.05(  3.12%)
    27. (0.00000) BD*( 1) O   1 - O   2  
                ( 50.00%)   0.7071* O   1 s( 19.70%)p 4.06( 80.04%)d 0.01(  0.26%)
                ( 50.00%)  -0.7071* O   2 s( 19.70%)p 4.06( 80.04%)d 0.01(  0.26%)
    28. (0.00000) BD*( 2) O   1 - O   2  
                ( 50.00%)   0.7071* O   1 s(  0.00%)p 1.00( 99.74%)d 0.00(  0.26%)
                ( 50.00%)  -0.7071* O   2 s(  0.00%)p 1.00( 99.74%)d 0.00(  0.26%)


 NHO Directionality and "Bond Bending" (deviations from line of nuclear centers)

         [Thresholds for printing:  angular deviation  >  1.0 degree]
                                    hybrid p-character > 25.0%
                                    orbital occupancy  >  0.10e

                                Line of Centers        Hybrid 1              Hybrid 2
                                ---------------  -------------------   ------------------
                NBO               Theta   Phi    Theta   Phi    Dev    Theta   Phi    Dev
 ========================================================================================
     2. BD (   2) O   1 - O   2   180.0    0.0    90.0    0.0  90.0     90.0    0.0  90.0
     6. LP (   2) O   1             --     --     90.0   90.0   --       --     --    --
     8. LP (   2) O   2             --     --     90.0   90.0   --       --     --    --


 Second Order Perturbation Theory Analysis of Fock Matrix in NBO Basis

     Threshold for printing:   0.50 kcal/mol
                                                                              E(2)  E(j)-E(i) F(i,j)
         Donor NBO (i)                     Acceptor NBO (j)                 kcal/mol   a.u.    a.u. 
 ===================================================================================================

 within unit  1
   3. CR (   1) O   1                / 19. RY*(   2) O   2                    1.25   20.23    0.142
   4. CR (   1) O   2                / 10. RY*(   2) O   1                    1.25   20.23    0.142
   5. LP (   1) O   1                / 19. RY*(   2) O   2                    0.95    1.99    0.039
   6. LP (   2) O   1                / 18. RY*(   1) O   2                    4.57    1.83    0.082
   6. LP (   2) O   1                / 24. RY*(   7) O   2                    0.69    2.50    0.037
   7. LP (   1) O   2                / 10. RY*(   2) O   1                    0.95    1.99    0.039
   8. LP (   2) O   2                /  9. RY*(   1) O   1                    4.57    1.83    0.082
   8. LP (   2) O   2                / 15. RY*(   7) O   1                    0.69    2.50    0.037


 Natural Bond Orbitals (Summary):

                                                            Principal Delocalizations
           NBO                        Occupancy    Energy   (geminal,vicinal,remote)
 ====================================================================================
 Molecular unit  1  (O2)
     1. BD (   1) O   1 - O   2          2.00000    -1.09130   
     2. BD (   2) O   1 - O   2          2.00000    -0.51405   
     3. CR (   1) O   1                  1.99991   -19.13960  19(v)
     4. CR (   1) O   2                  1.99991   -19.13960  10(v)
     5. LP (   1) O   1                  1.99954    -0.89989  19(v)
     6. LP (   2) O   1                  1.99605    -0.37168  18(v),24(v)
     7. LP (   1) O   2                  1.99954    -0.89989  10(v)
     8. LP (   2) O   2                  1.99605    -0.37168  9(v),15(v)
     9. RY*(   1) O   1                  0.00395     1.46052   
    10. RY*(   2) O   1                  0.00053     1.08708   
    11. RY*(   3) O   1                  0.00002     3.17296   
    12. RY*(   4) O   1                  0.00000     0.88176   
    13. RY*(   5) O   1                  0.00000     2.49854   
    14. RY*(   6) O   1                  0.00000     2.65580   
    15. RY*(   7) O   1                  0.00000     2.12928   
    16. RY*(   8) O   1                  0.00000     2.50631   
    17. RY*(   9) O   1                  0.00000     1.16245   
    18. RY*(   1) O   2                  0.00395     1.46052   
    19. RY*(   2) O   2                  0.00053     1.08708   
    20. RY*(   3) O   2                  0.00002     3.17296   
    21. RY*(   4) O   2                  0.00000     0.88176   
    22. RY*(   5) O   2                  0.00000     2.49854   
    23. RY*(   6) O   2                  0.00000     2.65580   
    24. RY*(   7) O   2                  0.00000     2.12928   
    25. RY*(   8) O   2                  0.00000     2.50631   
    26. RY*(   9) O   2                  0.00000     1.16245   
    27. BD*(   1) O   1 - O   2          0.00000     0.37638   
    28. BD*(   2) O   1 - O   2          0.00000    -0.15614   
       -------------------------------
              Total Lewis   15.99100  ( 99.9437%)
        Valence non-Lewis    0.00000  (  0.0000%)
        Rydberg non-Lewis    0.00900  (  0.0563%)
       -------------------------------
            Total unit  1   16.00000  (100.0000%)
           Charge unit  1    0.00000
 Calling FoFJK, ICntrl=    100127 FMM=F ISym2X=1 I1Cent= 0 IOpClX= 0 NMat=1 NMatS=1 NMatT=0.
 Full mass-weighted force constant matrix:
 Low frequencies ---    0.0011    0.0022    0.0023   12.1915   12.5158 1631.4282
 Diagonal vibrational polarizability:
        0.0000000       0.0000000       0.0000000
 Harmonic frequencies (cm**-1), IR intensities (KM/Mole), Raman scattering
 activities (A**4/AMU), depolarization ratios for plane and unpolarized
 incident light, reduced masses (AMU), force constants (mDyne/A),
 and normal coordinates:
                      1
                     SGG
 Frequencies --   1631.4282
 Red. masses --     15.9949
 Frc consts  --     25.0823
 IR Inten    --      0.0000
  Atom  AN      X      Y      Z
     1   8    -0.00   0.00   0.71
     2   8     0.00   0.00  -0.71

 -------------------
 - Thermochemistry -
 -------------------
 Temperature   298.150 Kelvin.  Pressure   1.00000 Atm.
 Atom     1 has atomic number  8 and mass  15.99491
 Atom     2 has atomic number  8 and mass  15.99491
 Molecular mass:    31.98983 amu.
 Principal axes and moments of inertia in atomic units:
                           1         2         3
     Eigenvalues --     0.00000  41.82026  41.82026
           X           -0.00000   1.00000  -0.00000
           Y            0.00000   0.00000   1.00000
           Z            1.00000   0.00000  -0.00000
 This molecule is a prolate symmetric top.
 Rotational symmetry number  2.
 Rotational temperature (Kelvin)      2.07110
 Rotational constant (GHZ):          43.154712
 Zero-point vibrational energy       9758.1 (Joules/Mol)
                                    2.33224 (Kcal/Mol)
 Vibrational temperatures:   2347.26
          (Kelvin)
 
 Zero-point correction=                           0.003717 (Hartree/Particle)
 Thermal correction to Energy=                    0.006080
 Thermal correction to Enthalpy=                  0.007024
 Thermal correction to Gibbs Free Energy=        -0.015218
 Sum of electronic and zero-point Energies=           -150.267739
 Sum of electronic and thermal Energies=              -150.265376
 Sum of electronic and thermal Enthalpies=            -150.264431
 Sum of electronic and thermal Free Energies=         -150.286674
 
                     E (Thermal)             CV                S
                      KCal/Mol        Cal/Mol-Kelvin    Cal/Mol-Kelvin
 Total                    3.815              5.015             46.813
 Electronic               0.000              0.000              0.000
 Translational            0.889              2.981             36.321
 Rotational               0.592              1.987             10.485
 Vibrational              2.334              0.047              0.007
                       Q            Log10(Q)             Ln(Q)
 Total Bot       0.999527D+07          6.999794         16.117622
 Total V=0       0.512084D+09          8.709341         20.053999
 Vib (Bot)       0.195263D-01         -1.709381         -3.935996
 Vib (V=0)       0.100038D+01          0.000165          0.000381
 Electronic      0.100000D+01          0.000000          0.000000
 Translational   0.711167D+07          6.851972         15.777248
 Rotational      0.719787D+02          1.857204          4.276370
 ***** Axes restored to original set *****
 -------------------------------------------------------------------
 Center     Atomic                   Forces (Hartrees/Bohr)
 Number     Number              X              Y              Z
 -------------------------------------------------------------------
      1        8          -0.000101530   -0.000000000   -0.000000000
      2        8           0.000101530    0.000000000    0.000000000
 -------------------------------------------------------------------
 Cartesian Forces:  Max     0.000101530 RMS     0.000058618
 FormGI is forming the generalized inverse of G from B-inverse, IUseBI=4.

 GradGradGradGradGradGradGradGradGradGradGradGradGradGradGradGradGradGrad
 Berny optimization.
 Internal  Forces:  Max     0.000101530 RMS     0.000101530
 Search for a local minimum.
 Step number   1 out of a maximum of    2
 All quantities printed in internal units (Hartrees-Bohrs-Radians)
 Second derivative matrix not updated -- analytic derivatives used.
 The second derivative matrix:
                          R1
           R1           0.80553
 ITU=  0
     Eigenvalues ---    0.80553
 Angle between quadratic step and forces=   0.00 degrees.
 Linear search not attempted -- first point.
 Iteration  1 RMS(Cart)=  0.00008912 RMS(Int)=  0.00000000
 Iteration  2 RMS(Cart)=  0.00000000 RMS(Int)=  0.00000000
 ClnCor:  largest displacement from symmetrization is 3.86D-21 for atom     2.
 Variable       Old X    -DE/DX   Delta X   Delta X   Delta X     New X
                                 (Linear)    (Quad)   (Total)
    R1        2.28674  -0.00010   0.00000  -0.00013  -0.00013   2.28662
         Item               Value     Threshold  Converged?
 Maximum Force            0.000102     0.000450     YES
 RMS     Force            0.000102     0.000300     YES
 Maximum Displacement     0.000063     0.001800     YES
 RMS     Displacement     0.000089     0.001200     YES
 Predicted change in Energy=-6.398499D-09
 Optimization completed.
    -- Stationary point found.
                           ----------------------------
                           !   Optimized Parameters   !
                           ! (Angstroms and Degrees)  !
 --------------------------                            --------------------------
 ! Name  Definition              Value          Derivative Info.                !
 --------------------------------------------------------------------------------
 ! R1    R(1,2)                  1.2101         -DE/DX =   -0.0001              !
 --------------------------------------------------------------------------------
 GradGradGradGradGradGradGradGradGradGradGradGradGradGradGradGradGradGrad

 Dipole is zero, so no output in dipole orientation.

 ----------------------------------------------------------------------

 Electric dipole moment (input orientation):
 (Debye = 10**-18 statcoulomb cm , SI units = C m)
                  (au)            (Debye)         (10**-30 SI)
   Tot        0.000000D+00      0.000000D+00      0.000000D+00
   x          0.000000D+00      0.000000D+00      0.000000D+00
   y          0.000000D+00      0.000000D+00      0.000000D+00
   z          0.000000D+00      0.000000D+00      0.000000D+00

 Dipole polarizability, Alpha (input orientation).
 (esu units = cm**3 , SI units = C**2 m**2 J**-1)
 Alpha(0;0):
               (au)            (10**-24 esu)      (10**-40 SI)
   iso        0.571301D+01      0.846581D+00      0.941948D+00
   aniso      0.805865D+01      0.119417D+01      0.132869D+01
   xx         0.110541D+02      0.163804D+01      0.182257D+01
   yx         0.000000D+00      0.000000D+00      0.000000D+00
   yy         0.254040D+01      0.376449D+00      0.418856D+00
   zx         0.000000D+00      0.000000D+00      0.000000D+00
   zy         0.000000D+00      0.000000D+00      0.000000D+00
   zz         0.354456D+01      0.525250D+00      0.584420D+00

 ----------------------------------------------------------------------
 Unable to Open any file for archive entry.
 1\1\GINC-LOCALHOST\Freq\RB3LYP\CC-pVDZ\O2\USER\21-Mar-2026\0\\#N Geom=
 AllCheck Guess=TCheck SCRF=Check GenChk RB3LYP/CC-pVDZ Freq\\O2-B3LYP-
 CC-PVDZ\\0,1\O,0.8468957156,0.10683761,0.\O,-0.3631966556,0.10683761,0
 .\\Version=ES64L-G16RevC.02\HF=-150.2714555\RMSD=9.028e-11\RMSF=5.862e
 -05\ZeroPoint=0.0037167\Thermal=0.00608\ETot=-150.2653756\HTot=-150.26
 44314\GTot=-150.2866735\Dipole=0.,0.,0.\DipoleDeriv=0.,0.,0.,0.,0.,0.,
 0.,0.,0.,0.,0.,0.,0.,0.,0.,0.,0.,0.\Polar=11.0540697,0.,2.5404033,0.,0
 .,3.5445639\Quadrupole=-0.3169118,-0.4953798,0.8122916,0.,0.,0.\PG=D*H
  [C*(O1.O1)]\NImag=0\\0.80552557,0.,0.00004741,0.,0.,0.00004498,-0.805
 52557,0.,0.,0.80552557,0.,-0.00004741,0.,0.,0.00004741,0.,0.,-0.000044
 98,0.,0.,0.00004498\\0.00010153,0.,0.,-0.00010153,0.,0.\\\@
 The archive entry for this job was punched.


 TIME IS NATURE'S WAY OF MAKING SURE EVERYTHING
 DOESN'T HAPPEN AT ONCE.
                     - WOODY ALLEN
 Job cpu time:       0 days  0 hours  0 minutes 32.1 seconds.
 Elapsed time:       0 days  0 hours  0 minutes  2.1 seconds.
 File lengths (MBytes):  RWF=      6 Int=      0 D2E=      0 Chk=      1 Scr=      1
 Normal termination of Gaussian 16 at Sat Mar 21 10:16:32 2026.
