 Entering Gaussian System, Link 0=g16
 Input=O2-HF-CC-PVDZ.gjf
 Output=O2-HF-CC-PVDZ.log
 Initial command:
 /home/user/gaussian16_I/g16/l1.exe "/home/user/gaussian16_I/temp/Gau-3556941.inp" -scrdir="/home/user/gaussian16_I/temp/"
 Entering Link 1 = /home/user/gaussian16_I/g16/l1.exe PID=   3556942.
  
 Copyright (c) 1988-2021, Gaussian, Inc.  All Rights Reserved.
  
 This is part of the Gaussian(R) 16 program.  It is based on
 the Gaussian(R) 09 system (copyright 2009, Gaussian, Inc.),
 the Gaussian(R) 03 system (copyright 2003, Gaussian, Inc.),
 the Gaussian(R) 98 system (copyright 1998, Gaussian, Inc.),
 the Gaussian(R) 94 system (copyright 1995, Gaussian, Inc.),
 the Gaussian 92(TM) system (copyright 1992, Gaussian, Inc.),
 the Gaussian 90(TM) system (copyright 1990, Gaussian, Inc.),
 the Gaussian 88(TM) system (copyright 1988, Gaussian, Inc.),
 the Gaussian 86(TM) system (copyright 1986, Carnegie Mellon
 University), and the Gaussian 82(TM) system (copyright 1983,
 Carnegie Mellon University). Gaussian is a federally registered
 trademark of Gaussian, Inc.
  
 This software contains proprietary and confidential information,
 including trade secrets, belonging to Gaussian, Inc.
  
 This software is provided under written license and may be
 used, copied, transmitted, or stored only in accord with that
 written license.
  
 The following legend is applicable only to US Government
 contracts under FAR:
  
                    RESTRICTED RIGHTS LEGEND
  
 Use, reproduction and disclosure by the US Government is
 subject to restrictions as set forth in subparagraphs (a)
 and (c) of the Commercial Computer Software - Restricted
 Rights clause in FAR 52.227-19.
  
 Gaussian, Inc.
 340 Quinnipiac St., Bldg. 40, Wallingford CT 06492
  
  
 ---------------------------------------------------------------
 Warning -- This program may not be used in any manner that
 competes with the business of Gaussian, Inc. or will provide
 assistance to any competitor of Gaussian, Inc.  The licensee
 of this program is prohibited from giving any competitor of
 Gaussian, Inc. access to this program.  By using this program,
 the user acknowledges that Gaussian, Inc. is engaged in the
 business of creating and licensing software in the field of
 computational chemistry and represents and warrants to the
 licensee that it is not a competitor of Gaussian, Inc. and that
 it will not use this program in any manner prohibited above.
 ---------------------------------------------------------------
  

 Cite this work as:
 Gaussian 16, Revision C.02,
 M. J. Frisch, G. W. Trucks, H. B. Schlegel, G. E. Scuseria, 
 M. A. Robb, J. R. Cheeseman, G. Scalmani, V. Barone, 
 G. A. Petersson, H. Nakatsuji, X. Li, M. Caricato, A. V. Marenich, 
 J. Bloino, B. G. Janesko, R. Gomperts, B. Mennucci, H. P. Hratchian, 
 J. V. Ortiz, A. F. Izmaylov, J. L. Sonnenberg, D. Williams-Young, 
 F. Ding, F. Lipparini, F. Egidi, J. Goings, B. Peng, A. Petrone, 
 T. Henderson, D. Ranasinghe, V. G. Zakrzewski, J. Gao, N. Rega, 
 G. Zheng, W. Liang, M. Hada, M. Ehara, K. Toyota, R. Fukuda, 
 J. Hasegawa, M. Ishida, T. Nakajima, Y. Honda, O. Kitao, H. Nakai, 
 T. Vreven, K. Throssell, J. A. Montgomery, Jr., J. E. Peralta, 
 F. Ogliaro, M. J. Bearpark, J. J. Heyd, E. N. Brothers, K. N. Kudin, 
 V. N. Staroverov, T. A. Keith, R. Kobayashi, J. Normand, 
 K. Raghavachari, A. P. Rendell, J. C. Burant, S. S. Iyengar, 
 J. Tomasi, M. Cossi, J. M. Millam, M. Klene, C. Adamo, R. Cammi, 
 J. W. Ochterski, R. L. Martin, K. Morokuma, O. Farkas, 
 J. B. Foresman, and D. J. Fox, Gaussian, Inc., Wallingford CT, 2019.
 
 ******************************************
 Gaussian 16:  ES64L-G16RevC.02  7-Dec-2021
                21-Mar-2026 
 ******************************************
 %mem=10GB
 %CPU=0-23
 SetSPE:  set environment variable "OMP_PROC_BIND" = "true"
 SetSPE:  set environment variable "OMP_PLACES" = "{0},{1},{2},{3},{4},{5},{6},{7},{8},{9},{10},{11},{12},{13},{14},{15},{16},{17},{18},{19},{20},{21},{22},{23}"
 Will use up to   24 processors via shared memory.
 %chk=O2-HF-CC-PVDZ.chk
 -----------------------------------------------
 # opt freq hf/cc-pvdz pop=nbo geom=connectivity
 -----------------------------------------------
 1/18=20,19=15,38=1,57=2/1,3;
 2/9=110,12=2,17=6,18=5,40=1/2;
 3/5=16,11=9,25=1,30=1,71=1/1,2,3;
 4//1;
 5/5=2,38=5/2;
 6/7=2,8=2,9=2,10=2,28=1,40=1/1,7;
 7//1,2,3,16;
 1/18=20,19=15/3(2);
 2/9=110/2;
 99//99;
 2/9=110/2;
 3/5=16,11=9,25=1,30=1,71=1/1,2,3;
 4/5=5,16=3,69=1/1;
 5/5=2,38=5/2;
 7//1,2,3,16;
 1/18=20,19=15/3(-5);
 2/9=110/2;
 6/7=2,8=2,9=2,10=2,19=2,28=1,40=1/1,7;
 99/9=1/99;
 -------------
 O2-HF-CC-PVDZ
 -------------
 Symbolic Z-matrix:
 Charge =  0 Multiplicity = 1
 O                     0.82265   0.10684   0. 
 O                    -0.33895   0.10684   0. 
 

 GradGradGradGradGradGradGradGradGradGradGradGradGradGradGradGradGradGrad
 Berny optimization.
 Initialization pass.
                           ----------------------------
                           !    Initial Parameters    !
                           ! (Angstroms and Degrees)  !
 --------------------------                            --------------------------
 ! Name  Definition              Value          Derivative Info.                !
 --------------------------------------------------------------------------------
 ! R1    R(1,2)                  1.1616         estimate D2E/DX2                !
 --------------------------------------------------------------------------------
 Trust Radius=3.00D-01 FncErr=1.00D-07 GrdErr=1.00D-07 EigMax=2.50D+02 EigMin=1.00D-04
 Number of steps in this run=     20 maximum allowed number of steps=    100.
 GradGradGradGradGradGradGradGradGradGradGradGradGradGradGradGradGradGrad

                          Input orientation:                          
 ---------------------------------------------------------------------
 Center     Atomic      Atomic             Coordinates (Angstroms)
 Number     Number       Type             X           Y           Z
 ---------------------------------------------------------------------
      1          8           0        0.822650    0.106838    0.000000
      2          8           0       -0.338950    0.106838    0.000000
 ---------------------------------------------------------------------
 Stoichiometry    O2
 Framework group  D*H[C*(O.O)]
 Deg. of freedom     1
 Full point group                 D*H     NOp   8
 Largest Abelian subgroup         D2H     NOp   8
 Largest concise Abelian subgroup C2      NOp   2
                         Standard orientation:                         
 ---------------------------------------------------------------------
 Center     Atomic      Atomic             Coordinates (Angstroms)
 Number     Number       Type             X           Y           Z
 ---------------------------------------------------------------------
      1          8           0        0.000000    0.000000    0.580800
      2          8           0        0.000000    0.000000   -0.580800
 ---------------------------------------------------------------------
 Rotational constants (GHZ):           0.0000000          46.8330090          46.8330090
 Standard basis: CC-pVDZ (5D, 7F)
 There are     8 symmetry adapted cartesian basis functions of AG  symmetry.
 There are     1 symmetry adapted cartesian basis functions of B1G symmetry.
 There are     3 symmetry adapted cartesian basis functions of B2G symmetry.
 There are     3 symmetry adapted cartesian basis functions of B3G symmetry.
 There are     1 symmetry adapted cartesian basis functions of AU  symmetry.
 There are     8 symmetry adapted cartesian basis functions of B1U symmetry.
 There are     3 symmetry adapted cartesian basis functions of B2U symmetry.
 There are     3 symmetry adapted cartesian basis functions of B3U symmetry.
 There are     7 symmetry adapted basis functions of AG  symmetry.
 There are     1 symmetry adapted basis functions of B1G symmetry.
 There are     3 symmetry adapted basis functions of B2G symmetry.
 There are     3 symmetry adapted basis functions of B3G symmetry.
 There are     1 symmetry adapted basis functions of AU  symmetry.
 There are     7 symmetry adapted basis functions of B1U symmetry.
 There are     3 symmetry adapted basis functions of B2U symmetry.
 There are     3 symmetry adapted basis functions of B3U symmetry.
    28 basis functions,    66 primitive gaussians,    30 cartesian basis functions
     8 alpha electrons        8 beta electrons
       nuclear repulsion energy        29.1557691967 Hartrees.
 NAtoms=    2 NActive=    2 NUniq=    1 SFac= 4.00D+00 NAtFMM=   60 NAOKFM=F Big=F
 Integral buffers will be    131072 words long.
 Raffenetti 1 integral format.
 Two-electron integral symmetry is turned on.
 One-electron integrals computed using PRISM.
 NBasis=    28 RedAO= T EigKep=  1.66D-02  NBF=     7     1     3     3     1     7     3     3
 NBsUse=    28 1.00D-06 EigRej= -1.00D+00 NBFU=     7     1     3     3     1     7     3     3
 ExpMin= 2.75D-01 ExpMax= 1.17D+04 ExpMxC= 4.01D+02 IAcc=3 IRadAn=         5 AccDes= 0.00D+00
 Harris functional with IExCor=  205 and IRadAn=       5 diagonalized for initial guess.
 HarFok:  IExCor=  205 AccDes= 0.00D+00 IRadAn=         5 IDoV= 1 UseB2=F ITyADJ=14
 ICtDFT=  3500011 ScaDFX=  1.000000  1.000000  1.000000  1.000000
 FoFCou: FMM=F IPFlag=           0 FMFlag=      100000 FMFlg1=           0
         NFxFlg=           0 DoJE=T BraDBF=F KetDBF=T FulRan=T
         wScrn=  0.000000 ICntrl=       500 IOpCl=  0 I1Cent=   200000004 NGrid=           0
         NMat0=    1 NMatS0=      1 NMatT0=    0 NMatD0=    1 NMtDS0=    0 NMtDT0=    0
 Petite list used in FoFCou.
 Initial guess orbital symmetries:
       Occupied  (SGU) (SGG) (SGG) (SGU) (SGG) (PIU) (PIU) (PIG)
       Virtual   (PIG) (SGU) (SGU) (PIU) (PIU) (SGG) (PIG) (PIG)
                 (SGG) (SGU) (PIU) (PIU) (DLTG) (DLTG) (DLTU) (DLTU)
                 (SGG) (PIG) (PIG) (SGU)
 Keep R1 ints in memory in symmetry-blocked form, NReq=5040790.
 Requested convergence on RMS density matrix=1.00D-08 within 128 cycles.
 Requested convergence on MAX density matrix=1.00D-06.
 Requested convergence on             energy=1.00D-06.
 No special actions if energy rises.
 SCF Done:  E(RHF) =  -149.547784511     A.U. after    8 cycles
            NFock=  8  Conv=0.98D-08     -V/T= 1.9995

 **********************************************************************

            Population analysis using the SCF Density.

 **********************************************************************

 Orbital symmetries:
       Occupied  (SGG) (SGU) (SGG) (SGU) (PIU) (SGG) (PIU) (?A)
       Virtual   (?A) (SGU) (PIU) (SGU) (PIU) (SGG) (?A) (?A) (SGG)
                 (SGU) (PIU) (PIU) (DLTG) (DLTG) (DLTU) (DLTU)
                 (SGG) (PIG) (PIG) (SGU)
 Unable to determine electronic state:  an orbital has unidentified symmetry.
 Alpha  occ. eigenvalues --  -20.72780 -20.72668  -1.70117  -1.08517  -0.78272
 Alpha  occ. eigenvalues --   -0.74656  -0.67003  -0.44538
 Alpha virt. eigenvalues --    0.05348   0.51902   1.09572   1.09750   1.11430
 Alpha virt. eigenvalues --    1.12675   1.20789   1.24072   1.31669   2.00534
 Alpha virt. eigenvalues --    2.39639   2.40589   2.65234   2.65242   3.03345
 Alpha virt. eigenvalues --    3.03347   3.30918   3.74958   3.77213   4.19398
          Condensed to atoms (all electrons):
               1          2
     1  O    7.872891   0.127109
     2  O    0.127109   7.872891
 Mulliken charges:
               1
     1  O   -0.000000
     2  O   -0.000000
 Sum of Mulliken charges =  -0.00000
 Mulliken charges with hydrogens summed into heavy atoms:
               1
     1  O   -0.000000
     2  O   -0.000000
 Electronic spatial extent (au):  <R**2>=             41.7048
 Charge=             -0.0000 electrons
 Dipole moment (field-independent basis, Debye):
    X=             -0.0000    Y=              0.0000    Z=              0.0000  Tot=              0.0000
 Quadrupole moment (field-independent basis, Debye-Ang):
   XX=            -10.6319   YY=             -8.9822   ZZ=            -10.5562
   XY=              0.0000   XZ=              0.0000   YZ=             -0.0000
 Traceless Quadrupole moment (field-independent basis, Debye-Ang):
   XX=             -0.5751   YY=              1.0745   ZZ=             -0.4994
   XY=              0.0000   XZ=              0.0000   YZ=             -0.0000
 Octapole moment (field-independent basis, Debye-Ang**2):
  XXX=             -0.0000  YYY=              0.0000  ZZZ=              0.0000  XYY=             -0.0000
  XXY=              0.0000  XXZ=              0.0000  XZZ=             -0.0000  YZZ=              0.0000
  YYZ=              0.0000  XYZ=             -0.0000
 Hexadecapole moment (field-independent basis, Debye-Ang**3):
 XXXX=             -7.0870 YYYY=             -5.6884 ZZZZ=            -26.2801 XXXY=              0.0000
 XXXZ=              0.0000 YYYX=              0.0000 YYYZ=              0.0000 ZZZX=              0.0000
 ZZZY=             -0.0000 XXYY=             -2.1292 XXZZ=             -6.2626 YYZZ=             -5.0400
 XXYZ=              0.0000 YYXZ=              0.0000 ZZXY=              0.0000
 N-N= 2.915576919669D+01 E-N=-4.132644237103D+02  KE= 1.496283535969D+02
 Symmetry AG   KE= 6.978798263530D+01
 Symmetry B1G  KE= 1.438653727606D-34
 Symmetry B2G  KE= 5.956620575653D+00
 Symmetry B3G  KE= 2.935944272730D-32
 Symmetry AU   KE= 3.394466470556D-34
 Symmetry B1U  KE= 6.500186366658D+01
 Symmetry B2U  KE= 4.205189977644D+00
 Symmetry B3U  KE= 4.676696741744D+00
 ******************************Gaussian NBO Version 3.1******************************
             N A T U R A L   A T O M I C   O R B I T A L   A N D
          N A T U R A L   B O N D   O R B I T A L   A N A L Y S I S
 ******************************Gaussian NBO Version 3.1******************************
       /RESON  / : Allow strongly delocalized NBO set

 Analyzing the SCF density

 Job title: O2-HF-CC-PVDZ                                                   

 Storage needed:      2518 in NPA,      3238 in NBO (1342177252 available)
 GSVD:  LWork=         504 too small for GESVD, short by         266 words or         266 for optimal perf.
 GSVD:  LWork=         592 too small for GESVD, short by           8 words or           8 for optimal perf.
 GSVD:  LWork=         504 too small for GESVD, short by         266 words or         266 for optimal perf.


 NATURAL POPULATIONS:  Natural atomic orbital occupancies 
                                                          
   NAO  Atom  No  lang   Type(AO)    Occupancy      Energy
 ----------------------------------------------------------
     1    O    1  S      Cor( 1S)     1.99990     -20.56090
     2    O    1  S      Val( 2S)     1.76409      -1.22738
     3    O    1  S      Ryd( 3S)     0.01005       1.64627
     4    O    1  px     Val( 2p)     1.99234      -0.60608
     5    O    1  px     Ryd( 3p)     0.00550       1.15102
     6    O    1  py     Val( 2p)     0.99492      -0.28514
     7    O    1  py     Ryd( 3p)     0.00061       1.16732
     8    O    1  pz     Val( 2p)     1.21730      -0.33280
     9    O    1  pz     Ryd( 3p)     0.00480       1.08991
    10    O    1  dxy    Ryd( 3d)     0.00000       2.84290
    11    O    1  dxz    Ryd( 3d)     0.00216       3.08182
    12    O    1  dyz    Ryd( 3d)     0.00447       3.06004
    13    O    1  dx2y2  Ryd( 3d)     0.00001       2.84290
    14    O    1  dz2    Ryd( 3d)     0.00385       3.67548
 
    15    O    2  S      Cor( 1S)     1.99990     -20.56090
    16    O    2  S      Val( 2S)     1.76409      -1.22738
    17    O    2  S      Ryd( 3S)     0.01005       1.64627
    18    O    2  px     Val( 2p)     1.99234      -0.60608
    19    O    2  px     Ryd( 3p)     0.00550       1.15102
    20    O    2  py     Val( 2p)     0.99492      -0.28514
    21    O    2  py     Ryd( 3p)     0.00061       1.16732
    22    O    2  pz     Val( 2p)     1.21730      -0.33280
    23    O    2  pz     Ryd( 3p)     0.00480       1.08991
    24    O    2  dxy    Ryd( 3d)     0.00000       2.84290
    25    O    2  dxz    Ryd( 3d)     0.00216       3.08182
    26    O    2  dyz    Ryd( 3d)     0.00447       3.06004
    27    O    2  dx2y2  Ryd( 3d)     0.00001       2.84290
    28    O    2  dz2    Ryd( 3d)     0.00385       3.67548


 Summary of Natural Population Analysis:                  
                                                          
                                       Natural Population 
                Natural  -----------------------------------------------
    Atom  No    Charge         Core      Valence    Rydberg      Total
 -----------------------------------------------------------------------
      O    1   -0.00000      1.99990     5.96864    0.03145     8.00000
      O    2   -0.00000      1.99990     5.96864    0.03145     8.00000
 =======================================================================
   * Total *   -0.00000      3.99981    11.93729    0.06291    16.00000

                                 Natural Population      
 --------------------------------------------------------
   Core                       3.99981 ( 99.9951% of   4)
   Valence                   11.93729 ( 99.4774% of  12)
   Natural Minimal Basis     15.93709 ( 99.6068% of  16)
   Natural Rydberg Basis      0.06291 (  0.3932% of  16)
 --------------------------------------------------------

    Atom  No          Natural Electron Configuration
 ----------------------------------------------------------------------------
      O    1      [core]2S( 1.76)2p( 4.20)3S( 0.01)3p( 0.01)3d( 0.01)
      O    2      [core]2S( 1.76)2p( 4.20)3S( 0.01)3p( 0.01)3d( 0.01)


 NATURAL BOND ORBITAL ANALYSIS:

                       Occupancies       Lewis Structure    Low   High
           Occ.    -------------------  -----------------   occ   occ
  Cycle   Thresh.   Lewis   Non-Lewis     CR  BD  3C  LP    (L)   (NL)   Dev
 =============================================================================
   1(1)    1.90    15.98623   0.01377      2   2   0   4     0      0    0.03
 -----------------------------------------------------------------------------

 Structure accepted: No low occupancy Lewis orbitals

 --------------------------------------------------------
   Core                      3.99981 ( 99.995% of   4)
   Valence Lewis            11.98643 ( 99.887% of  12)
  ==================       ============================
   Total Lewis              15.98623 ( 99.914% of  16)
  -----------------------------------------------------
   Valence non-Lewis         0.00000 (  0.000% of  16)
   Rydberg non-Lewis         0.01377 (  0.086% of  16)
  ==================       ============================
   Total non-Lewis           0.01377 (  0.086% of  16)
 --------------------------------------------------------


       (Occupancy)   Bond orbital/ Coefficients/ Hybrids
 ---------------------------------------------------------------------------------
     1. (2.00000) BD ( 1) O   1 - O   2  
                ( 50.00%)   0.7071* O   1 s( 24.09%)p 3.14( 75.56%)d 0.01(  0.35%)
                                            0.0000 -0.4822 -0.0917  0.0000  0.0000
                                            0.0000  0.0000  0.8668 -0.0660  0.0000
                                            0.0000  0.0000  0.0027 -0.0589
                ( 50.00%)   0.7071* O   2 s( 24.09%)p 3.14( 75.56%)d 0.01(  0.35%)
                                            0.0000 -0.4822 -0.0917  0.0000  0.0000
                                            0.0000  0.0000 -0.8668  0.0660  0.0000
                                            0.0000  0.0000  0.0027 -0.0589
     2. (2.00000) BD ( 2) O   1 - O   2  
                ( 50.00%)   0.7071* O   1 s(  0.00%)p 1.00( 99.55%)d 0.00(  0.45%)
                                            0.0000  0.0000  0.0000  0.0000  0.0000
                                            0.9975  0.0248  0.0000  0.0000  0.0000
                                            0.0000 -0.0668  0.0000  0.0000
                ( 50.00%)   0.7071* O   2 s(  0.00%)p 1.00( 99.55%)d 0.00(  0.45%)
                                            0.0000  0.0000  0.0000  0.0000  0.0000
                                            0.9975  0.0248  0.0000  0.0000  0.0000
                                            0.0000  0.0668  0.0000  0.0000
     3. (1.99990) CR ( 1) O   1           s(100.00%)
                                            1.0000  0.0000 -0.0000  0.0000  0.0000
                                            0.0000  0.0000  0.0000 -0.0000  0.0000
                                            0.0000  0.0000  0.0000 -0.0000
     4. (1.99990) CR ( 1) O   2           s(100.00%)
                                            1.0000  0.0000 -0.0000  0.0000  0.0000
                                            0.0000  0.0000 -0.0000  0.0000  0.0000
                                            0.0000  0.0000  0.0000 -0.0000
     5. (1.99936) LP ( 1) O   1           s( 76.67%)p 0.30( 23.31%)d 0.00(  0.02%)
                                           -0.0001  0.8752 -0.0253  0.0000  0.0000
                                            0.0000  0.0000  0.4828 -0.0067  0.0000
                                            0.0000  0.0000  0.0013 -0.0133
     6. (1.99386) LP ( 2) O   1           s(  0.00%)p 1.00( 99.96%)d 0.00(  0.04%)
                                            0.0000  0.0000  0.0000  0.9996  0.0196
                                            0.0000  0.0000  0.0000  0.0000  0.0000
                                           -0.0195  0.0000  0.0000  0.0000
     7. (1.99936) LP ( 1) O   2           s( 76.67%)p 0.30( 23.31%)d 0.00(  0.02%)
                                           -0.0001  0.8752 -0.0253  0.0000  0.0000
                                            0.0000  0.0000 -0.4828  0.0067  0.0000
                                            0.0000  0.0000  0.0013 -0.0133
     8. (1.99386) LP ( 2) O   2           s(  0.00%)p 1.00( 99.96%)d 0.00(  0.04%)
                                            0.0000  0.0000  0.0000  0.9996  0.0196
                                            0.0000  0.0000  0.0000  0.0000  0.0000
                                            0.0195  0.0000  0.0000  0.0000
     9. (0.00614) RY*( 1) O   1           s(  0.00%)p 1.00( 77.12%)d 0.30( 22.88%)
                                            0.0000  0.0000  0.0000 -0.0079  0.8782
                                            0.0000  0.0000  0.0000  0.0000  0.0000
                                            0.4783  0.0000  0.0000  0.0000
    10. (0.00073) RY*( 2) O   1           s( 48.37%)p 1.00( 48.56%)d 0.06(  3.07%)
                                            0.0000 -0.0365  0.6945  0.0000  0.0000
                                            0.0000  0.0000  0.1164  0.6871  0.0000
                                            0.0000  0.0000  0.0642  0.1629
    11. (0.00000) RY*( 3) O   1           s(  0.00%)p 1.00(100.00%)d 0.00(  0.00%)
    12. (0.00000) RY*( 4) O   1           s( 45.32%)p 1.15( 52.23%)d 0.05(  2.44%)
    13. (0.00000) RY*( 5) O   1           s(  0.00%)p 0.00(  0.00%)d 1.00(100.00%)
    14. (0.00000) RY*( 6) O   1           s(  0.00%)p 1.00( 22.91%)d 3.36( 77.09%)
    15. (0.00000) RY*( 7) O   1           s(  0.00%)p 1.00(  0.45%)d99.99( 99.55%)
    16. (0.00000) RY*( 8) O   1           s(  0.20%)p 1.03(  0.20%)d99.99( 99.60%)
    17. (0.00001) RY*( 9) O   1           s(  5.34%)p 0.02(  0.12%)d17.69( 94.53%)
    18. (0.00614) RY*( 1) O   2           s(  0.00%)p 1.00( 77.12%)d 0.30( 22.88%)
                                            0.0000  0.0000  0.0000 -0.0079  0.8782
                                            0.0000  0.0000  0.0000  0.0000  0.0000
                                           -0.4783  0.0000  0.0000  0.0000
    19. (0.00073) RY*( 2) O   2           s( 48.37%)p 1.00( 48.56%)d 0.06(  3.07%)
                                            0.0000 -0.0365  0.6945  0.0000  0.0000
                                            0.0000  0.0000 -0.1164 -0.6871  0.0000
                                            0.0000  0.0000  0.0642  0.1629
    20. (0.00000) RY*( 3) O   2           s(  0.00%)p 1.00(100.00%)d 0.00(  0.00%)
    21. (0.00000) RY*( 4) O   2           s( 45.32%)p 1.15( 52.23%)d 0.05(  2.44%)
    22. (0.00000) RY*( 5) O   2           s(  0.00%)p 0.00(  0.00%)d 1.00(100.00%)
    23. (0.00000) RY*( 6) O   2           s(  0.00%)p 1.00( 22.91%)d 3.36( 77.09%)
    24. (0.00000) RY*( 7) O   2           s(  0.00%)p 1.00(  0.45%)d99.99( 99.55%)
    25. (0.00000) RY*( 8) O   2           s(  0.20%)p 1.03(  0.20%)d99.99( 99.60%)
    26. (0.00001) RY*( 9) O   2           s(  5.34%)p 0.02(  0.12%)d17.69( 94.53%)
    27. (0.00000) BD*( 1) O   1 - O   2  
                ( 50.00%)   0.7071* O   1 s( 24.09%)p 3.14( 75.56%)d 0.01(  0.35%)
                ( 50.00%)  -0.7071* O   2 s( 24.09%)p 3.14( 75.56%)d 0.01(  0.35%)
    28. (0.00000) BD*( 2) O   1 - O   2  
                ( 50.00%)   0.7071* O   1 s(  0.00%)p 1.00( 99.55%)d 0.00(  0.45%)
                ( 50.00%)  -0.7071* O   2 s(  0.00%)p 1.00( 99.55%)d 0.00(  0.45%)


 NHO Directionality and "Bond Bending" (deviations from line of nuclear centers)

         [Thresholds for printing:  angular deviation  >  1.0 degree]
                                    hybrid p-character > 25.0%
                                    orbital occupancy  >  0.10e

                                Line of Centers        Hybrid 1              Hybrid 2
                                ---------------  -------------------   ------------------
                NBO               Theta   Phi    Theta   Phi    Dev    Theta   Phi    Dev
 ========================================================================================
     2. BD (   2) O   1 - O   2   180.0    0.0    90.0   90.0  90.0     90.0   90.0  90.0
     6. LP (   2) O   1             --     --     90.0    0.0   --       --     --    --
     8. LP (   2) O   2             --     --     90.0    0.0   --       --     --    --


 Second Order Perturbation Theory Analysis of Fock Matrix in NBO Basis

     Threshold for printing:   0.50 kcal/mol
                                                                              E(2)  E(j)-E(i) F(i,j)
         Donor NBO (i)                     Acceptor NBO (j)                 kcal/mol   a.u.    a.u. 
 ===================================================================================================

 within unit  1
   3. CR (   1) O   1                / 19. RY*(   2) O   2                    1.60   21.96    0.168
   4. CR (   1) O   2                / 10. RY*(   2) O   1                    1.60   21.96    0.168
   5. LP (   1) O   1                / 19. RY*(   2) O   2                    1.51    2.58    0.056
   6. LP (   2) O   1                / 18. RY*(   1) O   2                    8.37    2.15    0.120
   6. LP (   2) O   1                / 23. RY*(   6) O   2                    0.71    3.30    0.043
   7. LP (   1) O   2                / 10. RY*(   2) O   1                    1.51    2.58    0.056
   8. LP (   2) O   2                /  9. RY*(   1) O   1                    8.37    2.15    0.120
   8. LP (   2) O   2                / 14. RY*(   6) O   1                    0.71    3.30    0.043


 Natural Bond Orbitals (Summary):

                                                            Principal Delocalizations
           NBO                        Occupancy    Energy   (geminal,vicinal,remote)
 ====================================================================================
 Molecular unit  1  (O2)
     1. BD (   1) O   1 - O   2          2.00000    -1.50514   
     2. BD (   2) O   1 - O   2          2.00000    -0.67003   
     3. CR (   1) O   1                  1.99990   -20.56107  19(v)
     4. CR (   1) O   2                  1.99990   -20.56107  10(v)
     5. LP (   1) O   1                  1.99936    -1.17782  19(v)
     6. LP (   2) O   1                  1.99386    -0.60741  18(v),23(v)
     7. LP (   1) O   2                  1.99936    -1.17782  10(v)
     8. LP (   2) O   2                  1.99386    -0.60741  9(v),14(v)
     9. RY*(   1) O   1                  0.00614     1.54373   
    10. RY*(   2) O   1                  0.00073     1.40028   
    11. RY*(   3) O   1                  0.00000     1.17218   
    12. RY*(   4) O   1                  0.00000     1.32661   
    13. RY*(   5) O   1                  0.00000     2.84290   
    14. RY*(   6) O   1                  0.00000     2.69044   
    15. RY*(   7) O   1                  0.00000     3.05685   
    16. RY*(   8) O   1                  0.00000     2.83790   
    17. RY*(   9) O   1                  0.00001     3.64856   
    18. RY*(   1) O   2                  0.00614     1.54373   
    19. RY*(   2) O   2                  0.00073     1.40028   
    20. RY*(   3) O   2                  0.00000     1.17218   
    21. RY*(   4) O   2                  0.00000     1.32661   
    22. RY*(   5) O   2                  0.00000     2.84290   
    23. RY*(   6) O   2                  0.00000     2.69044   
    24. RY*(   7) O   2                  0.00000     3.05685   
    25. RY*(   8) O   2                  0.00000     2.83790   
    26. RY*(   9) O   2                  0.00001     3.64856   
    27. BD*(   1) O   1 - O   2          0.00000     0.82317   
    28. BD*(   2) O   1 - O   2          0.00000     0.09640   
       -------------------------------
              Total Lewis   15.98623  ( 99.9140%)
        Valence non-Lewis    0.00000  (  0.0000%)
        Rydberg non-Lewis    0.01377  (  0.0860%)
       -------------------------------
            Total unit  1   16.00000  (100.0000%)
           Charge unit  1    0.00000
 Calling FoFJK, ICntrl=      2127 FMM=F ISym2X=1 I1Cent= 0 IOpClX= 0 NMat=1 NMatS=1 NMatT=0.
 ***** Axes restored to original set *****
 -------------------------------------------------------------------
 Center     Atomic                   Forces (Hartrees/Bohr)
 Number     Number              X              Y              Z
 -------------------------------------------------------------------
      1        8          -0.010476625    0.000000000   -0.000000000
      2        8           0.010476625   -0.000000000    0.000000000
 -------------------------------------------------------------------
 Cartesian Forces:  Max     0.010476625 RMS     0.006048682

 GradGradGradGradGradGradGradGradGradGradGradGradGradGradGradGradGradGrad
 Berny optimization.
 FormGI is forming the generalized inverse of G from B-inverse, IUseBI=4.
 Internal  Forces:  Max     0.010476625 RMS     0.010476625
 Search for a local minimum.
 Step number   1 out of a maximum of   20
 All quantities printed in internal units (Hartrees-Bohrs-Radians)
 Mixed Optimization -- RFO/linear search
 Second derivative matrix not updated -- first step.
 The second derivative matrix:
                          R1
           R1           1.26752
 ITU=  0
     Eigenvalues ---    1.26752
 RFO step:  Lambda=-8.65879034D-05 EMin= 1.26752315D+00
 Linear search not attempted -- first point.
 Iteration  1 RMS(Cart)=  0.00584414 RMS(Int)=  0.00000000
 Iteration  2 RMS(Cart)=  0.00000000 RMS(Int)=  0.00000000
 ClnCor:  largest displacement from symmetrization is 2.53D-19 for atom     2.
 Variable       Old X    -DE/DX   Delta X   Delta X   Delta X     New X
                                 (Linear)    (Quad)   (Total)
    R1        2.19511  -0.01048   0.00000  -0.00826  -0.00826   2.18684
         Item               Value     Threshold  Converged?
 Maximum Force            0.010477     0.000450     NO 
 RMS     Force            0.010477     0.000300     NO 
 Maximum Displacement     0.004132     0.001800     NO 
 RMS     Displacement     0.005844     0.001200     NO 
 Predicted change in Energy=-4.329691D-05
 GradGradGradGradGradGradGradGradGradGradGradGradGradGradGradGradGradGrad

                          Input orientation:                          
 ---------------------------------------------------------------------
 Center     Atomic      Atomic             Coordinates (Angstroms)
 Number     Number       Type             X           Y           Z
 ---------------------------------------------------------------------
      1          8           0        0.820463    0.106838    0.000000
      2          8           0       -0.336764    0.106838   -0.000000
 ---------------------------------------------------------------------
 Stoichiometry    O2
 Framework group  D*H[C*(O.O)]
 Deg. of freedom     1
 Full point group                 D*H     NOp   8
 Largest Abelian subgroup         D2H     NOp   8
 Largest concise Abelian subgroup C2      NOp   2
                         Standard orientation:                         
 ---------------------------------------------------------------------
 Center     Atomic      Atomic             Coordinates (Angstroms)
 Number     Number       Type             X           Y           Z
 ---------------------------------------------------------------------
      1          8           0        0.000000    0.000000    0.578613
      2          8           0        0.000000    0.000000   -0.578613
 ---------------------------------------------------------------------
 Rotational constants (GHZ):           0.0000000          47.1876758          47.1876758
 Standard basis: CC-pVDZ (5D, 7F)
 There are     8 symmetry adapted cartesian basis functions of AG  symmetry.
 There are     1 symmetry adapted cartesian basis functions of B1G symmetry.
 There are     3 symmetry adapted cartesian basis functions of B2G symmetry.
 There are     3 symmetry adapted cartesian basis functions of B3G symmetry.
 There are     1 symmetry adapted cartesian basis functions of AU  symmetry.
 There are     8 symmetry adapted cartesian basis functions of B1U symmetry.
 There are     3 symmetry adapted cartesian basis functions of B2U symmetry.
 There are     3 symmetry adapted cartesian basis functions of B3U symmetry.
 There are     7 symmetry adapted basis functions of AG  symmetry.
 There are     1 symmetry adapted basis functions of B1G symmetry.
 There are     3 symmetry adapted basis functions of B2G symmetry.
 There are     3 symmetry adapted basis functions of B3G symmetry.
 There are     1 symmetry adapted basis functions of AU  symmetry.
 There are     7 symmetry adapted basis functions of B1U symmetry.
 There are     3 symmetry adapted basis functions of B2U symmetry.
 There are     3 symmetry adapted basis functions of B3U symmetry.
    28 basis functions,    66 primitive gaussians,    30 cartesian basis functions
     8 alpha electrons        8 beta electrons
       nuclear repulsion energy        29.2659594355 Hartrees.
 NAtoms=    2 NActive=    2 NUniq=    1 SFac= 4.00D+00 NAtFMM=   60 NAOKFM=F Big=F
 Integral buffers will be    131072 words long.
 Raffenetti 1 integral format.
 Two-electron integral symmetry is turned on.
 One-electron integrals computed using PRISM.
 NBasis=    28 RedAO= T EigKep=  1.64D-02  NBF=     7     1     3     3     1     7     3     3
 NBsUse=    28 1.00D-06 EigRej= -1.00D+00 NBFU=     7     1     3     3     1     7     3     3
 Initial guess from the checkpoint file:  "O2-HF-CC-PVDZ.chk"
 B after Tr=    -0.000000    0.000000    0.000000
         Rot=    1.000000    0.000000    0.000000    0.000000 Ang=   0.00 deg.
 Initial guess orbital symmetries:
       Occupied  (SGG) (SGU) (SGG) (SGU) (PIU) (SGG) (PIU) (?A)
       Virtual   (?A) (SGU) (PIU) (SGU) (PIU) (SGG) (?A) (?A) (SGG)
                 (SGU) (PIU) (PIU) (DLTG) (DLTG) (DLTU) (DLTU)
                 (SGG) (PIG) (PIG) (SGU)
 Keep R1 ints in memory in symmetry-blocked form, NReq=5040790.
 Requested convergence on RMS density matrix=1.00D-08 within 128 cycles.
 Requested convergence on MAX density matrix=1.00D-06.
 Requested convergence on             energy=1.00D-06.
 No special actions if energy rises.
 SCF Done:  E(RHF) =  -149.547830802     A.U. after    7 cycles
            NFock=  7  Conv=0.12D-08     -V/T= 1.9993
 Calling FoFJK, ICntrl=      2127 FMM=F ISym2X=1 I1Cent= 0 IOpClX= 0 NMat=1 NMatS=1 NMatT=0.
 ***** Axes restored to original set *****
 -------------------------------------------------------------------
 Center     Atomic                   Forces (Hartrees/Bohr)
 Number     Number              X              Y              Z
 -------------------------------------------------------------------
      1        8          -0.000674493    0.000000000   -0.000000000
      2        8           0.000674493   -0.000000000    0.000000000
 -------------------------------------------------------------------
 Cartesian Forces:  Max     0.000674493 RMS     0.000389419

 GradGradGradGradGradGradGradGradGradGradGradGradGradGradGradGradGradGrad
 Berny optimization.
 Using GEDIIS/GDIIS optimizer.
 Internal  Forces:  Max     0.000674493 RMS     0.000674493
 Search for a local minimum.
 Step number   2 out of a maximum of   20
 All quantities printed in internal units (Hartrees-Bohrs-Radians)
 Mixed Optimization -- En-DIIS/RFO-DIIS
 Update second derivatives using D2CorX and points    1    2
 DE= -4.63D-05 DEPred=-4.33D-05 R= 1.07D+00
 TightC=F SS=  1.41D+00  RLast= 8.26D-03 DXNew= 5.0454D-01 2.4795D-02
 Trust test= 1.07D+00 RLast= 8.26D-03 DXMaxT set to 3.00D-01
 The second derivative matrix:
                          R1
           R1           1.18600
 ITU=  1  0
 Use linear search instead of GDIIS.
     Eigenvalues ---    1.18600
 RFO step:  Lambda= 0.00000000D+00 EMin= 1.18600002D+00
 Quartic linear search produced a step of  0.06768.
 Iteration  1 RMS(Cart)=  0.00039555 RMS(Int)=  0.00000000
 Iteration  2 RMS(Cart)=  0.00000000 RMS(Int)=  0.00000000
 ClnCor:  largest displacement from symmetrization is 1.71D-20 for atom     2.
 Variable       Old X    -DE/DX   Delta X   Delta X   Delta X     New X
                                 (Linear)    (Quad)   (Total)
    R1        2.18684  -0.00067  -0.00056  -0.00000  -0.00056   2.18628
         Item               Value     Threshold  Converged?
 Maximum Force            0.000674     0.000450     NO 
 RMS     Force            0.000674     0.000300     NO 
 Maximum Displacement     0.000280     0.001800     YES
 RMS     Displacement     0.000396     0.001200     YES
 Predicted change in Energy=-1.917450D-07
 GradGradGradGradGradGradGradGradGradGradGradGradGradGradGradGradGradGrad

                          Input orientation:                          
 ---------------------------------------------------------------------
 Center     Atomic      Atomic             Coordinates (Angstroms)
 Number     Number       Type             X           Y           Z
 ---------------------------------------------------------------------
      1          8           0        0.820315    0.106838   -0.000000
      2          8           0       -0.336616    0.106838   -0.000000
 ---------------------------------------------------------------------
 Stoichiometry    O2
 Framework group  D*H[C*(O.O)]
 Deg. of freedom     1
 Full point group                 D*H     NOp   8
 Largest Abelian subgroup         D2H     NOp   8
 Largest concise Abelian subgroup C2      NOp   2
                         Standard orientation:                         
 ---------------------------------------------------------------------
 Center     Atomic      Atomic             Coordinates (Angstroms)
 Number     Number       Type             X           Y           Z
 ---------------------------------------------------------------------
      1          8           0        0.000000    0.000000    0.578465
      2          8           0        0.000000    0.000000   -0.578465
 ---------------------------------------------------------------------
 Rotational constants (GHZ):           0.0000000          47.2118261          47.2118261
 Standard basis: CC-pVDZ (5D, 7F)
 There are     8 symmetry adapted cartesian basis functions of AG  symmetry.
 There are     1 symmetry adapted cartesian basis functions of B1G symmetry.
 There are     3 symmetry adapted cartesian basis functions of B2G symmetry.
 There are     3 symmetry adapted cartesian basis functions of B3G symmetry.
 There are     1 symmetry adapted cartesian basis functions of AU  symmetry.
 There are     8 symmetry adapted cartesian basis functions of B1U symmetry.
 There are     3 symmetry adapted cartesian basis functions of B2U symmetry.
 There are     3 symmetry adapted cartesian basis functions of B3U symmetry.
 There are     7 symmetry adapted basis functions of AG  symmetry.
 There are     1 symmetry adapted basis functions of B1G symmetry.
 There are     3 symmetry adapted basis functions of B2G symmetry.
 There are     3 symmetry adapted basis functions of B3G symmetry.
 There are     1 symmetry adapted basis functions of AU  symmetry.
 There are     7 symmetry adapted basis functions of B1U symmetry.
 There are     3 symmetry adapted basis functions of B2U symmetry.
 There are     3 symmetry adapted basis functions of B3U symmetry.
    28 basis functions,    66 primitive gaussians,    30 cartesian basis functions
     8 alpha electrons        8 beta electrons
       nuclear repulsion energy        29.2734475279 Hartrees.
 NAtoms=    2 NActive=    2 NUniq=    1 SFac= 4.00D+00 NAtFMM=   60 NAOKFM=F Big=F
 Integral buffers will be    131072 words long.
 Raffenetti 1 integral format.
 Two-electron integral symmetry is turned on.
 One-electron integrals computed using PRISM.
 NBasis=    28 RedAO= T EigKep=  1.63D-02  NBF=     7     1     3     3     1     7     3     3
 NBsUse=    28 1.00D-06 EigRej= -1.00D+00 NBFU=     7     1     3     3     1     7     3     3
 Initial guess from the checkpoint file:  "O2-HF-CC-PVDZ.chk"
 B after Tr=    -0.000000    0.000000    0.000000
         Rot=    1.000000    0.000000    0.000000    0.000000 Ang=   0.00 deg.
 Initial guess orbital symmetries:
       Occupied  (SGG) (SGU) (SGG) (SGU) (PIU) (SGG) (PIU) (?A)
       Virtual   (?A) (SGU) (PIU) (SGU) (PIU) (SGG) (?A) (?A) (SGG)
                 (SGU) (PIU) (PIU) (DLTG) (DLTG) (DLTU) (DLTU)
                 (SGG) (PIG) (PIG) (SGU)
 Keep R1 ints in memory in symmetry-blocked form, NReq=5040790.
 Requested convergence on RMS density matrix=1.00D-08 within 128 cycles.
 Requested convergence on MAX density matrix=1.00D-06.
 Requested convergence on             energy=1.00D-06.
 No special actions if energy rises.
 SCF Done:  E(RHF) =  -149.547830991     A.U. after    5 cycles
            NFock=  5  Conv=0.89D-08     -V/T= 1.9993
 Calling FoFJK, ICntrl=      2127 FMM=F ISym2X=1 I1Cent= 0 IOpClX= 0 NMat=1 NMatS=1 NMatT=0.
 ***** Axes restored to original set *****
 -------------------------------------------------------------------
 Center     Atomic                   Forces (Hartrees/Bohr)
 Number     Number              X              Y              Z
 -------------------------------------------------------------------
      1        8           0.000000022    0.000000000   -0.000000000
      2        8          -0.000000022   -0.000000000    0.000000000
 -------------------------------------------------------------------
 Cartesian Forces:  Max     0.000000022 RMS     0.000000013

 GradGradGradGradGradGradGradGradGradGradGradGradGradGradGradGradGradGrad
 Berny optimization.
 Using GEDIIS/GDIIS optimizer.
 Internal  Forces:  Max     0.000000022 RMS     0.000000022
 Search for a local minimum.
 Step number   3 out of a maximum of   20
 All quantities printed in internal units (Hartrees-Bohrs-Radians)
 Mixed Optimization -- En-DIIS/RFO-DIIS
 Swapping is turned off.
 Update second derivatives using D2CorX and points    3
 DE= -1.89D-07 DEPred=-1.92D-07 R= 9.84D-01
 Trust test= 9.84D-01 RLast= 5.59D-04 DXMaxT set to 3.00D-01
 The second derivative matrix:
                          R1
           R1           1.18600
 ITU=  0  1
     Eigenvalues ---    1.18600
 En-DIIS/RFO-DIIS/Sim-DIIS IScMMF=       -3 using points:     3    2
 RFO step:  Lambda=-4.44089210D-16.
 DidBck=F Rises=F RFO-DIIS coefs:    0.99997    0.00003
 Iteration  1 RMS(Cart)=  0.00000001 RMS(Int)=  0.00000000
 ClnCor:  largest displacement from symmetrization is 5.59D-25 for atom     1.
 Variable       Old X    -DE/DX   Delta X   Delta X   Delta X     New X
                                 (Linear)    (Quad)   (Total)
    R1        2.18628   0.00000   0.00000  -0.00000   0.00000   2.18628
         Item               Value     Threshold  Converged?
 Maximum Force            0.000000     0.000450     YES
 RMS     Force            0.000000     0.000300     YES
 Maximum Displacement     0.000000     0.001800     YES
 RMS     Displacement     0.000000     0.001200     YES
 Predicted change in Energy=-2.039723D-16
 Optimization completed.
    -- Stationary point found.
                           ----------------------------
                           !   Optimized Parameters   !
                           ! (Angstroms and Degrees)  !
 --------------------------                            --------------------------
 ! Name  Definition              Value          Derivative Info.                !
 --------------------------------------------------------------------------------
 ! R1    R(1,2)                  1.1569         -DE/DX =    0.0                 !
 --------------------------------------------------------------------------------
 GradGradGradGradGradGradGradGradGradGradGradGradGradGradGradGradGradGrad

                          Input orientation:                          
 ---------------------------------------------------------------------
 Center     Atomic      Atomic             Coordinates (Angstroms)
 Number     Number       Type             X           Y           Z
 ---------------------------------------------------------------------
      1          8           0        0.820315    0.106838   -0.000000
      2          8           0       -0.336616    0.106838   -0.000000
 ---------------------------------------------------------------------
 Stoichiometry    O2
 Framework group  D*H[C*(O.O)]
 Deg. of freedom     1
 Full point group                 D*H     NOp   8
 Largest Abelian subgroup         D2H     NOp   8
 Largest concise Abelian subgroup C2      NOp   2
                         Standard orientation:                         
 ---------------------------------------------------------------------
 Center     Atomic      Atomic             Coordinates (Angstroms)
 Number     Number       Type             X           Y           Z
 ---------------------------------------------------------------------
      1          8           0        0.000000    0.000000    0.578465
      2          8           0        0.000000    0.000000   -0.578465
 ---------------------------------------------------------------------
 Rotational constants (GHZ):           0.0000000          47.2118261          47.2118261

 **********************************************************************

            Population analysis using the SCF Density.

 **********************************************************************

 Orbital symmetries:
       Occupied  (SGG) (SGU) (SGG) (SGU) (PIU) (SGG) (PIU) (?A)
       Virtual   (?A) (SGU) (PIU) (SGU) (PIU) (SGG) (?A) (?A) (SGG)
                 (SGU) (PIU) (PIU) (DLTG) (DLTG) (DLTU) (DLTU)
                 (SGG) (PIG) (PIG) (SGU)
 Unable to determine electronic state:  an orbital has unidentified symmetry.
 Alpha  occ. eigenvalues --  -20.72689 -20.72575  -1.70579  -1.08348  -0.78459
 Alpha  occ. eigenvalues --   -0.74788  -0.67247  -0.44328
 Alpha virt. eigenvalues --    0.05575   0.52487   1.09537   1.10038   1.11350
 Alpha virt. eigenvalues --    1.12407   1.20816   1.24111   1.31594   2.00904
 Alpha virt. eigenvalues --    2.39730   2.40658   2.64936   2.64945   3.03644
 Alpha virt. eigenvalues --    3.03646   3.32289   3.75825   3.78090   4.19469
          Condensed to atoms (all electrons):
               1          2
     1  O    7.875271   0.124729
     2  O    0.124729   7.875271
 Mulliken charges:
               1
     1  O   -0.000000
     2  O   -0.000000
 Sum of Mulliken charges =  -0.00000
 Mulliken charges with hydrogens summed into heavy atoms:
               1
     1  O   -0.000000
     2  O   -0.000000
 Electronic spatial extent (au):  <R**2>=             41.5400
 Charge=             -0.0000 electrons
 Dipole moment (field-independent basis, Debye):
    X=             -0.0000    Y=              0.0000    Z=              0.0000  Tot=              0.0000
 Quadrupole moment (field-independent basis, Debye-Ang):
   XX=            -10.6235   YY=             -8.9711   ZZ=            -10.5620
   XY=              0.0000   XZ=              0.0000   YZ=             -0.0000
 Traceless Quadrupole moment (field-independent basis, Debye-Ang):
   XX=             -0.5713   YY=              1.0811   ZZ=             -0.5098
   XY=              0.0000   XZ=              0.0000   YZ=             -0.0000
 Octapole moment (field-independent basis, Debye-Ang**2):
  XXX=             -0.0000  YYY=              0.0000  ZZZ=              0.0000  XYY=             -0.0000
  XXY=              0.0000  XXZ=              0.0000  XZZ=             -0.0000  YZZ=              0.0000
  YYZ=              0.0000  XYZ=             -0.0000
 Hexadecapole moment (field-independent basis, Debye-Ang**3):
 XXXX=             -7.0786 YYYY=             -5.6747 ZZZZ=            -26.1316 XXXY=              0.0000
 XXXZ=              0.0000 YYYX=              0.0000 YYYZ=              0.0000 ZZZX=              0.0000
 ZZZY=             -0.0000 XXYY=             -2.1255 XXZZ=             -6.2344 YYZZ=             -5.0129
 XXYZ=              0.0000 YYXZ=              0.0000 ZZXY=              0.0000
 N-N= 2.927344752788D+01 E-N=-4.135138745995D+02  KE= 1.496515561321D+02
 Symmetry AG   KE= 6.980656023210D+01
 Symmetry B1G  KE= 1.471538370590D-34
 Symmetry B2G  KE= 5.959946683194D+00
 Symmetry B3G  KE= 7.524304019926D-33
 Symmetry AU   KE= 3.471592588449D-34
 Symmetry B1U  KE= 6.499651068633D+01
 Symmetry B2U  KE= 4.210104555897D+00
 Symmetry B3U  KE= 4.678433974526D+00
 ******************************Gaussian NBO Version 3.1******************************
             N A T U R A L   A T O M I C   O R B I T A L   A N D
          N A T U R A L   B O N D   O R B I T A L   A N A L Y S I S
 ******************************Gaussian NBO Version 3.1******************************
       /RESON  / : Allow strongly delocalized NBO set

 Analyzing the SCF density

 Job title: O2-HF-CC-PVDZ                                                   

 Storage needed:      2518 in NPA,      3238 in NBO (1342177252 available)
 GSVD:  LWork=         504 too small for GESVD, short by         266 words or         266 for optimal perf.
 GSVD:  LWork=         592 too small for GESVD, short by           8 words or           8 for optimal perf.
 GSVD:  LWork=         504 too small for GESVD, short by         266 words or         266 for optimal perf.


 NATURAL POPULATIONS:  Natural atomic orbital occupancies 
                                                          
   NAO  Atom  No  lang   Type(AO)    Occupancy      Energy
 ----------------------------------------------------------
     1    O    1  S      Cor( 1S)     1.99990     -20.55825
     2    O    1  S      Val( 2S)     1.76121      -1.22493
     3    O    1  S      Ryd( 3S)     0.01029       1.64650
     4    O    1  px     Val( 2p)     1.99208      -0.60573
     5    O    1  px     Ryd( 3p)     0.00571       1.15097
     6    O    1  py     Val( 2p)     0.99488      -0.28484
     7    O    1  py     Ryd( 3p)     0.00058       1.16706
     8    O    1  pz     Val( 2p)     1.21984      -0.33303
     9    O    1  pz     Ryd( 3p)     0.00491       1.08787
    10    O    1  dxy    Ryd( 3d)     0.00000       2.84291
    11    O    1  dxz    Ryd( 3d)     0.00220       3.08633
    12    O    1  dyz    Ryd( 3d)     0.00453       3.06451
    13    O    1  dx2y2  Ryd( 3d)     0.00002       2.84291
    14    O    1  dz2    Ryd( 3d)     0.00384       3.68293
 
    15    O    2  S      Cor( 1S)     1.99990     -20.55825
    16    O    2  S      Val( 2S)     1.76121      -1.22493
    17    O    2  S      Ryd( 3S)     0.01029       1.64650
    18    O    2  px     Val( 2p)     1.99208      -0.60573
    19    O    2  px     Ryd( 3p)     0.00571       1.15097
    20    O    2  py     Val( 2p)     0.99488      -0.28484
    21    O    2  py     Ryd( 3p)     0.00058       1.16706
    22    O    2  pz     Val( 2p)     1.21984      -0.33303
    23    O    2  pz     Ryd( 3p)     0.00491       1.08787
    24    O    2  dxy    Ryd( 3d)     0.00000       2.84291
    25    O    2  dxz    Ryd( 3d)     0.00220       3.08633
    26    O    2  dyz    Ryd( 3d)     0.00453       3.06451
    27    O    2  dx2y2  Ryd( 3d)     0.00002       2.84291
    28    O    2  dz2    Ryd( 3d)     0.00384       3.68293


 Summary of Natural Population Analysis:                  
                                                          
                                       Natural Population 
                Natural  -----------------------------------------------
    Atom  No    Charge         Core      Valence    Rydberg      Total
 -----------------------------------------------------------------------
      O    1   -0.00000      1.99990     5.96801    0.03209     8.00000
      O    2   -0.00000      1.99990     5.96801    0.03209     8.00000
 =======================================================================
   * Total *   -0.00000      3.99980    11.93602    0.06418    16.00000

                                 Natural Population      
 --------------------------------------------------------
   Core                       3.99980 ( 99.9950% of   4)
   Valence                   11.93602 ( 99.4668% of  12)
   Natural Minimal Basis     15.93582 ( 99.5989% of  16)
   Natural Rydberg Basis      0.06418 (  0.4011% of  16)
 --------------------------------------------------------

    Atom  No          Natural Electron Configuration
 ----------------------------------------------------------------------------
      O    1      [core]2S( 1.76)2p( 4.21)3S( 0.01)3p( 0.01)3d( 0.01)
      O    2      [core]2S( 1.76)2p( 4.21)3S( 0.01)3p( 0.01)3d( 0.01)


 NATURAL BOND ORBITAL ANALYSIS:

                       Occupancies       Lewis Structure    Low   High
           Occ.    -------------------  -----------------   occ   occ
  Cycle   Thresh.   Lewis   Non-Lewis     CR  BD  3C  LP    (L)   (NL)   Dev
 =============================================================================
   1(1)    1.90    15.98577   0.01423      2   2   0   4     0      0    0.03
 -----------------------------------------------------------------------------

 Structure accepted: No low occupancy Lewis orbitals

 --------------------------------------------------------
   Core                      3.99980 ( 99.995% of   4)
   Valence Lewis            11.98597 ( 99.883% of  12)
  ==================       ============================
   Total Lewis              15.98577 ( 99.911% of  16)
  -----------------------------------------------------
   Valence non-Lewis         0.00000 (  0.000% of  16)
   Rydberg non-Lewis         0.01423 (  0.089% of  16)
  ==================       ============================
   Total non-Lewis           0.01423 (  0.089% of  16)
 --------------------------------------------------------


       (Occupancy)   Bond orbital/ Coefficients/ Hybrids
 ---------------------------------------------------------------------------------
     1. (2.00000) BD ( 1) O   1 - O   2  
                ( 50.00%)   0.7071* O   1 s( 24.38%)p 3.09( 75.27%)d 0.01(  0.35%)
                                           -0.0000 -0.4850 -0.0926  0.0000  0.0000
                                            0.0000  0.0000  0.8650 -0.0668  0.0000
                                            0.0000  0.0000  0.0027 -0.0588
                ( 50.00%)   0.7071* O   2 s( 24.38%)p 3.09( 75.27%)d 0.01(  0.35%)
                                           -0.0000 -0.4850 -0.0926  0.0000  0.0000
                                            0.0000  0.0000 -0.8650  0.0668  0.0000
                                            0.0000  0.0000  0.0027 -0.0588
     2. (2.00000) BD ( 2) O   1 - O   2  
                ( 50.00%)   0.7071* O   1 s(  0.00%)p 1.00( 99.55%)d 0.00(  0.45%)
                                            0.0000  0.0000  0.0000  0.0000  0.0000
                                            0.9974  0.0242  0.0000  0.0000  0.0000
                                            0.0000 -0.0673  0.0000  0.0000
                ( 50.00%)   0.7071* O   2 s(  0.00%)p 1.00( 99.55%)d 0.00(  0.45%)
                                            0.0000  0.0000  0.0000  0.0000  0.0000
                                            0.9974  0.0242  0.0000  0.0000  0.0000
                                            0.0000  0.0673  0.0000  0.0000
     3. (1.99990) CR ( 1) O   1           s(100.00%)
                                            1.0000  0.0001 -0.0000  0.0000  0.0000
                                            0.0000  0.0000  0.0000 -0.0000  0.0000
                                            0.0000  0.0000  0.0000 -0.0000
     4. (1.99990) CR ( 1) O   2           s(100.00%)
                                            1.0000  0.0001 -0.0000  0.0000  0.0000
                                            0.0000  0.0000 -0.0000  0.0000  0.0000
                                            0.0000  0.0000  0.0000 -0.0000
     5. (1.99932) LP ( 1) O   1           s( 76.39%)p 0.31( 23.59%)d 0.00(  0.02%)
                                           -0.0001  0.8736 -0.0257  0.0000  0.0000
                                            0.0000  0.0000  0.4857 -0.0068  0.0000
                                            0.0000  0.0000  0.0013 -0.0134
     6. (1.99367) LP ( 2) O   1           s(  0.00%)p 1.00( 99.96%)d 0.00(  0.04%)
                                            0.0000  0.0000  0.0000  0.9996  0.0202
                                            0.0000  0.0000  0.0000  0.0000  0.0000
                                           -0.0197  0.0000  0.0000  0.0000
     7. (1.99932) LP ( 1) O   2           s( 76.39%)p 0.31( 23.59%)d 0.00(  0.02%)
                                           -0.0001  0.8736 -0.0257  0.0000  0.0000
                                            0.0000  0.0000 -0.4857  0.0068  0.0000
                                            0.0000  0.0000  0.0013 -0.0134
     8. (1.99367) LP ( 2) O   2           s(  0.00%)p 1.00( 99.96%)d 0.00(  0.04%)
                                            0.0000  0.0000  0.0000  0.9996  0.0202
                                            0.0000  0.0000  0.0000  0.0000  0.0000
                                            0.0197  0.0000  0.0000  0.0000
     9. (0.00633) RY*( 1) O   1           s(  0.00%)p 1.00( 77.41%)d 0.29( 22.59%)
                                            0.0000  0.0000  0.0000 -0.0084  0.8798
                                            0.0000  0.0000  0.0000  0.0000  0.0000
                                            0.4753  0.0000  0.0000  0.0000
    10. (0.00077) RY*( 2) O   1           s( 49.24%)p 0.97( 47.79%)d 0.06(  2.97%)
                                           -0.0000 -0.0371  0.7008  0.0000  0.0000
                                            0.0000  0.0000  0.1176  0.6812  0.0000
                                            0.0000  0.0000  0.0628  0.1605
    11. (0.00000) RY*( 3) O   1           s(  0.00%)p 1.00(100.00%)d 0.00(  0.00%)
    12. (0.00000) RY*( 4) O   1           s( 44.67%)p 1.19( 53.03%)d 0.05(  2.30%)
    13. (0.00000) RY*( 5) O   1           s(  0.00%)p 0.00(  0.00%)d 1.00(100.00%)
    14. (0.00000) RY*( 6) O   1           s(  0.00%)p 1.00( 22.63%)d 3.42( 77.37%)
    15. (0.00000) RY*( 7) O   1           s(  0.00%)p 1.00(  0.45%)d99.99( 99.55%)
    16. (0.00000) RY*( 8) O   1           s(  0.19%)p 0.99(  0.19%)d99.99( 99.61%)
    17. (0.00001) RY*( 9) O   1           s(  5.12%)p 0.02(  0.13%)d18.52( 94.76%)
    18. (0.00633) RY*( 1) O   2           s(  0.00%)p 1.00( 77.41%)d 0.29( 22.59%)
                                            0.0000  0.0000  0.0000 -0.0084  0.8798
                                            0.0000  0.0000  0.0000  0.0000  0.0000
                                           -0.4753  0.0000  0.0000  0.0000
    19. (0.00077) RY*( 2) O   2           s( 49.24%)p 0.97( 47.79%)d 0.06(  2.97%)
                                           -0.0000 -0.0371  0.7008  0.0000  0.0000
                                            0.0000  0.0000 -0.1176 -0.6812  0.0000
                                            0.0000  0.0000  0.0628  0.1605
    20. (0.00000) RY*( 3) O   2           s(  0.00%)p 1.00(100.00%)d 0.00(  0.00%)
    21. (0.00000) RY*( 4) O   2           s( 44.67%)p 1.19( 53.03%)d 0.05(  2.30%)
    22. (0.00000) RY*( 5) O   2           s(  0.00%)p 0.00(  0.00%)d 1.00(100.00%)
    23. (0.00000) RY*( 6) O   2           s(  0.00%)p 1.00( 22.63%)d 3.42( 77.37%)
    24. (0.00000) RY*( 7) O   2           s(  0.00%)p 1.00(  0.45%)d99.99( 99.55%)
    25. (0.00000) RY*( 8) O   2           s(  0.19%)p 0.99(  0.19%)d99.99( 99.61%)
    26. (0.00001) RY*( 9) O   2           s(  5.12%)p 0.02(  0.13%)d18.52( 94.76%)
    27. (0.00000) BD*( 1) O   1 - O   2  
                ( 50.00%)   0.7071* O   1 s( 24.38%)p 3.09( 75.27%)d 0.01(  0.35%)
                ( 50.00%)  -0.7071* O   2 s( 24.38%)p 3.09( 75.27%)d 0.01(  0.35%)
    28. (0.00000) BD*( 2) O   1 - O   2  
                ( 50.00%)   0.7071* O   1 s(  0.00%)p 1.00( 99.55%)d 0.00(  0.45%)
                ( 50.00%)  -0.7071* O   2 s(  0.00%)p 1.00( 99.55%)d 0.00(  0.45%)


 NHO Directionality and "Bond Bending" (deviations from line of nuclear centers)

         [Thresholds for printing:  angular deviation  >  1.0 degree]
                                    hybrid p-character > 25.0%
                                    orbital occupancy  >  0.10e

                                Line of Centers        Hybrid 1              Hybrid 2
                                ---------------  -------------------   ------------------
                NBO               Theta   Phi    Theta   Phi    Dev    Theta   Phi    Dev
 ========================================================================================
     2. BD (   2) O   1 - O   2   180.0    0.0    90.0   90.0  90.0     90.0   90.0  90.0
     6. LP (   2) O   1             --     --     90.0    0.0   --       --     --    --
     8. LP (   2) O   2             --     --     90.0    0.0   --       --     --    --


 Second Order Perturbation Theory Analysis of Fock Matrix in NBO Basis

     Threshold for printing:   0.50 kcal/mol
                                                                              E(2)  E(j)-E(i) F(i,j)
         Donor NBO (i)                     Acceptor NBO (j)                 kcal/mol   a.u.    a.u. 
 ===================================================================================================

 within unit  1
   3. CR (   1) O   1                / 19. RY*(   2) O   2                    1.64   21.96    0.170
   4. CR (   1) O   2                / 10. RY*(   2) O   1                    1.64   21.96    0.170
   5. LP (   1) O   1                / 19. RY*(   2) O   2                    1.59    2.58    0.057
   6. LP (   2) O   1                / 18. RY*(   1) O   2                    8.61    2.15    0.121
   6. LP (   2) O   1                / 23. RY*(   6) O   2                    0.73    3.31    0.044
   7. LP (   1) O   2                / 10. RY*(   2) O   1                    1.59    2.58    0.057
   8. LP (   2) O   2                /  9. RY*(   1) O   1                    8.61    2.15    0.121
   8. LP (   2) O   2                / 14. RY*(   6) O   1                    0.73    3.31    0.044


 Natural Bond Orbitals (Summary):

                                                            Principal Delocalizations
           NBO                        Occupancy    Energy   (geminal,vicinal,remote)
 ====================================================================================
 Molecular unit  1  (O2)
     1. BD (   1) O   1 - O   2          2.00000    -1.51648   
     2. BD (   2) O   1 - O   2          2.00000    -0.67247   
     3. CR (   1) O   1                  1.99990   -20.55843  19(v)
     4. CR (   1) O   2                  1.99990   -20.55843  10(v)
     5. LP (   1) O   1                  1.99932    -1.17590  19(v)
     6. LP (   2) O   1                  1.99367    -0.60709  18(v),23(v)
     7. LP (   1) O   2                  1.99932    -1.17590  10(v)
     8. LP (   2) O   2                  1.99367    -0.60709  9(v),14(v)
     9. RY*(   1) O   1                  0.00633     1.53926   
    10. RY*(   2) O   1                  0.00077     1.40309   
    11. RY*(   3) O   1                  0.00000     1.17184   
    12. RY*(   4) O   1                  0.00000     1.31887   
    13. RY*(   5) O   1                  0.00000     2.84291   
    14. RY*(   6) O   1                  0.00000     2.69941   
    15. RY*(   7) O   1                  0.00000     3.06125   
    16. RY*(   8) O   1                  0.00000     2.83815   
    17. RY*(   9) O   1                  0.00001     3.65825   
    18. RY*(   1) O   2                  0.00633     1.53926   
    19. RY*(   2) O   2                  0.00077     1.40309   
    20. RY*(   3) O   2                  0.00000     1.17184   
    21. RY*(   4) O   2                  0.00000     1.31887   
    22. RY*(   5) O   2                  0.00000     2.84291   
    23. RY*(   6) O   2                  0.00000     2.69941   
    24. RY*(   7) O   2                  0.00000     3.06125   
    25. RY*(   8) O   2                  0.00000     2.83815   
    26. RY*(   9) O   2                  0.00001     3.65825   
    27. BD*(   1) O   1 - O   2          0.00000     0.83639   
    28. BD*(   2) O   1 - O   2          0.00000     0.09974   
       -------------------------------
              Total Lewis   15.98577  ( 99.9111%)
        Valence non-Lewis    0.00000  (  0.0000%)
        Rydberg non-Lewis    0.01423  (  0.0889%)
       -------------------------------
            Total unit  1   16.00000  (100.0000%)
           Charge unit  1    0.00000
 Unable to Open any file for archive entry.
 1\1\GINC-LOCALHOST\FOpt\RHF\CC-pVDZ\O2\USER\21-Mar-2026\0\\# opt freq 
 hf/cc-pvdz pop=nbo geom=connectivity\\O2-HF-CC-PVDZ\\0,1\O,0.820314732
 4,0.10683761,0.\O,-0.3366156724,0.10683761,0.\\Version=ES64L-G16RevC.0
 2\HF=-149.547831\RMSD=8.853e-09\RMSF=1.270e-08\Dipole=0.,0.,0.\Quadrup
 ole=-0.3790318,0.8037622,-0.4247304,0.,0.,0.\PG=D*H [C*(O1.O1)]\\@
 The archive entry for this job was punched.


 TERRY FORSTER, PORTLY ATLANTA BRAVES RELIEVER,
 ANNOUNCING THAT HE WAS GOING TO A FAT FARM:
 "A WAIST IS A TERRIBLE THING TO MIND."
 Job cpu time:       0 days  0 hours  0 minutes 48.2 seconds.
 Elapsed time:       0 days  0 hours  0 minutes  3.3 seconds.
 File lengths (MBytes):  RWF=      6 Int=      0 D2E=      0 Chk=      1 Scr=      1
 Normal termination of Gaussian 16 at Sat Mar 21 10:16:48 2026.
 Link1:  Proceeding to internal job step number  2.
 ----------------------------------------------------------------
 #N Geom=AllCheck Guess=TCheck SCRF=Check GenChk RHF/CC-pVDZ Freq
 ----------------------------------------------------------------
 1/10=4,29=7,30=1,38=1,40=1/1,3;
 2/12=2,40=1/2;
 3/5=16,11=1,14=-4,25=1,30=1,70=2,71=2,116=1,140=1/1,2,3;
 4/5=101/1;
 5/5=2,38=6,98=1/2;
 8/6=4,10=90,11=11/1;
 10/13=10,15=4/2;
 11/6=3,8=1,9=11,15=111,16=1/1,2,10;
 10/6=1/2;
 6/7=2,8=2,9=2,10=2,28=1,40=1/1,7;
 7/8=1,10=1,25=1/1,2,3,16;
 1/10=4,30=1/3;
 99//99;
 Structure from the checkpoint file:  "O2-HF-CC-PVDZ.chk"
 -------------
 O2-HF-CC-PVDZ
 -------------
 Charge =  0 Multiplicity = 1
 Redundant internal coordinates found in file.  (old form).
 O,0,0.8203147324,0.10683761,0.
 O,0,-0.3366156724,0.10683761,0.
 Recover connectivity data from disk.

 GradGradGradGradGradGradGradGradGradGradGradGradGradGradGradGradGradGrad
 Berny optimization.
 Initialization pass.
                           ----------------------------
                           !    Initial Parameters    !
                           ! (Angstroms and Degrees)  !
 --------------------------                            --------------------------
 ! Name  Definition              Value          Derivative Info.                !
 --------------------------------------------------------------------------------
 ! R1    R(1,2)                  1.1569         calculate D2E/DX2 analytically  !
 --------------------------------------------------------------------------------
 Trust Radius=3.00D-01 FncErr=1.00D-07 GrdErr=1.00D-07 EigMax=2.50D+02 EigMin=1.00D-04
 Number of steps in this run=      2 maximum allowed number of steps=      2.
 GradGradGradGradGradGradGradGradGradGradGradGradGradGradGradGradGradGrad

                          Input orientation:                          
 ---------------------------------------------------------------------
 Center     Atomic      Atomic             Coordinates (Angstroms)
 Number     Number       Type             X           Y           Z
 ---------------------------------------------------------------------
      1          8           0        0.820315    0.106838   -0.000000
      2          8           0       -0.336616    0.106838   -0.000000
 ---------------------------------------------------------------------
 Stoichiometry    O2
 Framework group  D*H[C*(O.O)]
 Deg. of freedom     1
 Full point group                 D*H     NOp   8
 Largest Abelian subgroup         D2H     NOp   8
 Largest concise Abelian subgroup C2      NOp   2
                         Standard orientation:                         
 ---------------------------------------------------------------------
 Center     Atomic      Atomic             Coordinates (Angstroms)
 Number     Number       Type             X           Y           Z
 ---------------------------------------------------------------------
      1          8           0        0.000000    0.000000    0.578465
      2          8           0        0.000000    0.000000   -0.578465
 ---------------------------------------------------------------------
 Rotational constants (GHZ):           0.0000000          47.2118261          47.2118261
 Standard basis: CC-pVDZ (5D, 7F)
 There are     8 symmetry adapted cartesian basis functions of AG  symmetry.
 There are     1 symmetry adapted cartesian basis functions of B1G symmetry.
 There are     3 symmetry adapted cartesian basis functions of B2G symmetry.
 There are     3 symmetry adapted cartesian basis functions of B3G symmetry.
 There are     1 symmetry adapted cartesian basis functions of AU  symmetry.
 There are     8 symmetry adapted cartesian basis functions of B1U symmetry.
 There are     3 symmetry adapted cartesian basis functions of B2U symmetry.
 There are     3 symmetry adapted cartesian basis functions of B3U symmetry.
 There are     7 symmetry adapted basis functions of AG  symmetry.
 There are     1 symmetry adapted basis functions of B1G symmetry.
 There are     3 symmetry adapted basis functions of B2G symmetry.
 There are     3 symmetry adapted basis functions of B3G symmetry.
 There are     1 symmetry adapted basis functions of AU  symmetry.
 There are     7 symmetry adapted basis functions of B1U symmetry.
 There are     3 symmetry adapted basis functions of B2U symmetry.
 There are     3 symmetry adapted basis functions of B3U symmetry.
    28 basis functions,    66 primitive gaussians,    30 cartesian basis functions
     8 alpha electrons        8 beta electrons
       nuclear repulsion energy        29.2734475279 Hartrees.
 NAtoms=    2 NActive=    2 NUniq=    1 SFac= 4.00D+00 NAtFMM=   60 NAOKFM=F Big=F
 Integral buffers will be    131072 words long.
 Raffenetti 1 integral format.
 Two-electron integral symmetry is turned on.
 One-electron integrals computed using PRISM.
 NBasis=    28 RedAO= T EigKep=  1.63D-02  NBF=     7     1     3     3     1     7     3     3
 NBsUse=    28 1.00D-06 EigRej= -1.00D+00 NBFU=     7     1     3     3     1     7     3     3
 Initial guess from the checkpoint file:  "O2-HF-CC-PVDZ.chk"
 B after Tr=    -0.000000    0.000000    0.000000
         Rot=    1.000000    0.000000    0.000000    0.000000 Ang=   0.00 deg.
 Initial guess orbital symmetries:
       Occupied  (SGG) (SGU) (SGG) (SGU) (PIU) (SGG) (PIU) (?A)
       Virtual   (?A) (SGU) (PIU) (SGU) (PIU) (SGG) (?A) (?A) (SGG)
                 (SGU) (PIU) (PIU) (DLTG) (DLTG) (DLTU) (DLTU)
                 (SGG) (PIG) (PIG) (SGU)
 Keep R1 ints in memory in symmetry-blocked form, NReq=5040790.
 Requested convergence on RMS density matrix=1.00D-08 within 128 cycles.
 Requested convergence on MAX density matrix=1.00D-06.
 Requested convergence on             energy=1.00D-06.
 No special actions if energy rises.
 SCF Done:  E(RHF) =  -149.547830991     A.U. after    1 cycles
            NFock=  1  Conv=0.78D-09     -V/T= 1.9993
 Range of M.O.s used for correlation:     1    28
 NBasis=    28 NAE=     8 NBE=     8 NFC=     0 NFV=     0
 NROrb=     28 NOA=     8 NOB=     8 NVA=    20 NVB=    20
          Differentiating once with respect to electric field.
                with respect to dipole field.
          Electric field/nuclear overlap derivatives assumed to be zero.
 Keep R1 ints in memory in symmetry-blocked form, NReq=5040902.
          There are     3 degrees of freedom in the 1st order CPHF.  IDoFFX=0 NUNeed=     3.
      3 vectors produced by pass  0 Test12= 5.33D-15 3.33D-08 XBig12= 3.15D+00 1.53D+00.
 AX will form     3 AO Fock derivatives at one time.
      3 vectors produced by pass  1 Test12= 5.33D-15 3.33D-08 XBig12= 5.14D-01 3.93D-01.
      3 vectors produced by pass  2 Test12= 5.33D-15 3.33D-08 XBig12= 4.79D-02 1.41D-01.
      3 vectors produced by pass  3 Test12= 5.33D-15 3.33D-08 XBig12= 1.33D-03 1.66D-02.
      3 vectors produced by pass  4 Test12= 5.33D-15 3.33D-08 XBig12= 2.46D-05 2.57D-03.
      3 vectors produced by pass  5 Test12= 5.33D-15 3.33D-08 XBig12= 2.21D-07 1.95D-04.
      3 vectors produced by pass  6 Test12= 5.33D-15 3.33D-08 XBig12= 4.82D-10 1.05D-05.
      1 vectors produced by pass  7 Test12= 5.33D-15 3.33D-08 XBig12= 1.90D-12 5.48D-07.
      1 vectors produced by pass  8 Test12= 5.33D-15 3.33D-08 XBig12= 5.89D-15 4.54D-08.
 InvSVY:  IOpt=1 It=  1 EMax= 3.63D-17
 Solved reduced A of dimension    23 with     3 vectors.
 End of Minotr F.D. properties file   721 does not exist.
 End of Minotr F.D. properties file   722 does not exist.
 End of Minotr F.D. properties file   788 does not exist.
 Symmetrizing basis deriv contribution to polar:
 IMax=3 JMax=2 DiffMx= 0.00D+00
 G2DrvN: will do     3 centers at a time, making    1 passes.
 PxScal for G2LodP:  IOpCl= 0 ISclPx=1 IMOff=     1 NMtTot=     4 NTT=     406 ScalPx= 1.00D+00
 Calling FoFCou, ICntrl=  3107 FMM=F I1Cent=   0 AccDes= 0.00D+00.
 End of G2Drv F.D. properties file   721 does not exist.
 End of G2Drv F.D. properties file   722 does not exist.
 End of G2Drv F.D. properties file   788 does not exist.
          IDoAtm=11
          Differentiating once with respect to electric field.
                with respect to dipole field.
          Differentiating once with respect to nuclear coordinates.
 Keep R1 ints in memory in symmetry-blocked form, NReq=5040948.
          There are     6 degrees of freedom in the 1st order CPHF.  IDoFFX=4 NUNeed=     6.
 Will reuse    3 saved solutions.
      3 vectors produced by pass  0 Test12= 2.67D-15 1.67D-08 XBig12= 5.88D-02 1.49D-01.
 AX will form     3 AO Fock derivatives at one time.
      3 vectors produced by pass  1 Test12= 2.67D-15 1.67D-08 XBig12= 3.10D-03 3.30D-02.
      3 vectors produced by pass  2 Test12= 2.67D-15 1.67D-08 XBig12= 4.63D-05 3.56D-03.
      3 vectors produced by pass  3 Test12= 2.67D-15 1.67D-08 XBig12= 4.80D-07 4.62D-04.
      3 vectors produced by pass  4 Test12= 2.67D-15 1.67D-08 XBig12= 5.33D-09 5.29D-05.
      3 vectors produced by pass  5 Test12= 2.67D-15 1.67D-08 XBig12= 2.01D-11 1.98D-06.
      3 vectors produced by pass  6 Test12= 2.67D-15 1.67D-08 XBig12= 6.16D-14 1.10D-07.
 InvSVY:  IOpt=1 It=  1 EMax= 2.22D-16
 Solved reduced A of dimension    21 with     3 vectors.
 Isotropic polarizability for W=    0.000000        5.83 Bohr**3.
 End of Minotr F.D. properties file   721 does not exist.
 End of Minotr F.D. properties file   722 does not exist.
 End of Minotr F.D. properties file   788 does not exist.

 **********************************************************************

            Population analysis using the SCF Density.

 **********************************************************************

 Orbital symmetries:
       Occupied  (SGG) (SGU) (SGG) (SGU) (PIU) (SGG) (PIU) (?A)
       Virtual   (?A) (SGU) (PIU) (SGU) (PIU) (SGG) (?A) (?A) (SGG)
                 (SGU) (PIU) (PIU) (DLTG) (DLTG) (DLTU) (DLTU)
                 (SGG) (PIG) (PIG) (SGU)
 Unable to determine electronic state:  an orbital has unidentified symmetry.
 Alpha  occ. eigenvalues --  -20.72689 -20.72575  -1.70579  -1.08348  -0.78459
 Alpha  occ. eigenvalues --   -0.74788  -0.67247  -0.44328
 Alpha virt. eigenvalues --    0.05575   0.52487   1.09537   1.10038   1.11350
 Alpha virt. eigenvalues --    1.12407   1.20816   1.24111   1.31594   2.00904
 Alpha virt. eigenvalues --    2.39730   2.40658   2.64936   2.64945   3.03644
 Alpha virt. eigenvalues --    3.03646   3.32289   3.75825   3.78090   4.19469
          Condensed to atoms (all electrons):
               1          2
     1  O    7.875271   0.124729
     2  O    0.124729   7.875271
 Mulliken charges:
               1
     1  O   -0.000000
     2  O   -0.000000
 Sum of Mulliken charges =  -0.00000
 Mulliken charges with hydrogens summed into heavy atoms:
               1
     1  O   -0.000000
     2  O   -0.000000
 APT charges:
               1
     1  O   -0.000000
     2  O   -0.000000
 Sum of APT charges =  -0.00000
 APT charges with hydrogens summed into heavy atoms:
               1
     1  O   -0.000000
     2  O   -0.000000
 Electronic spatial extent (au):  <R**2>=             41.5400
 Charge=             -0.0000 electrons
 Dipole moment (field-independent basis, Debye):
    X=             -0.0000    Y=              0.0000    Z=              0.0000  Tot=              0.0000
 Quadrupole moment (field-independent basis, Debye-Ang):
   XX=            -10.6235   YY=             -8.9711   ZZ=            -10.5620
   XY=              0.0000   XZ=              0.0000   YZ=             -0.0000
 Traceless Quadrupole moment (field-independent basis, Debye-Ang):
   XX=             -0.5713   YY=              1.0811   ZZ=             -0.5098
   XY=              0.0000   XZ=              0.0000   YZ=             -0.0000
 Octapole moment (field-independent basis, Debye-Ang**2):
  XXX=             -0.0000  YYY=              0.0000  ZZZ=              0.0000  XYY=             -0.0000
  XXY=              0.0000  XXZ=              0.0000  XZZ=             -0.0000  YZZ=              0.0000
  YYZ=              0.0000  XYZ=             -0.0000
 Hexadecapole moment (field-independent basis, Debye-Ang**3):
 XXXX=             -7.0786 YYYY=             -5.6747 ZZZZ=            -26.1316 XXXY=              0.0000
 XXXZ=              0.0000 YYYX=              0.0000 YYYZ=              0.0000 ZZZX=              0.0000
 ZZZY=             -0.0000 XXYY=             -2.1255 XXZZ=             -6.2344 YYZZ=             -5.0129
 XXYZ=              0.0000 YYXZ=              0.0000 ZZXY=              0.0000
 N-N= 2.927344752788D+01 E-N=-4.135138747048D+02  KE= 1.496515561966D+02
 Symmetry AG   KE= 6.980656029991D+01
 Symmetry B1G  KE= 1.471538372908D-34
 Symmetry B2G  KE= 5.959946655258D+00
 Symmetry B3G  KE= 7.524304039330D-33
 Symmetry AU   KE= 3.471592656236D-34
 Symmetry B1U  KE= 6.499651074168D+01
 Symmetry B2U  KE= 4.210104546245D+00
 Symmetry B3U  KE= 4.678433953469D+00
  Exact polarizability:       2.527       0.000       3.370      -0.000       0.000      11.597
 Approx polarizability:       2.267      -0.000       3.398      -0.000      -0.000      11.520
 ******************************Gaussian NBO Version 3.1******************************
             N A T U R A L   A T O M I C   O R B I T A L   A N D
          N A T U R A L   B O N D   O R B I T A L   A N A L Y S I S
 ******************************Gaussian NBO Version 3.1******************************
       /RESON  / : Allow strongly delocalized NBO set

 Analyzing the SCF density

 Job title: O2-HF-CC-PVDZ                                                   

 Storage needed:      2518 in NPA,      3238 in NBO (1342177252 available)
 GSVD:  LWork=         504 too small for GESVD, short by         266 words or         266 for optimal perf.
 GSVD:  LWork=         592 too small for GESVD, short by           8 words or           8 for optimal perf.
 GSVD:  LWork=         504 too small for GESVD, short by         266 words or         266 for optimal perf.


 NATURAL POPULATIONS:  Natural atomic orbital occupancies 
                                                          
   NAO  Atom  No  lang   Type(AO)    Occupancy      Energy
 ----------------------------------------------------------
     1    O    1  S      Cor( 1S)     1.99990     -20.55825
     2    O    1  S      Val( 2S)     1.76121      -1.22493
     3    O    1  S      Ryd( 3S)     0.01029       1.64650
     4    O    1  px     Val( 2p)     1.99208      -0.60573
     5    O    1  px     Ryd( 3p)     0.00571       1.15097
     6    O    1  py     Val( 2p)     0.99488      -0.28484
     7    O    1  py     Ryd( 3p)     0.00058       1.16706
     8    O    1  pz     Val( 2p)     1.21984      -0.33303
     9    O    1  pz     Ryd( 3p)     0.00491       1.08787
    10    O    1  dxy    Ryd( 3d)     0.00000       2.84291
    11    O    1  dxz    Ryd( 3d)     0.00220       3.08633
    12    O    1  dyz    Ryd( 3d)     0.00453       3.06451
    13    O    1  dx2y2  Ryd( 3d)     0.00002       2.84291
    14    O    1  dz2    Ryd( 3d)     0.00384       3.68293
 
    15    O    2  S      Cor( 1S)     1.99990     -20.55825
    16    O    2  S      Val( 2S)     1.76121      -1.22493
    17    O    2  S      Ryd( 3S)     0.01029       1.64650
    18    O    2  px     Val( 2p)     1.99208      -0.60573
    19    O    2  px     Ryd( 3p)     0.00571       1.15097
    20    O    2  py     Val( 2p)     0.99488      -0.28484
    21    O    2  py     Ryd( 3p)     0.00058       1.16706
    22    O    2  pz     Val( 2p)     1.21984      -0.33303
    23    O    2  pz     Ryd( 3p)     0.00491       1.08787
    24    O    2  dxy    Ryd( 3d)     0.00000       2.84291
    25    O    2  dxz    Ryd( 3d)     0.00220       3.08633
    26    O    2  dyz    Ryd( 3d)     0.00453       3.06451
    27    O    2  dx2y2  Ryd( 3d)     0.00002       2.84291
    28    O    2  dz2    Ryd( 3d)     0.00384       3.68293


 Summary of Natural Population Analysis:                  
                                                          
                                       Natural Population 
                Natural  -----------------------------------------------
    Atom  No    Charge         Core      Valence    Rydberg      Total
 -----------------------------------------------------------------------
      O    1    0.00000      1.99990     5.96801    0.03209     8.00000
      O    2    0.00000      1.99990     5.96801    0.03209     8.00000
 =======================================================================
   * Total *    0.00000      3.99980    11.93602    0.06418    16.00000

                                 Natural Population      
 --------------------------------------------------------
   Core                       3.99980 ( 99.9950% of   4)
   Valence                   11.93602 ( 99.4668% of  12)
   Natural Minimal Basis     15.93582 ( 99.5989% of  16)
   Natural Rydberg Basis      0.06418 (  0.4011% of  16)
 --------------------------------------------------------

    Atom  No          Natural Electron Configuration
 ----------------------------------------------------------------------------
      O    1      [core]2S( 1.76)2p( 4.21)3S( 0.01)3p( 0.01)3d( 0.01)
      O    2      [core]2S( 1.76)2p( 4.21)3S( 0.01)3p( 0.01)3d( 0.01)


 NATURAL BOND ORBITAL ANALYSIS:

                       Occupancies       Lewis Structure    Low   High
           Occ.    -------------------  -----------------   occ   occ
  Cycle   Thresh.   Lewis   Non-Lewis     CR  BD  3C  LP    (L)   (NL)   Dev
 =============================================================================
   1(1)    1.90    15.98577   0.01423      2   2   0   4     0      0    0.03
 -----------------------------------------------------------------------------

 Structure accepted: No low occupancy Lewis orbitals

 --------------------------------------------------------
   Core                      3.99980 ( 99.995% of   4)
   Valence Lewis            11.98597 ( 99.883% of  12)
  ==================       ============================
   Total Lewis              15.98577 ( 99.911% of  16)
  -----------------------------------------------------
   Valence non-Lewis         0.00000 (  0.000% of  16)
   Rydberg non-Lewis         0.01423 (  0.089% of  16)
  ==================       ============================
   Total non-Lewis           0.01423 (  0.089% of  16)
 --------------------------------------------------------


       (Occupancy)   Bond orbital/ Coefficients/ Hybrids
 ---------------------------------------------------------------------------------
     1. (2.00000) BD ( 1) O   1 - O   2  
                ( 50.00%)   0.7071* O   1 s( 24.38%)p 3.09( 75.27%)d 0.01(  0.35%)
                                           -0.0000 -0.4850 -0.0926  0.0000  0.0000
                                            0.0000  0.0000  0.8650 -0.0668  0.0000
                                            0.0000  0.0000  0.0027 -0.0588
                ( 50.00%)   0.7071* O   2 s( 24.38%)p 3.09( 75.27%)d 0.01(  0.35%)
                                           -0.0000 -0.4850 -0.0926  0.0000  0.0000
                                            0.0000  0.0000 -0.8650  0.0668  0.0000
                                            0.0000  0.0000  0.0027 -0.0588
     2. (2.00000) BD ( 2) O   1 - O   2  
                ( 50.00%)   0.7071* O   1 s(  0.00%)p 1.00( 99.55%)d 0.00(  0.45%)
                                            0.0000  0.0000  0.0000  0.0000  0.0000
                                            0.9974  0.0242  0.0000  0.0000  0.0000
                                            0.0000 -0.0673  0.0000  0.0000
                ( 50.00%)   0.7071* O   2 s(  0.00%)p 1.00( 99.55%)d 0.00(  0.45%)
                                            0.0000  0.0000  0.0000  0.0000  0.0000
                                            0.9974  0.0242  0.0000  0.0000  0.0000
                                            0.0000  0.0673  0.0000  0.0000
     3. (1.99990) CR ( 1) O   1           s(100.00%)
                                            1.0000  0.0001 -0.0000  0.0000  0.0000
                                            0.0000  0.0000  0.0000 -0.0000  0.0000
                                            0.0000  0.0000  0.0000 -0.0000
     4. (1.99990) CR ( 1) O   2           s(100.00%)
                                            1.0000  0.0001 -0.0000  0.0000  0.0000
                                            0.0000  0.0000 -0.0000  0.0000  0.0000
                                            0.0000  0.0000  0.0000 -0.0000
     5. (1.99932) LP ( 1) O   1           s( 76.39%)p 0.31( 23.59%)d 0.00(  0.02%)
                                           -0.0001  0.8736 -0.0257  0.0000  0.0000
                                            0.0000  0.0000  0.4857 -0.0068  0.0000
                                            0.0000  0.0000  0.0013 -0.0134
     6. (1.99367) LP ( 2) O   1           s(  0.00%)p 1.00( 99.96%)d 0.00(  0.04%)
                                            0.0000  0.0000  0.0000  0.9996  0.0202
                                            0.0000  0.0000  0.0000  0.0000  0.0000
                                           -0.0197  0.0000  0.0000  0.0000
     7. (1.99932) LP ( 1) O   2           s( 76.39%)p 0.31( 23.59%)d 0.00(  0.02%)
                                           -0.0001  0.8736 -0.0257  0.0000  0.0000
                                            0.0000  0.0000 -0.4857  0.0068  0.0000
                                            0.0000  0.0000  0.0013 -0.0134
     8. (1.99367) LP ( 2) O   2           s(  0.00%)p 1.00( 99.96%)d 0.00(  0.04%)
                                            0.0000  0.0000  0.0000  0.9996  0.0202
                                            0.0000  0.0000  0.0000  0.0000  0.0000
                                            0.0197  0.0000  0.0000  0.0000
     9. (0.00633) RY*( 1) O   1           s(  0.00%)p 1.00( 77.41%)d 0.29( 22.59%)
                                            0.0000  0.0000  0.0000 -0.0084  0.8798
                                            0.0000  0.0000  0.0000  0.0000  0.0000
                                            0.4753  0.0000  0.0000  0.0000
    10. (0.00077) RY*( 2) O   1           s( 49.24%)p 0.97( 47.79%)d 0.06(  2.97%)
                                           -0.0000 -0.0371  0.7008  0.0000  0.0000
                                            0.0000  0.0000  0.1176  0.6812  0.0000
                                            0.0000  0.0000  0.0628  0.1605
    11. (0.00000) RY*( 3) O   1           s(  0.00%)p 1.00(100.00%)d 0.00(  0.00%)
    12. (0.00000) RY*( 4) O   1           s( 44.67%)p 1.19( 53.03%)d 0.05(  2.30%)
    13. (0.00000) RY*( 5) O   1           s(  0.00%)p 0.00(  0.00%)d 1.00(100.00%)
    14. (0.00000) RY*( 6) O   1           s(  0.00%)p 1.00( 22.63%)d 3.42( 77.37%)
    15. (0.00000) RY*( 7) O   1           s(  0.00%)p 1.00(  0.45%)d99.99( 99.55%)
    16. (0.00000) RY*( 8) O   1           s(  0.19%)p 0.99(  0.19%)d99.99( 99.61%)
    17. (0.00001) RY*( 9) O   1           s(  5.12%)p 0.02(  0.13%)d18.52( 94.76%)
    18. (0.00633) RY*( 1) O   2           s(  0.00%)p 1.00( 77.41%)d 0.29( 22.59%)
                                            0.0000  0.0000  0.0000 -0.0084  0.8798
                                            0.0000  0.0000  0.0000  0.0000  0.0000
                                           -0.4753  0.0000  0.0000  0.0000
    19. (0.00077) RY*( 2) O   2           s( 49.24%)p 0.97( 47.79%)d 0.06(  2.97%)
                                           -0.0000 -0.0371  0.7008  0.0000  0.0000
                                            0.0000  0.0000 -0.1176 -0.6812  0.0000
                                            0.0000  0.0000  0.0628  0.1605
    20. (0.00000) RY*( 3) O   2           s(  0.00%)p 1.00(100.00%)d 0.00(  0.00%)
    21. (0.00000) RY*( 4) O   2           s( 44.67%)p 1.19( 53.03%)d 0.05(  2.30%)
    22. (0.00000) RY*( 5) O   2           s(  0.00%)p 0.00(  0.00%)d 1.00(100.00%)
    23. (0.00000) RY*( 6) O   2           s(  0.00%)p 1.00( 22.63%)d 3.42( 77.37%)
    24. (0.00000) RY*( 7) O   2           s(  0.00%)p 1.00(  0.45%)d99.99( 99.55%)
    25. (0.00000) RY*( 8) O   2           s(  0.19%)p 0.99(  0.19%)d99.99( 99.61%)
    26. (0.00001) RY*( 9) O   2           s(  5.12%)p 0.02(  0.13%)d18.52( 94.76%)
    27. (0.00000) BD*( 1) O   1 - O   2  
                ( 50.00%)   0.7071* O   1 s( 24.38%)p 3.09( 75.27%)d 0.01(  0.35%)
                ( 50.00%)  -0.7071* O   2 s( 24.38%)p 3.09( 75.27%)d 0.01(  0.35%)
    28. (0.00000) BD*( 2) O   1 - O   2  
                ( 50.00%)   0.7071* O   1 s(  0.00%)p 1.00( 99.55%)d 0.00(  0.45%)
                ( 50.00%)  -0.7071* O   2 s(  0.00%)p 1.00( 99.55%)d 0.00(  0.45%)


 NHO Directionality and "Bond Bending" (deviations from line of nuclear centers)

         [Thresholds for printing:  angular deviation  >  1.0 degree]
                                    hybrid p-character > 25.0%
                                    orbital occupancy  >  0.10e

                                Line of Centers        Hybrid 1              Hybrid 2
                                ---------------  -------------------   ------------------
                NBO               Theta   Phi    Theta   Phi    Dev    Theta   Phi    Dev
 ========================================================================================
     2. BD (   2) O   1 - O   2   180.0    0.0    90.0   90.0  90.0     90.0   90.0  90.0
     6. LP (   2) O   1             --     --     90.0    0.0   --       --     --    --
     8. LP (   2) O   2             --     --     90.0    0.0   --       --     --    --


 Second Order Perturbation Theory Analysis of Fock Matrix in NBO Basis

     Threshold for printing:   0.50 kcal/mol
                                                                              E(2)  E(j)-E(i) F(i,j)
         Donor NBO (i)                     Acceptor NBO (j)                 kcal/mol   a.u.    a.u. 
 ===================================================================================================

 within unit  1
   3. CR (   1) O   1                / 19. RY*(   2) O   2                    1.64   21.96    0.170
   4. CR (   1) O   2                / 10. RY*(   2) O   1                    1.64   21.96    0.170
   5. LP (   1) O   1                / 19. RY*(   2) O   2                    1.59    2.58    0.057
   6. LP (   2) O   1                / 18. RY*(   1) O   2                    8.61    2.15    0.121
   6. LP (   2) O   1                / 23. RY*(   6) O   2                    0.73    3.31    0.044
   7. LP (   1) O   2                / 10. RY*(   2) O   1                    1.59    2.58    0.057
   8. LP (   2) O   2                /  9. RY*(   1) O   1                    8.61    2.15    0.121
   8. LP (   2) O   2                / 14. RY*(   6) O   1                    0.73    3.31    0.044


 Natural Bond Orbitals (Summary):

                                                            Principal Delocalizations
           NBO                        Occupancy    Energy   (geminal,vicinal,remote)
 ====================================================================================
 Molecular unit  1  (O2)
     1. BD (   1) O   1 - O   2          2.00000    -1.51648   
     2. BD (   2) O   1 - O   2          2.00000    -0.67247   
     3. CR (   1) O   1                  1.99990   -20.55843  19(v)
     4. CR (   1) O   2                  1.99990   -20.55843  10(v)
     5. LP (   1) O   1                  1.99932    -1.17590  19(v)
     6. LP (   2) O   1                  1.99367    -0.60709  18(v),23(v)
     7. LP (   1) O   2                  1.99932    -1.17590  10(v)
     8. LP (   2) O   2                  1.99367    -0.60709  9(v),14(v)
     9. RY*(   1) O   1                  0.00633     1.53926   
    10. RY*(   2) O   1                  0.00077     1.40309   
    11. RY*(   3) O   1                  0.00000     1.17184   
    12. RY*(   4) O   1                  0.00000     1.31887   
    13. RY*(   5) O   1                  0.00000     2.84291   
    14. RY*(   6) O   1                  0.00000     2.69941   
    15. RY*(   7) O   1                  0.00000     3.06125   
    16. RY*(   8) O   1                  0.00000     2.83815   
    17. RY*(   9) O   1                  0.00001     3.65825   
    18. RY*(   1) O   2                  0.00633     1.53926   
    19. RY*(   2) O   2                  0.00077     1.40309   
    20. RY*(   3) O   2                  0.00000     1.17184   
    21. RY*(   4) O   2                  0.00000     1.31887   
    22. RY*(   5) O   2                  0.00000     2.84291   
    23. RY*(   6) O   2                  0.00000     2.69941   
    24. RY*(   7) O   2                  0.00000     3.06125   
    25. RY*(   8) O   2                  0.00000     2.83815   
    26. RY*(   9) O   2                  0.00001     3.65825   
    27. BD*(   1) O   1 - O   2          0.00000     0.83639   
    28. BD*(   2) O   1 - O   2          0.00000     0.09974   
       -------------------------------
              Total Lewis   15.98577  ( 99.9111%)
        Valence non-Lewis    0.00000  (  0.0000%)
        Rydberg non-Lewis    0.01423  (  0.0889%)
       -------------------------------
            Total unit  1   16.00000  (100.0000%)
           Charge unit  1    0.00000
 Calling FoFJK, ICntrl=    100127 FMM=F ISym2X=1 I1Cent= 0 IOpClX= 0 NMat=1 NMatS=1 NMatT=0.
 Full mass-weighted force constant matrix:
 Low frequencies ---   -0.3093   -0.2131   -0.0021   -0.0015    0.0012 1997.0829
 Diagonal vibrational polarizability:
        0.0000000       0.0000000       0.0000000
 Diagonal vibrational hyperpolarizability:
        0.0000000       0.0000000       0.0000000
 Harmonic frequencies (cm**-1), IR intensities (KM/Mole), Raman scattering
 activities (A**4/AMU), depolarization ratios for plane and unpolarized
 incident light, reduced masses (AMU), force constants (mDyne/A),
 and normal coordinates:
                      1
                     SGG
 Frequencies --   1997.0829
 Red. masses --     15.9949
 Frc consts  --     37.5858
 IR Inten    --      0.0000
 Raman Activ --     18.3365
 Depolar (P) --      0.3316
 Depolar (U) --      0.4981
  Atom  AN      X      Y      Z
     1   8    -0.00   0.00   0.71
     2   8     0.00   0.00  -0.71

 -------------------
 - Thermochemistry -
 -------------------
 Temperature   298.150 Kelvin.  Pressure   1.00000 Atm.
 Atom     1 has atomic number  8 and mass  15.99491
 Atom     2 has atomic number  8 and mass  15.99491
 Molecular mass:    31.98983 amu.
 Principal axes and moments of inertia in atomic units:
                           1         2         3
     Eigenvalues --     0.00000  38.22646  38.22646
           X           -0.00000   1.00000  -0.00000
           Y            0.00000   0.00000   1.00000
           Z            1.00000   0.00000  -0.00000
 This molecule is a prolate symmetric top.
 Rotational symmetry number  2.
 Rotational temperature (Kelvin)      2.26581
 Rotational constant (GHZ):          47.211826
 Zero-point vibrational energy      11945.2 (Joules/Mol)
                                    2.85497 (Kcal/Mol)
 Vibrational temperatures:   2873.36
          (Kelvin)
 
 Zero-point correction=                           0.004550 (Hartree/Particle)
 Thermal correction to Energy=                    0.006911
 Thermal correction to Enthalpy=                  0.007855
 Thermal correction to Gibbs Free Energy=        -0.014300
 Sum of electronic and zero-point Energies=           -149.543281
 Sum of electronic and thermal Energies=              -149.540920
 Sum of electronic and thermal Enthalpies=            -149.539976
 Sum of electronic and thermal Free Energies=         -149.562131
 
                     E (Thermal)             CV                S
                      KCal/Mol        Cal/Mol-Kelvin    Cal/Mol-Kelvin
 Total                    4.337              4.980             46.629
 Electronic               0.000              0.000              0.000
 Translational            0.889              2.981             36.321
 Rotational               0.592              1.987             10.307
 Vibrational              2.855              0.012              0.001
                       Q            Log10(Q)             Ln(Q)
 Total Bot       0.377982D+07          6.577471         15.145187
 Total V=0       0.467930D+09          8.670181         19.963830
 Vib (Bot)       0.807827D-02         -2.092682         -4.818578
 Vib (V=0)       0.100007D+01          0.000028          0.000065
 Electronic      0.100000D+01          0.000000          0.000000
 Translational   0.711167D+07          6.851972         15.777248
 Rotational      0.657932D+02          1.818181          4.186517
 ***** Axes restored to original set *****
 -------------------------------------------------------------------
 Center     Atomic                   Forces (Hartrees/Bohr)
 Number     Number              X              Y              Z
 -------------------------------------------------------------------
      1        8           0.000000025    0.000000000   -0.000000000
      2        8          -0.000000025   -0.000000000    0.000000000
 -------------------------------------------------------------------
 Cartesian Forces:  Max     0.000000025 RMS     0.000000014
 FormGI is forming the generalized inverse of G from B-inverse, IUseBI=4.

 GradGradGradGradGradGradGradGradGradGradGradGradGradGradGradGradGradGrad
 Berny optimization.
 Internal  Forces:  Max     0.000000025 RMS     0.000000025
 Search for a local minimum.
 Step number   1 out of a maximum of    2
 All quantities printed in internal units (Hartrees-Bohrs-Radians)
 Second derivative matrix not updated -- analytic derivatives used.
 The second derivative matrix:
                          R1
           R1           1.20708
 ITU=  0
     Eigenvalues ---    1.20708
 Angle between quadratic step and forces=  90.00 degrees.
 Linear search not attempted -- first point.
 Iteration  1 RMS(Cart)=  0.00000001 RMS(Int)=  0.00000000
 ClnCor:  largest displacement from symmetrization is 6.28D-25 for atom     1.
 Variable       Old X    -DE/DX   Delta X   Delta X   Delta X     New X
                                 (Linear)    (Quad)   (Total)
    R1        2.18628   0.00000   0.00000   0.00000   0.00000   2.18628
         Item               Value     Threshold  Converged?
 Maximum Force            0.000000     0.000450     YES
 RMS     Force            0.000000     0.000300     YES
 Maximum Displacement     0.000000     0.001800     YES
 RMS     Displacement     0.000000     0.001200     YES
 Predicted change in Energy=-2.535986D-16
 Optimization completed.
    -- Stationary point found.
                           ----------------------------
                           !   Optimized Parameters   !
                           ! (Angstroms and Degrees)  !
 --------------------------                            --------------------------
 ! Name  Definition              Value          Derivative Info.                !
 --------------------------------------------------------------------------------
 ! R1    R(1,2)                  1.1569         -DE/DX =    0.0                 !
 --------------------------------------------------------------------------------
 GradGradGradGradGradGradGradGradGradGradGradGradGradGradGradGradGradGrad

 Dipole is zero, so no output in dipole orientation.

 ----------------------------------------------------------------------

 Electric dipole moment (input orientation):
 (Debye = 10**-18 statcoulomb cm , SI units = C m)
                  (au)            (Debye)         (10**-30 SI)
   Tot        0.000000D+00      0.000000D+00      0.000000D+00
   x          0.000000D+00      0.000000D+00      0.000000D+00
   y          0.000000D+00      0.000000D+00      0.000000D+00
   z          0.000000D+00      0.000000D+00      0.000000D+00

 Dipole polarizability, Alpha (input orientation).
 (esu units = cm**3 , SI units = C**2 m**2 J**-1)
 Alpha(0;0):
               (au)            (10**-24 esu)      (10**-40 SI)
   iso        0.583156D+01      0.864148D+00      0.961494D+00
   aniso      0.867874D+01      0.128606D+01      0.143093D+01
   xx         0.115969D+02      0.171848D+01      0.191207D+01
   yx         0.000000D+00      0.000000D+00      0.000000D+00
   yy         0.337047D+01      0.499453D+00      0.555716D+00
   zx         0.000000D+00      0.000000D+00      0.000000D+00
   zy         0.000000D+00      0.000000D+00      0.000000D+00
   zz         0.252733D+01      0.374512D+00      0.416700D+00

 ----------------------------------------------------------------------
 Unable to Open any file for archive entry.
 1\1\GINC-LOCALHOST\Freq\RHF\CC-pVDZ\O2\USER\21-Mar-2026\0\\#N Geom=All
 Check Guess=TCheck SCRF=Check GenChk RHF/CC-pVDZ Freq\\O2-HF-CC-PVDZ\\
 0,1\O,0.8203147324,0.10683761,0.\O,-0.3366156724,0.10683761,0.\\Versio
 n=ES64L-G16RevC.02\HF=-149.547831\RMSD=7.802e-10\RMSF=1.429e-08\ZeroPo
 int=0.0045497\Thermal=0.0069107\ETot=-149.5409202\HTot=-149.5399761\GT
 ot=-149.5621308\Dipole=0.,0.,0.\DipoleDeriv=0.,0.,0.,0.,0.,0.,0.,0.,0.
 ,0.,0.,0.,0.,0.,0.,0.,0.,0.\Polar=11.5968669,0.,3.3704745,0.,0.,2.5273
 292\PolarDeriv=12.4768797,0.,0.1734183,0.,0.,-0.1326889,0.,3.7627322,0
 .,0.,0.,0.,0.,0.,0.,4.1483849,0.,0.,-12.4768797,0.,-0.1734183,0.,0.,0.
 1326889,0.,-3.7627322,0.,0.,0.,0.,0.,0.,0.,-4.1483849,0.,0.\HyperPolar
 =0.,0.,0.,0.,0.,0.,0.,0.,0.,0.\Quadrupole=-0.3790318,0.8037622,-0.4247
 304,0.,0.,0.\PG=D*H [C*(O1.O1)]\NImag=0\\1.20707859,0.,-0.00000003,0.,
 0.,-0.00000001,-1.20707859,0.,0.,1.20707859,0.,0.00000003,0.,0.,-0.000
 00003,0.,0.,0.00000001,0.,0.,-0.00000001\\-0.00000002,0.,0.,0.00000002
 ,0.,0.\\\@
 The archive entry for this job was punched.


 ONLY THE DAY DAWNS TO WHICH YOU ARE AWAKE.

                                 -- THOREAU
 Job cpu time:       0 days  0 hours  0 minutes 30.1 seconds.
 Elapsed time:       0 days  0 hours  0 minutes  2.0 seconds.
 File lengths (MBytes):  RWF=      6 Int=      0 D2E=      0 Chk=      1 Scr=      1
 Normal termination of Gaussian 16 at Sat Mar 21 10:16:50 2026.
