 Entering Gaussian System, Link 0=g16
 Input=O2-HF-6-31G(D).gjf
 Output=O2-HF-6-31G(D).log
 Initial command:
 /home/user/gaussian16_I/g16/l1.exe "/home/user/gaussian16_I/temp/Gau-3555443.inp" -scrdir="/home/user/gaussian16_I/temp/"
 Entering Link 1 = /home/user/gaussian16_I/g16/l1.exe PID=   3555444.
  
 Copyright (c) 1988-2021, Gaussian, Inc.  All Rights Reserved.
  
 This is part of the Gaussian(R) 16 program.  It is based on
 the Gaussian(R) 09 system (copyright 2009, Gaussian, Inc.),
 the Gaussian(R) 03 system (copyright 2003, Gaussian, Inc.),
 the Gaussian(R) 98 system (copyright 1998, Gaussian, Inc.),
 the Gaussian(R) 94 system (copyright 1995, Gaussian, Inc.),
 the Gaussian 92(TM) system (copyright 1992, Gaussian, Inc.),
 the Gaussian 90(TM) system (copyright 1990, Gaussian, Inc.),
 the Gaussian 88(TM) system (copyright 1988, Gaussian, Inc.),
 the Gaussian 86(TM) system (copyright 1986, Carnegie Mellon
 University), and the Gaussian 82(TM) system (copyright 1983,
 Carnegie Mellon University). Gaussian is a federally registered
 trademark of Gaussian, Inc.
  
 This software contains proprietary and confidential information,
 including trade secrets, belonging to Gaussian, Inc.
  
 This software is provided under written license and may be
 used, copied, transmitted, or stored only in accord with that
 written license.
  
 The following legend is applicable only to US Government
 contracts under FAR:
  
                    RESTRICTED RIGHTS LEGEND
  
 Use, reproduction and disclosure by the US Government is
 subject to restrictions as set forth in subparagraphs (a)
 and (c) of the Commercial Computer Software - Restricted
 Rights clause in FAR 52.227-19.
  
 Gaussian, Inc.
 340 Quinnipiac St., Bldg. 40, Wallingford CT 06492
  
  
 ---------------------------------------------------------------
 Warning -- This program may not be used in any manner that
 competes with the business of Gaussian, Inc. or will provide
 assistance to any competitor of Gaussian, Inc.  The licensee
 of this program is prohibited from giving any competitor of
 Gaussian, Inc. access to this program.  By using this program,
 the user acknowledges that Gaussian, Inc. is engaged in the
 business of creating and licensing software in the field of
 computational chemistry and represents and warrants to the
 licensee that it is not a competitor of Gaussian, Inc. and that
 it will not use this program in any manner prohibited above.
 ---------------------------------------------------------------
  

 Cite this work as:
 Gaussian 16, Revision C.02,
 M. J. Frisch, G. W. Trucks, H. B. Schlegel, G. E. Scuseria, 
 M. A. Robb, J. R. Cheeseman, G. Scalmani, V. Barone, 
 G. A. Petersson, H. Nakatsuji, X. Li, M. Caricato, A. V. Marenich, 
 J. Bloino, B. G. Janesko, R. Gomperts, B. Mennucci, H. P. Hratchian, 
 J. V. Ortiz, A. F. Izmaylov, J. L. Sonnenberg, D. Williams-Young, 
 F. Ding, F. Lipparini, F. Egidi, J. Goings, B. Peng, A. Petrone, 
 T. Henderson, D. Ranasinghe, V. G. Zakrzewski, J. Gao, N. Rega, 
 G. Zheng, W. Liang, M. Hada, M. Ehara, K. Toyota, R. Fukuda, 
 J. Hasegawa, M. Ishida, T. Nakajima, Y. Honda, O. Kitao, H. Nakai, 
 T. Vreven, K. Throssell, J. A. Montgomery, Jr., J. E. Peralta, 
 F. Ogliaro, M. J. Bearpark, J. J. Heyd, E. N. Brothers, K. N. Kudin, 
 V. N. Staroverov, T. A. Keith, R. Kobayashi, J. Normand, 
 K. Raghavachari, A. P. Rendell, J. C. Burant, S. S. Iyengar, 
 J. Tomasi, M. Cossi, J. M. Millam, M. Klene, C. Adamo, R. Cammi, 
 J. W. Ochterski, R. L. Martin, K. Morokuma, O. Farkas, 
 J. B. Foresman, and D. J. Fox, Gaussian, Inc., Wallingford CT, 2019.
 
 ******************************************
 Gaussian 16:  ES64L-G16RevC.02  7-Dec-2021
                21-Mar-2026 
 ******************************************
 %mem=10GB
 %CPU=0-23
 SetSPE:  set environment variable "OMP_PROC_BIND" = "true"
 SetSPE:  set environment variable "OMP_PLACES" = "{0},{1},{2},{3},{4},{5},{6},{7},{8},{9},{10},{11},{12},{13},{14},{15},{16},{17},{18},{19},{20},{21},{22},{23}"
 Will use up to   24 processors via shared memory.
 %chk=O2-HF-6-31G(D).chk
 ------------------------------------------------
 # opt freq hf/6-31g(d) pop=nbo geom=connectivity
 ------------------------------------------------
 1/18=20,19=15,38=1,57=2/1,3;
 2/9=110,12=2,17=6,18=5,40=1/2;
 3/5=1,6=6,7=1,11=9,25=1,30=1,71=1/1,2,3;
 4//1;
 5/5=2,38=5/2;
 6/7=2,8=2,9=2,10=2,28=1,40=1/1,7;
 7//1,2,3,16;
 1/18=20,19=15/3(2);
 2/9=110/2;
 99//99;
 2/9=110/2;
 3/5=1,6=6,7=1,11=9,25=1,30=1,71=1/1,2,3;
 4/5=5,16=3,69=1/1;
 5/5=2,38=5/2;
 7//1,2,3,16;
 1/18=20,19=15/3(-5);
 2/9=110/2;
 6/7=2,8=2,9=2,10=2,19=2,28=1,40=1/1,7;
 99/9=1/99;
 --------------
 O2-HF-6-31G(D)
 --------------
 Symbolic Z-matrix:
 Charge =  0 Multiplicity = 1
 O                     0.82265   0.10684   0. 
 O                    -0.33895   0.10684   0. 
 

 GradGradGradGradGradGradGradGradGradGradGradGradGradGradGradGradGradGrad
 Berny optimization.
 Initialization pass.
                           ----------------------------
                           !    Initial Parameters    !
                           ! (Angstroms and Degrees)  !
 --------------------------                            --------------------------
 ! Name  Definition              Value          Derivative Info.                !
 --------------------------------------------------------------------------------
 ! R1    R(1,2)                  1.1616         estimate D2E/DX2                !
 --------------------------------------------------------------------------------
 Trust Radius=3.00D-01 FncErr=1.00D-07 GrdErr=1.00D-07 EigMax=2.50D+02 EigMin=1.00D-04
 Number of steps in this run=     20 maximum allowed number of steps=    100.
 GradGradGradGradGradGradGradGradGradGradGradGradGradGradGradGradGradGrad

                          Input orientation:                          
 ---------------------------------------------------------------------
 Center     Atomic      Atomic             Coordinates (Angstroms)
 Number     Number       Type             X           Y           Z
 ---------------------------------------------------------------------
      1          8           0        0.822650    0.106838    0.000000
      2          8           0       -0.338950    0.106838    0.000000
 ---------------------------------------------------------------------
 Stoichiometry    O2
 Framework group  D*H[C*(O.O)]
 Deg. of freedom     1
 Full point group                 D*H     NOp   8
 Largest Abelian subgroup         D2H     NOp   8
 Largest concise Abelian subgroup C2      NOp   2
                         Standard orientation:                         
 ---------------------------------------------------------------------
 Center     Atomic      Atomic             Coordinates (Angstroms)
 Number     Number       Type             X           Y           Z
 ---------------------------------------------------------------------
      1          8           0        0.000000    0.000000    0.580800
      2          8           0        0.000000    0.000000   -0.580800
 ---------------------------------------------------------------------
 Rotational constants (GHZ):           0.0000000          46.8330090          46.8330090
 Standard basis: 6-31G(d) (6D, 7F)
 There are     8 symmetry adapted cartesian basis functions of AG  symmetry.
 There are     1 symmetry adapted cartesian basis functions of B1G symmetry.
 There are     3 symmetry adapted cartesian basis functions of B2G symmetry.
 There are     3 symmetry adapted cartesian basis functions of B3G symmetry.
 There are     1 symmetry adapted cartesian basis functions of AU  symmetry.
 There are     8 symmetry adapted cartesian basis functions of B1U symmetry.
 There are     3 symmetry adapted cartesian basis functions of B2U symmetry.
 There are     3 symmetry adapted cartesian basis functions of B3U symmetry.
 There are     8 symmetry adapted basis functions of AG  symmetry.
 There are     1 symmetry adapted basis functions of B1G symmetry.
 There are     3 symmetry adapted basis functions of B2G symmetry.
 There are     3 symmetry adapted basis functions of B3G symmetry.
 There are     1 symmetry adapted basis functions of AU  symmetry.
 There are     8 symmetry adapted basis functions of B1U symmetry.
 There are     3 symmetry adapted basis functions of B2U symmetry.
 There are     3 symmetry adapted basis functions of B3U symmetry.
    30 basis functions,    56 primitive gaussians,    30 cartesian basis functions
     8 alpha electrons        8 beta electrons
       nuclear repulsion energy        29.1557691967 Hartrees.
 NAtoms=    2 NActive=    2 NUniq=    1 SFac= 4.00D+00 NAtFMM=   60 NAOKFM=F Big=F
 Integral buffers will be    131072 words long.
 Raffenetti 1 integral format.
 Two-electron integral symmetry is turned on.
 One-electron integrals computed using PRISM.
 NBasis=    30 RedAO= T EigKep=  6.03D-03  NBF=     8     1     3     3     1     8     3     3
 NBsUse=    30 1.00D-06 EigRej= -1.00D+00 NBFU=     8     1     3     3     1     8     3     3
 ExpMin= 2.70D-01 ExpMax= 5.48D+03 ExpMxC= 8.25D+02 IAcc=3 IRadAn=         5 AccDes= 0.00D+00
 Harris functional with IExCor=  205 and IRadAn=       5 diagonalized for initial guess.
 HarFok:  IExCor=  205 AccDes= 0.00D+00 IRadAn=         5 IDoV= 1 UseB2=F ITyADJ=14
 ICtDFT=  3500011 ScaDFX=  1.000000  1.000000  1.000000  1.000000
 FoFCou: FMM=F IPFlag=           0 FMFlag=      100000 FMFlg1=           0
         NFxFlg=           0 DoJE=T BraDBF=F KetDBF=T FulRan=T
         wScrn=  0.000000 ICntrl=       500 IOpCl=  0 I1Cent=   200000004 NGrid=           0
         NMat0=    1 NMatS0=      1 NMatT0=    0 NMatD0=    1 NMtDS0=    0 NMtDT0=    0
 Petite list used in FoFCou.
 Initial guess orbital symmetries:
       Occupied  (SGG) (SGU) (SGG) (SGU) (SGG) (PIU) (PIU) (PIG)
       Virtual   (PIG) (SGU) (SGG) (SGU) (PIU) (PIU) (SGG) (PIG)
                 (PIG) (SGU) (DLTG) (DLTG) (PIU) (PIU) (DLTU) (DLTU)
                 (SGG) (PIG) (PIG) (SGU) (SGG) (SGU)
 Keep R1 ints in memory in symmetry-blocked form, NReq=5046256.
 Requested convergence on RMS density matrix=1.00D-08 within 128 cycles.
 Requested convergence on MAX density matrix=1.00D-06.
 Requested convergence on             energy=1.00D-06.
 No special actions if energy rises.
 SCF Done:  E(RHF) =  -149.532962315     A.U. after    9 cycles
            NFock=  9  Conv=0.68D-09     -V/T= 2.0030

 **********************************************************************

            Population analysis using the SCF Density.

 **********************************************************************

 Orbital symmetries:
       Occupied  (SGG) (SGU) (SGG) (SGU) (PIU) (SGG) (PIU) (?A)
       Virtual   (?A) (SGU) (SGG) (SGU) (PIU) (PIU) (SGG) (?A)
                 (?A) (SGU) (DLTG) (DLTG) (PIU) (PIU) (DLTU) (DLTU)
                 (SGG) (PIG) (PIG) (SGU) (SGG) (SGU)
 Unable to determine electronic state:  an orbital has unidentified symmetry.
 Alpha  occ. eigenvalues --  -20.74421 -20.74308  -1.70120  -1.08387  -0.78497
 Alpha  occ. eigenvalues --   -0.74932  -0.67360  -0.44818
 Alpha virt. eigenvalues --    0.05210   0.51951   0.87121   0.98314   1.05661
 Alpha virt. eigenvalues --    1.07049   1.08197   1.17524   1.20751   1.54170
 Alpha virt. eigenvalues --    1.78865   1.78876   1.81100   1.81500   2.25349
 Alpha virt. eigenvalues --    2.25357   2.86344   2.93335   2.95557   3.17094
 Alpha virt. eigenvalues --    3.58359   3.92400
          Condensed to atoms (all electrons):
               1          2
     1  O    7.882674   0.117326
     2  O    0.117326   7.882674
 Mulliken charges:
               1
     1  O   -0.000000
     2  O   -0.000000
 Sum of Mulliken charges =  -0.00000
 Mulliken charges with hydrogens summed into heavy atoms:
               1
     1  O   -0.000000
     2  O   -0.000000
 Electronic spatial extent (au):  <R**2>=             41.7218
 Charge=             -0.0000 electrons
 Dipole moment (field-independent basis, Debye):
    X=             -0.0000    Y=             -0.0000    Z=             -0.0000  Tot=              0.0000
 Quadrupole moment (field-independent basis, Debye-Ang):
   XX=             -9.0521   YY=            -10.6995   ZZ=            -10.4414
   XY=              0.0000   XZ=              0.0000   YZ=              0.0000
 Traceless Quadrupole moment (field-independent basis, Debye-Ang):
   XX=              1.0122   YY=             -0.6352   ZZ=             -0.3771
   XY=              0.0000   XZ=              0.0000   YZ=              0.0000
 Octapole moment (field-independent basis, Debye-Ang**2):
  XXX=             -0.0000  YYY=             -0.0000  ZZZ=              0.0000  XYY=             -0.0000
  XXY=             -0.0000  XXZ=              0.0000  XZZ=             -0.0000  YZZ=             -0.0000
  YYZ=              0.0000  XYZ=              0.0000
 Hexadecapole moment (field-independent basis, Debye-Ang**3):
 XXXX=             -5.8035 YYYY=             -7.2060 ZZZZ=            -26.3677 XXXY=              0.0000
 XXXZ=              0.0000 YYYX=              0.0000 YYYZ=              0.0000 ZZZX=              0.0000
 ZZZY=              0.0000 XXYY=             -2.1682 XXZZ=             -5.0772 YYZZ=             -6.3281
 XXYZ=              0.0000 YYXZ=              0.0000 ZZXY=             -0.0000
 N-N= 2.915576919669D+01 E-N=-4.126126410412D+02  KE= 1.490920408237D+02
 Symmetry AG   KE= 6.945926529419D+01
 Symmetry B1G  KE= 2.243547348965D-34
 Symmetry B2G  KE= 1.132886828095D-31
 Symmetry B3G  KE= 5.955130856143D+00
 Symmetry AU   KE= 5.419809223299D-34
 Symmetry B1U  KE= 6.481026267254D+01
 Symmetry B2U  KE= 4.670478817105D+00
 Symmetry B3U  KE= 4.196903183751D+00
 ******************************Gaussian NBO Version 3.1******************************
             N A T U R A L   A T O M I C   O R B I T A L   A N D
          N A T U R A L   B O N D   O R B I T A L   A N A L Y S I S
 ******************************Gaussian NBO Version 3.1******************************
       /RESON  / : Allow strongly delocalized NBO set

 Analyzing the SCF density

 Job title: O2-HF-6-31G(D)                                                  

 Storage needed:      2904 in NPA,      3709 in NBO (1342177252 available)
 GSVD:  LWork=         620 too small for GESVD, short by         150 words or         150 for optimal perf.
 GSVD:  LWork=         516 too small for GESVD, short by         432 words or         432 for optimal perf.


 NATURAL POPULATIONS:  Natural atomic orbital occupancies 
                                                          
   NAO  Atom  No  lang   Type(AO)    Occupancy      Energy
 ----------------------------------------------------------
     1    O    1  S      Cor( 1S)     1.99992     -20.57946
     2    O    1  S      Val( 2S)     1.76317      -1.22583
     3    O    1  S      Ryd( 3S)     0.01442       1.17107
     4    O    1  S      Ryd( 4S)     0.00001       3.61051
     5    O    1  px     Val( 2p)     0.99328      -0.28661
     6    O    1  px     Ryd( 3p)     0.00052       1.13663
     7    O    1  py     Val( 2p)     1.99160      -0.60853
     8    O    1  py     Ryd( 3p)     0.00583       1.12061
     9    O    1  pz     Val( 2p)     1.21445      -0.33517
    10    O    1  pz     Ryd( 3p)     0.00484       1.15372
    11    O    1  dxy    Ryd( 3d)     0.00000       2.02111
    12    O    1  dxz    Ryd( 3d)     0.00620       2.35040
    13    O    1  dyz    Ryd( 3d)     0.00258       2.37257
    14    O    1  dx2y2  Ryd( 3d)     0.00003       2.02110
    15    O    1  dz2    Ryd( 3d)     0.00317       2.96407
 
    16    O    2  S      Cor( 1S)     1.99992     -20.57946
    17    O    2  S      Val( 2S)     1.76317      -1.22583
    18    O    2  S      Ryd( 3S)     0.01442       1.17107
    19    O    2  S      Ryd( 4S)     0.00001       3.61051
    20    O    2  px     Val( 2p)     0.99328      -0.28661
    21    O    2  px     Ryd( 3p)     0.00052       1.13663
    22    O    2  py     Val( 2p)     1.99160      -0.60853
    23    O    2  py     Ryd( 3p)     0.00583       1.12061
    24    O    2  pz     Val( 2p)     1.21445      -0.33517
    25    O    2  pz     Ryd( 3p)     0.00484       1.15372
    26    O    2  dxy    Ryd( 3d)     0.00000       2.02111
    27    O    2  dxz    Ryd( 3d)     0.00620       2.35040
    28    O    2  dyz    Ryd( 3d)     0.00258       2.37257
    29    O    2  dx2y2  Ryd( 3d)     0.00003       2.02110
    30    O    2  dz2    Ryd( 3d)     0.00317       2.96407


 Summary of Natural Population Analysis:                  
                                                          
                                       Natural Population 
                Natural  -----------------------------------------------
    Atom  No    Charge         Core      Valence    Rydberg      Total
 -----------------------------------------------------------------------
      O    1   -0.00000      1.99992     5.96250    0.03758     8.00000
      O    2   -0.00000      1.99992     5.96250    0.03758     8.00000
 =======================================================================
   * Total *   -0.00000      3.99984    11.92501    0.07515    16.00000

                                 Natural Population      
 --------------------------------------------------------
   Core                       3.99984 ( 99.9959% of   4)
   Valence                   11.92501 ( 99.3751% of  12)
   Natural Minimal Basis     15.92485 ( 99.5303% of  16)
   Natural Rydberg Basis      0.07515 (  0.4697% of  16)
 --------------------------------------------------------

    Atom  No          Natural Electron Configuration
 ----------------------------------------------------------------------------
      O    1      [core]2S( 1.76)2p( 4.20)3S( 0.01)3p( 0.01)3d( 0.01)
      O    2      [core]2S( 1.76)2p( 4.20)3S( 0.01)3p( 0.01)3d( 0.01)


 NATURAL BOND ORBITAL ANALYSIS:

                       Occupancies       Lewis Structure    Low   High
           Occ.    -------------------  -----------------   occ   occ
  Cycle   Thresh.   Lewis   Non-Lewis     CR  BD  3C  LP    (L)   (NL)   Dev
 =============================================================================
   1(1)    1.90    15.98399   0.01601      2   2   0   4     0      0    0.03
 -----------------------------------------------------------------------------

 Structure accepted: No low occupancy Lewis orbitals

 --------------------------------------------------------
   Core                      3.99984 ( 99.996% of   4)
   Valence Lewis            11.98415 ( 99.868% of  12)
  ==================       ============================
   Total Lewis              15.98399 ( 99.900% of  16)
  -----------------------------------------------------
   Valence non-Lewis         0.00000 (  0.000% of  16)
   Rydberg non-Lewis         0.01601 (  0.100% of  16)
  ==================       ============================
   Total non-Lewis           0.01601 (  0.100% of  16)
 --------------------------------------------------------


       (Occupancy)   Bond orbital/ Coefficients/ Hybrids
 ---------------------------------------------------------------------------------
     1. (2.00000) BD ( 1) O   1 - O   2  
                ( 50.00%)   0.7071* O   1 s(  0.00%)p 1.00( 99.38%)d 0.01(  0.62%)
                                            0.0000  0.0000  0.0000  0.0000  0.9966
                                            0.0227  0.0000  0.0000  0.0000  0.0000
                                            0.0000 -0.0787  0.0000  0.0000  0.0000
                ( 50.00%)   0.7071* O   2 s(  0.00%)p 1.00( 99.38%)d 0.01(  0.62%)
                                            0.0000  0.0000  0.0000  0.0000  0.9966
                                            0.0227  0.0000  0.0000  0.0000  0.0000
                                            0.0000  0.0787  0.0000  0.0000  0.0000
     2. (2.00000) BD ( 2) O   1 - O   2  
                ( 50.00%)   0.7071* O   1 s( 24.43%)p 3.08( 75.28%)d 0.01(  0.29%)
                                            0.0000 -0.4821  0.1090  0.0004  0.0000
                                            0.0000  0.0000  0.0000  0.8651 -0.0658
                                            0.0000  0.0000  0.0000 -0.0038 -0.0534
                ( 50.00%)   0.7071* O   2 s( 24.43%)p 3.08( 75.28%)d 0.01(  0.29%)
                                           -0.0000 -0.4821  0.1090  0.0004  0.0000
                                            0.0000  0.0000  0.0000 -0.8651  0.0658
                                            0.0000  0.0000  0.0000 -0.0038 -0.0534
     3. (1.99992) CR ( 1) O   1           s(100.00%)
                                            1.0000  0.0001  0.0000  0.0000  0.0000
                                            0.0000  0.0000  0.0000  0.0000 -0.0000
                                            0.0000  0.0000  0.0000 -0.0000 -0.0000
     4. (1.99992) CR ( 1) O   2           s(100.00%)
                                            1.0000  0.0001  0.0000  0.0000  0.0000
                                            0.0000  0.0000  0.0000 -0.0000  0.0000
                                            0.0000  0.0000  0.0000 -0.0000 -0.0000
     5. (1.99879) LP ( 1) O   1           s( 76.67%)p 0.30( 23.31%)d 0.00(  0.01%)
                                           -0.0001  0.8751  0.0300  0.0001  0.0000
                                            0.0000  0.0000  0.0000  0.4828 -0.0049
                                            0.0000  0.0000  0.0000 -0.0016 -0.0115
     6. (1.99328) LP ( 2) O   1           s(  0.00%)p 1.00( 99.95%)d 0.00(  0.05%)
                                            0.0000  0.0000  0.0000  0.0000  0.0000
                                            0.0000  0.9996  0.0196  0.0000  0.0000
                                            0.0000  0.0000 -0.0215  0.0000  0.0000
     7. (1.99879) LP ( 1) O   2           s( 76.67%)p 0.30( 23.31%)d 0.00(  0.01%)
                                           -0.0001  0.8751  0.0300  0.0001  0.0000
                                            0.0000  0.0000  0.0000 -0.4828  0.0049
                                            0.0000  0.0000  0.0000 -0.0016 -0.0115
     8. (1.99328) LP ( 2) O   2           s(  0.00%)p 1.00( 99.95%)d 0.00(  0.05%)
                                            0.0000  0.0000  0.0000  0.0000  0.0000
                                            0.0000  0.9996  0.0196  0.0000  0.0000
                                            0.0000  0.0000  0.0215  0.0000  0.0000
     9. (0.00672) RY*( 1) O   1           s(  0.00%)p 1.00( 75.38%)d 0.33( 24.62%)
                                            0.0000  0.0000  0.0000  0.0000  0.0000
                                            0.0000 -0.0063  0.8682  0.0000  0.0000
                                            0.0000  0.0000  0.4962  0.0000  0.0000
    10. (0.00127) RY*( 2) O   1           s( 58.25%)p 0.64( 37.53%)d 0.07(  4.21%)
                                           -0.0000  0.0402  0.7601 -0.0562  0.0000
                                            0.0000  0.0000  0.0000 -0.1305 -0.5986
                                            0.0000  0.0000  0.0000  0.0682 -0.1936
    11. (0.00001) RY*( 3) O   1           s( 37.95%)p 1.63( 62.05%)d 0.00(  0.00%)
    12. (0.00000) RY*( 4) O   1           s( 99.87%)p 0.00(  0.12%)d 0.00(  0.01%)
    13. (0.00000) RY*( 5) O   1           s(  0.00%)p 1.00(100.00%)d 0.00(  0.00%)
    14. (0.00000) RY*( 6) O   1           s(  0.00%)p 0.00(  0.00%)d 1.00(100.00%)
    15. (0.00000) RY*( 7) O   1           s(  0.00%)p 1.00(  0.62%)d99.99( 99.38%)
    16. (0.00000) RY*( 8) O   1           s(  0.00%)p 1.00( 24.67%)d 3.05( 75.33%)
    17. (0.00000) RY*( 9) O   1           s(  0.29%)p 0.68(  0.20%)d99.99( 99.51%)
    18. (0.00000) RY*(10) O   1           s(  2.53%)p 0.60(  1.51%)d37.94( 95.96%)
    19. (0.00672) RY*( 1) O   2           s(  0.00%)p 1.00( 75.38%)d 0.33( 24.62%)
                                            0.0000  0.0000  0.0000  0.0000  0.0000
                                            0.0000 -0.0063  0.8682  0.0000  0.0000
                                            0.0000  0.0000 -0.4962  0.0000  0.0000
    20. (0.00127) RY*( 2) O   2           s( 58.25%)p 0.64( 37.53%)d 0.07(  4.21%)
                                            0.0000  0.0402  0.7601 -0.0562  0.0000
                                            0.0000  0.0000  0.0000  0.1305  0.5986
                                            0.0000  0.0000  0.0000  0.0682 -0.1936
    21. (0.00001) RY*( 3) O   2           s( 37.95%)p 1.63( 62.05%)d 0.00(  0.00%)
    22. (0.00000) RY*( 4) O   2           s( 99.87%)p 0.00(  0.12%)d 0.00(  0.01%)
    23. (0.00000) RY*( 5) O   2           s(  0.00%)p 1.00(100.00%)d 0.00(  0.00%)
    24. (0.00000) RY*( 6) O   2           s(  0.00%)p 0.00(  0.00%)d 1.00(100.00%)
    25. (0.00000) RY*( 7) O   2           s(  0.00%)p 1.00(  0.62%)d99.99( 99.38%)
    26. (0.00000) RY*( 8) O   2           s(  0.00%)p 1.00( 24.67%)d 3.05( 75.33%)
    27. (0.00000) RY*( 9) O   2           s(  0.29%)p 0.68(  0.20%)d99.99( 99.51%)
    28. (0.00000) RY*(10) O   2           s(  2.53%)p 0.60(  1.51%)d37.94( 95.96%)
    29. (0.00000) BD*( 1) O   1 - O   2  
                ( 50.00%)   0.7071* O   1 s(  0.00%)p 1.00( 99.38%)d 0.01(  0.62%)
                ( 50.00%)  -0.7071* O   2 s(  0.00%)p 1.00( 99.38%)d 0.01(  0.62%)
    30. (0.00000) BD*( 2) O   1 - O   2  
                ( 50.00%)   0.7071* O   1 s( 24.43%)p 3.08( 75.28%)d 0.01(  0.29%)
                ( 50.00%)  -0.7071* O   2 s( 24.43%)p 3.08( 75.28%)d 0.01(  0.29%)


 NHO Directionality and "Bond Bending" (deviations from line of nuclear centers)

         [Thresholds for printing:  angular deviation  >  1.0 degree]
                                    hybrid p-character > 25.0%
                                    orbital occupancy  >  0.10e

                                Line of Centers        Hybrid 1              Hybrid 2
                                ---------------  -------------------   ------------------
                NBO               Theta   Phi    Theta   Phi    Dev    Theta   Phi    Dev
 ========================================================================================
     1. BD (   1) O   1 - O   2   180.0    0.0    90.0    0.0  90.0     90.0    0.0  90.0
     6. LP (   2) O   1             --     --     90.0   90.0   --       --     --    --
     8. LP (   2) O   2             --     --     90.0   90.0   --       --     --    --


 Second Order Perturbation Theory Analysis of Fock Matrix in NBO Basis

     Threshold for printing:   0.50 kcal/mol
                                                                              E(2)  E(j)-E(i) F(i,j)
         Donor NBO (i)                     Acceptor NBO (j)                 kcal/mol   a.u.    a.u. 
 ===================================================================================================

 within unit  1
   3. CR (   1) O   1                / 20. RY*(   2) O   2                    1.45   21.86    0.159
   4. CR (   1) O   2                / 10. RY*(   2) O   1                    1.45   21.86    0.159
   5. LP (   1) O   1                / 20. RY*(   2) O   2                    2.40    2.45    0.068
   6. LP (   2) O   1                / 19. RY*(   1) O   2                    8.55    2.01    0.117
   7. LP (   1) O   2                / 10. RY*(   2) O   1                    2.40    2.45    0.068
   8. LP (   2) O   2                /  9. RY*(   1) O   1                    8.55    2.01    0.117


 Natural Bond Orbitals (Summary):

                                                            Principal Delocalizations
           NBO                        Occupancy    Energy   (geminal,vicinal,remote)
 ====================================================================================
 Molecular unit  1  (O2)
     1. BD (   1) O   1 - O   2          2.00000    -0.67360   
     2. BD (   2) O   1 - O   2          2.00000    -1.50659   
     3. CR (   1) O   1                  1.99992   -20.57965  20(v)
     4. CR (   1) O   2                  1.99992   -20.57965  10(v)
     5. LP (   1) O   1                  1.99879    -1.17513  20(v)
     6. LP (   2) O   1                  1.99328    -0.60978  19(v)
     7. LP (   1) O   2                  1.99879    -1.17513  10(v)
     8. LP (   2) O   2                  1.99328    -0.60978  9(v)
     9. RY*(   1) O   1                  0.00672     1.39818   
    10. RY*(   2) O   1                  0.00127     1.27581   
    11. RY*(   3) O   1                  0.00001     1.05194   
    12. RY*(   4) O   1                  0.00000     3.59380   
    13. RY*(   5) O   1                  0.00000     1.14117   
    14. RY*(   6) O   1                  0.00000     2.02111   
    15. RY*(   7) O   1                  0.00000     2.34716   
    16. RY*(   8) O   1                  0.00000     2.09625   
    17. RY*(   9) O   1                  0.00000     2.01850   
    18. RY*(  10) O   1                  0.00000     2.94631   
    19. RY*(   1) O   2                  0.00672     1.39818   
    20. RY*(   2) O   2                  0.00127     1.27581   
    21. RY*(   3) O   2                  0.00001     1.05194   
    22. RY*(   4) O   2                  0.00000     3.59380   
    23. RY*(   5) O   2                  0.00000     1.14117   
    24. RY*(   6) O   2                  0.00000     2.02111   
    25. RY*(   7) O   2                  0.00000     2.34716   
    26. RY*(   8) O   2                  0.00000     2.09625   
    27. RY*(   9) O   2                  0.00000     2.01850   
    28. RY*(  10) O   2                  0.00000     2.94631   
    29. BD*(   1) O   1 - O   2          0.00000     0.09780   
    30. BD*(   2) O   1 - O   2          0.00000     0.80350   
       -------------------------------
              Total Lewis   15.98399  ( 99.8999%)
        Valence non-Lewis    0.00000  (  0.0000%)
        Rydberg non-Lewis    0.01601  (  0.1001%)
       -------------------------------
            Total unit  1   16.00000  (100.0000%)
           Charge unit  1    0.00000
 Calling FoFJK, ICntrl=      2127 FMM=F ISym2X=1 I1Cent= 0 IOpClX= 0 NMat=1 NMatS=1 NMatT=0.
 ***** Axes restored to original set *****
 -------------------------------------------------------------------
 Center     Atomic                   Forces (Hartrees/Bohr)
 Number     Number              X              Y              Z
 -------------------------------------------------------------------
      1        8           0.009235452   -0.000000000   -0.000000000
      2        8          -0.009235452    0.000000000    0.000000000
 -------------------------------------------------------------------
 Cartesian Forces:  Max     0.009235452 RMS     0.005332091

 GradGradGradGradGradGradGradGradGradGradGradGradGradGradGradGradGradGrad
 Berny optimization.
 FormGI is forming the generalized inverse of G from B-inverse, IUseBI=4.
 Internal  Forces:  Max     0.009235452 RMS     0.009235452
 Search for a local minimum.
 Step number   1 out of a maximum of   20
 All quantities printed in internal units (Hartrees-Bohrs-Radians)
 Mixed Optimization -- RFO/linear search
 Second derivative matrix not updated -- first step.
 The second derivative matrix:
                          R1
           R1           1.26752
 ITU=  0
     Eigenvalues ---    1.26752
 RFO step:  Lambda=-6.72879662D-05 EMin= 1.26752315D+00
 Linear search not attempted -- first point.
 Iteration  1 RMS(Cart)=  0.00515186 RMS(Int)=  0.00000000
 Iteration  2 RMS(Cart)=  0.00000000 RMS(Int)=  0.00000000
 ClnCor:  largest displacement from symmetrization is 2.23D-19 for atom     1.
 Variable       Old X    -DE/DX   Delta X   Delta X   Delta X     New X
                                 (Linear)    (Quad)   (Total)
    R1        2.19511   0.00924   0.00000   0.00729   0.00729   2.20239
         Item               Value     Threshold  Converged?
 Maximum Force            0.009235     0.000450     NO 
 RMS     Force            0.009235     0.000300     NO 
 Maximum Displacement     0.003643     0.001800     NO 
 RMS     Displacement     0.005152     0.001200     NO 
 Predicted change in Energy=-3.364577D-05
 GradGradGradGradGradGradGradGradGradGradGradGradGradGradGradGradGradGrad

                          Input orientation:                          
 ---------------------------------------------------------------------
 Center     Atomic      Atomic             Coordinates (Angstroms)
 Number     Number       Type             X           Y           Z
 ---------------------------------------------------------------------
      1          8           0        0.824577    0.106838    0.000000
      2          8           0       -0.340878    0.106838   -0.000000
 ---------------------------------------------------------------------
 Stoichiometry    O2
 Framework group  D*H[C*(O.O)]
 Deg. of freedom     1
 Full point group                 D*H     NOp   8
 Largest Abelian subgroup         D2H     NOp   8
 Largest concise Abelian subgroup C2      NOp   2
                         Standard orientation:                         
 ---------------------------------------------------------------------
 Center     Atomic      Atomic             Coordinates (Angstroms)
 Number     Number       Type             X           Y           Z
 ---------------------------------------------------------------------
      1          8           0        0.000000    0.000000    0.582728
      2          8           0        0.000000    0.000000   -0.582728
 ---------------------------------------------------------------------
 Rotational constants (GHZ):           0.0000000          46.5236607          46.5236607
 Standard basis: 6-31G(d) (6D, 7F)
 There are     8 symmetry adapted cartesian basis functions of AG  symmetry.
 There are     1 symmetry adapted cartesian basis functions of B1G symmetry.
 There are     3 symmetry adapted cartesian basis functions of B2G symmetry.
 There are     3 symmetry adapted cartesian basis functions of B3G symmetry.
 There are     1 symmetry adapted cartesian basis functions of AU  symmetry.
 There are     8 symmetry adapted cartesian basis functions of B1U symmetry.
 There are     3 symmetry adapted cartesian basis functions of B2U symmetry.
 There are     3 symmetry adapted cartesian basis functions of B3U symmetry.
 There are     8 symmetry adapted basis functions of AG  symmetry.
 There are     1 symmetry adapted basis functions of B1G symmetry.
 There are     3 symmetry adapted basis functions of B2G symmetry.
 There are     3 symmetry adapted basis functions of B3G symmetry.
 There are     1 symmetry adapted basis functions of AU  symmetry.
 There are     8 symmetry adapted basis functions of B1U symmetry.
 There are     3 symmetry adapted basis functions of B2U symmetry.
 There are     3 symmetry adapted basis functions of B3U symmetry.
    30 basis functions,    56 primitive gaussians,    30 cartesian basis functions
     8 alpha electrons        8 beta electrons
       nuclear repulsion energy        29.0593176568 Hartrees.
 NAtoms=    2 NActive=    2 NUniq=    1 SFac= 4.00D+00 NAtFMM=   60 NAOKFM=F Big=F
 Integral buffers will be    131072 words long.
 Raffenetti 1 integral format.
 Two-electron integral symmetry is turned on.
 One-electron integrals computed using PRISM.
 NBasis=    30 RedAO= T EigKep=  6.11D-03  NBF=     8     1     3     3     1     8     3     3
 NBsUse=    30 1.00D-06 EigRej= -1.00D+00 NBFU=     8     1     3     3     1     8     3     3
 Initial guess from the checkpoint file:  "O2-HF-6-31G(D).chk"
 B after Tr=     0.000000    0.000000    0.000000
         Rot=    1.000000    0.000000    0.000000    0.000000 Ang=   0.00 deg.
 Initial guess orbital symmetries:
       Occupied  (SGG) (SGU) (SGG) (SGU) (PIU) (SGG) (PIU) (?A)
       Virtual   (?A) (SGU) (SGG) (SGU) (PIU) (PIU) (SGG) (?A)
                 (?A) (SGU) (DLTG) (DLTG) (PIU) (PIU) (DLTU) (DLTU)
                 (SGG) (PIG) (PIG) (SGU) (SGG) (SGU)
 Keep R1 ints in memory in symmetry-blocked form, NReq=5046256.
 Requested convergence on RMS density matrix=1.00D-08 within 128 cycles.
 Requested convergence on MAX density matrix=1.00D-06.
 Requested convergence on             energy=1.00D-06.
 No special actions if energy rises.
 SCF Done:  E(RHF) =  -149.532996934     A.U. after    7 cycles
            NFock=  7  Conv=0.12D-08     -V/T= 2.0031
 Calling FoFJK, ICntrl=      2127 FMM=F ISym2X=1 I1Cent= 0 IOpClX= 0 NMat=1 NMatS=1 NMatT=0.
 ***** Axes restored to original set *****
 -------------------------------------------------------------------
 Center     Atomic                   Forces (Hartrees/Bohr)
 Number     Number              X              Y              Z
 -------------------------------------------------------------------
      1        8           0.000307309   -0.000000000   -0.000000000
      2        8          -0.000307309    0.000000000    0.000000000
 -------------------------------------------------------------------
 Cartesian Forces:  Max     0.000307309 RMS     0.000177425

 GradGradGradGradGradGradGradGradGradGradGradGradGradGradGradGradGradGrad
 Berny optimization.
 Using GEDIIS/GDIIS optimizer.
 Internal  Forces:  Max     0.000307309 RMS     0.000307309
 Search for a local minimum.
 Step number   2 out of a maximum of   20
 All quantities printed in internal units (Hartrees-Bohrs-Radians)
 Mixed Optimization -- En-DIIS/RFO-DIIS
 Update second derivatives using D2CorX and points    1    2
 DE= -3.46D-05 DEPred=-3.36D-05 R= 1.03D+00
 TightC=F SS=  1.41D+00  RLast= 7.29D-03 DXNew= 5.0454D-01 2.1857D-02
 Trust test= 1.03D+00 RLast= 7.29D-03 DXMaxT set to 3.00D-01
 The second derivative matrix:
                          R1
           R1           1.22541
 ITU=  1  0
 Use linear search instead of GDIIS.
     Eigenvalues ---    1.22541
 RFO step:  Lambda= 0.00000000D+00 EMin= 1.22541139D+00
 Quartic linear search produced a step of  0.03490.
 Iteration  1 RMS(Cart)=  0.00017981 RMS(Int)=  0.00000000
 Iteration  2 RMS(Cart)=  0.00000000 RMS(Int)=  0.00000000
 ClnCor:  largest displacement from symmetrization is 7.79D-21 for atom     1.
 Variable       Old X    -DE/DX   Delta X   Delta X   Delta X     New X
                                 (Linear)    (Quad)   (Total)
    R1        2.20239   0.00031   0.00025   0.00000   0.00025   2.20265
         Item               Value     Threshold  Converged?
 Maximum Force            0.000307     0.000450     YES
 RMS     Force            0.000307     0.000300     NO 
 Maximum Displacement     0.000127     0.001800     YES
 RMS     Displacement     0.000180     0.001200     YES
 Predicted change in Energy=-3.852610D-08
 GradGradGradGradGradGradGradGradGradGradGradGradGradGradGradGradGradGrad

                          Input orientation:                          
 ---------------------------------------------------------------------
 Center     Atomic      Atomic             Coordinates (Angstroms)
 Number     Number       Type             X           Y           Z
 ---------------------------------------------------------------------
      1          8           0        0.824645    0.106838    0.000000
      2          8           0       -0.340946    0.106838   -0.000000
 ---------------------------------------------------------------------
 Stoichiometry    O2
 Framework group  D*H[C*(O.O)]
 Deg. of freedom     1
 Full point group                 D*H     NOp   8
 Largest Abelian subgroup         D2H     NOp   8
 Largest concise Abelian subgroup C2      NOp   2
                         Standard orientation:                         
 ---------------------------------------------------------------------
 Center     Atomic      Atomic             Coordinates (Angstroms)
 Number     Number       Type             X           Y           Z
 ---------------------------------------------------------------------
      1          8           0        0.000000    0.000000    0.582795
      2          8           0        0.000000    0.000000   -0.582795
 ---------------------------------------------------------------------
 Rotational constants (GHZ):           0.0000000          46.5129193          46.5129193
 Standard basis: 6-31G(d) (6D, 7F)
 There are     8 symmetry adapted cartesian basis functions of AG  symmetry.
 There are     1 symmetry adapted cartesian basis functions of B1G symmetry.
 There are     3 symmetry adapted cartesian basis functions of B2G symmetry.
 There are     3 symmetry adapted cartesian basis functions of B3G symmetry.
 There are     1 symmetry adapted cartesian basis functions of AU  symmetry.
 There are     8 symmetry adapted cartesian basis functions of B1U symmetry.
 There are     3 symmetry adapted cartesian basis functions of B2U symmetry.
 There are     3 symmetry adapted cartesian basis functions of B3U symmetry.
 There are     8 symmetry adapted basis functions of AG  symmetry.
 There are     1 symmetry adapted basis functions of B1G symmetry.
 There are     3 symmetry adapted basis functions of B2G symmetry.
 There are     3 symmetry adapted basis functions of B3G symmetry.
 There are     1 symmetry adapted basis functions of AU  symmetry.
 There are     8 symmetry adapted basis functions of B1U symmetry.
 There are     3 symmetry adapted basis functions of B2U symmetry.
 There are     3 symmetry adapted basis functions of B3U symmetry.
    30 basis functions,    56 primitive gaussians,    30 cartesian basis functions
     8 alpha electrons        8 beta electrons
       nuclear repulsion energy        29.0559628474 Hartrees.
 NAtoms=    2 NActive=    2 NUniq=    1 SFac= 4.00D+00 NAtFMM=   60 NAOKFM=F Big=F
 Integral buffers will be    131072 words long.
 Raffenetti 1 integral format.
 Two-electron integral symmetry is turned on.
 One-electron integrals computed using PRISM.
 NBasis=    30 RedAO= T EigKep=  6.11D-03  NBF=     8     1     3     3     1     8     3     3
 NBsUse=    30 1.00D-06 EigRej= -1.00D+00 NBFU=     8     1     3     3     1     8     3     3
 Initial guess from the checkpoint file:  "O2-HF-6-31G(D).chk"
 B after Tr=     0.000000    0.000000    0.000000
         Rot=    1.000000    0.000000    0.000000    0.000000 Ang=   0.00 deg.
 Initial guess orbital symmetries:
       Occupied  (SGG) (SGU) (SGG) (SGU) (PIU) (SGG) (PIU) (?A)
       Virtual   (?A) (SGU) (SGG) (SGU) (PIU) (PIU) (SGG) (?A)
                 (?A) (SGU) (DLTG) (DLTG) (PIU) (PIU) (DLTU) (DLTU)
                 (SGG) (PIG) (PIG) (SGU) (SGG) (SGU)
 Keep R1 ints in memory in symmetry-blocked form, NReq=5046256.
 Requested convergence on RMS density matrix=1.00D-08 within 128 cycles.
 Requested convergence on MAX density matrix=1.00D-06.
 Requested convergence on             energy=1.00D-06.
 No special actions if energy rises.
 SCF Done:  E(RHF) =  -149.532996973     A.U. after    5 cycles
            NFock=  5  Conv=0.44D-08     -V/T= 2.0031
 Calling FoFJK, ICntrl=      2127 FMM=F ISym2X=1 I1Cent= 0 IOpClX= 0 NMat=1 NMatS=1 NMatT=0.
 ***** Axes restored to original set *****
 -------------------------------------------------------------------
 Center     Atomic                   Forces (Hartrees/Bohr)
 Number     Number              X              Y              Z
 -------------------------------------------------------------------
      1        8          -0.000000007   -0.000000000   -0.000000000
      2        8           0.000000007    0.000000000    0.000000000
 -------------------------------------------------------------------
 Cartesian Forces:  Max     0.000000007 RMS     0.000000004

 GradGradGradGradGradGradGradGradGradGradGradGradGradGradGradGradGradGrad
 Berny optimization.
 Using GEDIIS/GDIIS optimizer.
 Internal  Forces:  Max     0.000000007 RMS     0.000000007
 Search for a local minimum.
 Step number   3 out of a maximum of   20
 All quantities printed in internal units (Hartrees-Bohrs-Radians)
 Mixed Optimization -- En-DIIS/RFO-DIIS
 Swapping is turned off.
 Update second derivatives using D2CorX and points    3
 DE= -3.91D-08 DEPred=-3.85D-08 R= 1.01D+00
 Trust test= 1.01D+00 RLast= 2.54D-04 DXMaxT set to 3.00D-01
 The second derivative matrix:
                          R1
           R1           1.22541
 ITU=  0  1
     Eigenvalues ---    1.22541
 En-DIIS/RFO-DIIS/Sim-DIIS IScMMF=       -3 using points:     3    2
 RFO step:  Lambda= 0.00000000D+00.
 DIIS inversion failure, remove point   2.
 Use linear search instead of GDIIS.
 RFO step:  Lambda= 0.00000000D+00 EMin= 1.22541139D+00
 Quartic linear search produced a step of -0.00002.
 Iteration  1 RMS(Cart)=  0.00000000 RMS(Int)=  0.00000000
 ClnCor:  largest displacement from symmetrization is 1.82D-25 for atom     2.
 Variable       Old X    -DE/DX   Delta X   Delta X   Delta X     New X
                                 (Linear)    (Quad)   (Total)
    R1        2.20265  -0.00000  -0.00000  -0.00000  -0.00000   2.20265
         Item               Value     Threshold  Converged?
 Maximum Force            0.000000     0.000450     YES
 RMS     Force            0.000000     0.000300     YES
 Maximum Displacement     0.000000     0.001800     YES
 RMS     Displacement     0.000000     0.001200     YES
 Predicted change in Energy=-2.106761D-17
 Optimization completed.
    -- Stationary point found.
                           ----------------------------
                           !   Optimized Parameters   !
                           ! (Angstroms and Degrees)  !
 --------------------------                            --------------------------
 ! Name  Definition              Value          Derivative Info.                !
 --------------------------------------------------------------------------------
 ! R1    R(1,2)                  1.1656         -DE/DX =    0.0                 !
 --------------------------------------------------------------------------------
 GradGradGradGradGradGradGradGradGradGradGradGradGradGradGradGradGradGrad

                          Input orientation:                          
 ---------------------------------------------------------------------
 Center     Atomic      Atomic             Coordinates (Angstroms)
 Number     Number       Type             X           Y           Z
 ---------------------------------------------------------------------
      1          8           0        0.824645    0.106838    0.000000
      2          8           0       -0.340946    0.106838   -0.000000
 ---------------------------------------------------------------------
 Stoichiometry    O2
 Framework group  D*H[C*(O.O)]
 Deg. of freedom     1
 Full point group                 D*H     NOp   8
 Largest Abelian subgroup         D2H     NOp   8
 Largest concise Abelian subgroup C2      NOp   2
                         Standard orientation:                         
 ---------------------------------------------------------------------
 Center     Atomic      Atomic             Coordinates (Angstroms)
 Number     Number       Type             X           Y           Z
 ---------------------------------------------------------------------
      1          8           0        0.000000    0.000000    0.582795
      2          8           0        0.000000    0.000000   -0.582795
 ---------------------------------------------------------------------
 Rotational constants (GHZ):           0.0000000          46.5129193          46.5129193

 **********************************************************************

            Population analysis using the SCF Density.

 **********************************************************************

 Orbital symmetries:
       Occupied  (SGG) (SGU) (SGG) (SGU) (PIU) (SGG) (PIU) (?A)
       Virtual   (?A) (SGU) (SGG) (SGU) (PIU) (PIU) (SGG) (?A)
                 (?A) (SGU) (DLTG) (DLTG) (PIU) (PIU) (DLTU) (DLTU)
                 (SGG) (PIG) (PIG) (SGU) (SGG) (SGU)
 Unable to determine electronic state:  an orbital has unidentified symmetry.
 Alpha  occ. eigenvalues --  -20.74492 -20.74381  -1.69718  -1.08529  -0.78335
 Alpha  occ. eigenvalues --   -0.74819  -0.67151  -0.44991
 Alpha virt. eigenvalues --    0.05021   0.51458   0.87125   0.98120   1.05713
 Alpha virt. eigenvalues --    1.07140   1.08368   1.17518   1.20736   1.53950
 Alpha virt. eigenvalues --    1.79028   1.79039   1.80796   1.81218   2.25135
 Alpha virt. eigenvalues --    2.25143   2.85634   2.92918   2.95136   3.16942
 Alpha virt. eigenvalues --    3.58196   3.92163
          Condensed to atoms (all electrons):
               1          2
     1  O    7.880418   0.119582
     2  O    0.119582   7.880418
 Mulliken charges:
               1
     1  O    0.000000
     2  O    0.000000
 Sum of Mulliken charges =   0.00000
 Mulliken charges with hydrogens summed into heavy atoms:
               1
     1  O    0.000000
     2  O    0.000000
 Electronic spatial extent (au):  <R**2>=             41.8620
 Charge=              0.0000 electrons
 Dipole moment (field-independent basis, Debye):
    X=              0.0000    Y=             -0.0000    Z=             -0.0000  Tot=              0.0000
 Quadrupole moment (field-independent basis, Debye-Ang):
   XX=             -9.0610   YY=            -10.7062   ZZ=            -10.4361
   XY=              0.0000   XZ=              0.0000   YZ=              0.0000
 Traceless Quadrupole moment (field-independent basis, Debye-Ang):
   XX=              1.0068   YY=             -0.6385   ZZ=             -0.3683
   XY=              0.0000   XZ=              0.0000   YZ=              0.0000
 Octapole moment (field-independent basis, Debye-Ang**2):
  XXX=             -0.0000  YYY=             -0.0000  ZZZ=             -0.0000  XYY=             -0.0000
  XXY=              0.0000  XXZ=              0.0000  XZZ=             -0.0000  YZZ=              0.0000
  YYZ=              0.0000  XYZ=              0.0000
 Hexadecapole moment (field-independent basis, Debye-Ang**3):
 XXXX=             -5.8147 YYYY=             -7.2129 ZZZZ=            -26.4955 XXXY=              0.0000
 XXXZ=              0.0000 YYYX=              0.0000 YYYZ=              0.0000 ZZZX=              0.0000
 ZZZY=              0.0000 XXYY=             -2.1712 XXZZ=             -5.1005 YYZZ=             -6.3526
 XXYZ=              0.0000 YYXZ=              0.0000 ZZXY=             -0.0000
 N-N= 2.905596284738D+01 E-N=-4.124015995335D+02  KE= 1.490719880333D+02
 Symmetry AG   KE= 6.944371562077D+01
 Symmetry B1G  KE= 2.210746210490D-34
 Symmetry B2G  KE= 4.843747862083D-32
 Symmetry B3G  KE= 5.952021870575D+00
 Symmetry AU   KE= 5.325410140884D-34
 Symmetry B1U  KE= 6.481415974389D+01
 Symmetry B2U  KE= 4.669141059201D+00
 Symmetry B3U  KE= 4.192949738844D+00
 ******************************Gaussian NBO Version 3.1******************************
             N A T U R A L   A T O M I C   O R B I T A L   A N D
          N A T U R A L   B O N D   O R B I T A L   A N A L Y S I S
 ******************************Gaussian NBO Version 3.1******************************
       /RESON  / : Allow strongly delocalized NBO set

 Analyzing the SCF density

 Job title: O2-HF-6-31G(D)                                                  

 Storage needed:      2904 in NPA,      3709 in NBO (1342177252 available)
 GSVD:  LWork=         620 too small for GESVD, short by         150 words or         150 for optimal perf.
 GSVD:  LWork=         516 too small for GESVD, short by         432 words or         432 for optimal perf.


 NATURAL POPULATIONS:  Natural atomic orbital occupancies 
                                                          
   NAO  Atom  No  lang   Type(AO)    Occupancy      Energy
 ----------------------------------------------------------
     1    O    1  S      Cor( 1S)     1.99992     -20.58167
     2    O    1  S      Val( 2S)     1.76552      -1.22761
     3    O    1  S      Ryd( 3S)     0.01420       1.17159
     4    O    1  S      Ryd( 4S)     0.00001       3.60805
     5    O    1  px     Val( 2p)     0.99332      -0.28682
     6    O    1  px     Ryd( 3p)     0.00054       1.13688
     7    O    1  py     Val( 2p)     1.99181      -0.60878
     8    O    1  py     Ryd( 3p)     0.00565       1.12068
     9    O    1  pz     Val( 2p)     1.21239      -0.33493
    10    O    1  pz     Ryd( 3p)     0.00475       1.15549
    11    O    1  dxy    Ryd( 3d)     0.00000       2.02086
    12    O    1  dxz    Ryd( 3d)     0.00614       2.34725
    13    O    1  dyz    Ryd( 3d)     0.00254       2.36940
    14    O    1  dx2y2  Ryd( 3d)     0.00003       2.02085
    15    O    1  dz2    Ryd( 3d)     0.00318       2.95917
 
    16    O    2  S      Cor( 1S)     1.99992     -20.58167
    17    O    2  S      Val( 2S)     1.76552      -1.22761
    18    O    2  S      Ryd( 3S)     0.01420       1.17159
    19    O    2  S      Ryd( 4S)     0.00001       3.60805
    20    O    2  px     Val( 2p)     0.99332      -0.28682
    21    O    2  px     Ryd( 3p)     0.00054       1.13688
    22    O    2  py     Val( 2p)     1.99181      -0.60878
    23    O    2  py     Ryd( 3p)     0.00565       1.12068
    24    O    2  pz     Val( 2p)     1.21239      -0.33493
    25    O    2  pz     Ryd( 3p)     0.00475       1.15549
    26    O    2  dxy    Ryd( 3d)     0.00000       2.02086
    27    O    2  dxz    Ryd( 3d)     0.00614       2.34725
    28    O    2  dyz    Ryd( 3d)     0.00254       2.36940
    29    O    2  dx2y2  Ryd( 3d)     0.00003       2.02085
    30    O    2  dz2    Ryd( 3d)     0.00318       2.95917


 Summary of Natural Population Analysis:                  
                                                          
                                       Natural Population 
                Natural  -----------------------------------------------
    Atom  No    Charge         Core      Valence    Rydberg      Total
 -----------------------------------------------------------------------
      O    1    0.00000      1.99992     5.96305    0.03703     8.00000
      O    2    0.00000      1.99992     5.96305    0.03703     8.00000
 =======================================================================
   * Total *    0.00000      3.99984    11.92609    0.07407    16.00000

                                 Natural Population      
 --------------------------------------------------------
   Core                       3.99984 ( 99.9960% of   4)
   Valence                   11.92609 ( 99.3841% of  12)
   Natural Minimal Basis     15.92593 ( 99.5371% of  16)
   Natural Rydberg Basis      0.07407 (  0.4629% of  16)
 --------------------------------------------------------

    Atom  No          Natural Electron Configuration
 ----------------------------------------------------------------------------
      O    1      [core]2S( 1.77)2p( 4.20)3S( 0.01)3p( 0.01)3d( 0.01)
      O    2      [core]2S( 1.77)2p( 4.20)3S( 0.01)3p( 0.01)3d( 0.01)


 NATURAL BOND ORBITAL ANALYSIS:

                       Occupancies       Lewis Structure    Low   High
           Occ.    -------------------  -----------------   occ   occ
  Cycle   Thresh.   Lewis   Non-Lewis     CR  BD  3C  LP    (L)   (NL)   Dev
 =============================================================================
   1(1)    1.90    15.98442   0.01558      2   2   0   4     0      0    0.03
 -----------------------------------------------------------------------------

 Structure accepted: No low occupancy Lewis orbitals

 --------------------------------------------------------
   Core                      3.99984 ( 99.996% of   4)
   Valence Lewis            11.98458 ( 99.871% of  12)
  ==================       ============================
   Total Lewis              15.98442 ( 99.903% of  16)
  -----------------------------------------------------
   Valence non-Lewis         0.00000 (  0.000% of  16)
   Rydberg non-Lewis         0.01558 (  0.097% of  16)
  ==================       ============================
   Total non-Lewis           0.01558 (  0.097% of  16)
 --------------------------------------------------------


       (Occupancy)   Bond orbital/ Coefficients/ Hybrids
 ---------------------------------------------------------------------------------
     1. (2.00000) BD ( 1) O   1 - O   2  
                ( 50.00%)   0.7071* O   1 s(  0.00%)p 1.00( 99.39%)d 0.01(  0.61%)
                                            0.0000  0.0000  0.0000  0.0000  0.9967
                                            0.0232  0.0000  0.0000  0.0000  0.0000
                                            0.0000 -0.0784  0.0000  0.0000  0.0000
                ( 50.00%)   0.7071* O   2 s(  0.00%)p 1.00( 99.39%)d 0.01(  0.61%)
                                            0.0000  0.0000  0.0000  0.0000  0.9967
                                            0.0232  0.0000  0.0000  0.0000  0.0000
                                            0.0000  0.0784  0.0000  0.0000  0.0000
     2. (2.00000) BD ( 2) O   1 - O   2  
                ( 50.00%)   0.7071* O   1 s( 24.20%)p 3.12( 75.51%)d 0.01(  0.29%)
                                           -0.0000 -0.4798  0.1084  0.0005  0.0000
                                            0.0000  0.0000  0.0000  0.8665 -0.0652
                                            0.0000  0.0000  0.0000 -0.0038 -0.0536
                ( 50.00%)   0.7071* O   2 s( 24.20%)p 3.12( 75.51%)d 0.01(  0.29%)
                                           -0.0000 -0.4798  0.1084  0.0005  0.0000
                                            0.0000  0.0000  0.0000 -0.8665  0.0652
                                            0.0000  0.0000  0.0000 -0.0038 -0.0536
     3. (1.99992) CR ( 1) O   1           s(100.00%)
                                            1.0000  0.0001  0.0000  0.0000  0.0000
                                            0.0000  0.0000  0.0000  0.0000 -0.0000
                                            0.0000  0.0000  0.0000 -0.0000 -0.0000
     4. (1.99992) CR ( 1) O   2           s(100.00%)
                                            1.0000  0.0001  0.0000  0.0000  0.0000
                                            0.0000  0.0000  0.0000 -0.0000  0.0000
                                            0.0000  0.0000  0.0000 -0.0000 -0.0000
     5. (1.99884) LP ( 1) O   1           s( 76.90%)p 0.30( 23.09%)d 0.00(  0.01%)
                                           -0.0001  0.8764  0.0297  0.0001  0.0000
                                            0.0000  0.0000  0.0000  0.4805 -0.0049
                                            0.0000  0.0000  0.0000 -0.0016 -0.0114
     6. (1.99345) LP ( 2) O   1           s(  0.00%)p 1.00( 99.95%)d 0.00(  0.05%)
                                            0.0000  0.0000  0.0000  0.0000  0.0000
                                            0.0000  0.9996  0.0191  0.0000  0.0000
                                            0.0000  0.0000 -0.0214  0.0000  0.0000
     7. (1.99884) LP ( 1) O   2           s( 76.90%)p 0.30( 23.09%)d 0.00(  0.01%)
                                           -0.0001  0.8764  0.0297  0.0001  0.0000
                                            0.0000  0.0000  0.0000 -0.4805  0.0049
                                            0.0000  0.0000  0.0000 -0.0016 -0.0114
     8. (1.99345) LP ( 2) O   2           s(  0.00%)p 1.00( 99.95%)d 0.00(  0.05%)
                                            0.0000  0.0000  0.0000  0.0000  0.0000
                                            0.0000  0.9996  0.0191  0.0000  0.0000
                                            0.0000  0.0000  0.0214  0.0000  0.0000
     9. (0.00655) RY*( 1) O   1           s(  0.00%)p 1.00( 75.08%)d 0.33( 24.92%)
                                            0.0000  0.0000  0.0000  0.0000  0.0000
                                            0.0000 -0.0059  0.8665  0.0000  0.0000
                                            0.0000  0.0000  0.4992  0.0000  0.0000
    10. (0.00122) RY*( 2) O   1           s( 57.77%)p 0.66( 37.88%)d 0.08(  4.35%)
                                            0.0000  0.0397  0.7568 -0.0588  0.0000
                                            0.0000  0.0000  0.0000 -0.1297 -0.6016
                                            0.0000  0.0000  0.0000  0.0694 -0.1967
    11. (0.00001) RY*( 3) O   1           s( 38.39%)p 1.60( 61.61%)d 0.00(  0.00%)
    12. (0.00000) RY*( 4) O   1           s( 99.85%)p 0.00(  0.13%)d 0.00(  0.02%)
    13. (0.00000) RY*( 5) O   1           s(  0.00%)p 1.00(100.00%)d 0.00(  0.00%)
    14. (0.00000) RY*( 6) O   1           s(  0.00%)p 0.00(  0.00%)d 1.00(100.00%)
    15. (0.00000) RY*( 7) O   1           s(  0.00%)p 1.00(  0.61%)d99.99( 99.39%)
    16. (0.00000) RY*( 8) O   1           s(  0.00%)p 1.00( 24.97%)d 3.01( 75.03%)
    17. (0.00000) RY*( 9) O   1           s(  0.30%)p 0.69(  0.21%)d99.99( 99.49%)
    18. (0.00000) RY*(10) O   1           s(  2.59%)p 0.61(  1.57%)d37.02( 95.84%)
    19. (0.00655) RY*( 1) O   2           s(  0.00%)p 1.00( 75.08%)d 0.33( 24.92%)
                                            0.0000  0.0000  0.0000  0.0000  0.0000
                                            0.0000 -0.0059  0.8665  0.0000  0.0000
                                            0.0000  0.0000 -0.4992  0.0000  0.0000
    20. (0.00122) RY*( 2) O   2           s( 57.77%)p 0.66( 37.88%)d 0.08(  4.35%)
                                            0.0000  0.0397  0.7568 -0.0588  0.0000
                                            0.0000  0.0000  0.0000  0.1297  0.6016
                                            0.0000  0.0000  0.0000  0.0694 -0.1967
    21. (0.00001) RY*( 3) O   2           s( 38.39%)p 1.60( 61.61%)d 0.00(  0.00%)
    22. (0.00000) RY*( 4) O   2           s( 99.85%)p 0.00(  0.13%)d 0.00(  0.02%)
    23. (0.00000) RY*( 5) O   2           s(  0.00%)p 1.00(100.00%)d 0.00(  0.00%)
    24. (0.00000) RY*( 6) O   2           s(  0.00%)p 0.00(  0.00%)d 1.00(100.00%)
    25. (0.00000) RY*( 7) O   2           s(  0.00%)p 1.00(  0.61%)d99.99( 99.39%)
    26. (0.00000) RY*( 8) O   2           s(  0.00%)p 1.00( 24.97%)d 3.01( 75.03%)
    27. (0.00000) RY*( 9) O   2           s(  0.30%)p 0.69(  0.21%)d99.99( 99.49%)
    28. (0.00000) RY*(10) O   2           s(  2.59%)p 0.61(  1.57%)d37.02( 95.84%)
    29. (0.00000) BD*( 1) O   1 - O   2  
                ( 50.00%)   0.7071* O   1 s(  0.00%)p 1.00( 99.39%)d 0.01(  0.61%)
                ( 50.00%)  -0.7071* O   2 s(  0.00%)p 1.00( 99.39%)d 0.01(  0.61%)
    30. (0.00000) BD*( 2) O   1 - O   2  
                ( 50.00%)   0.7071* O   1 s( 24.20%)p 3.12( 75.51%)d 0.01(  0.29%)
                ( 50.00%)  -0.7071* O   2 s( 24.20%)p 3.12( 75.51%)d 0.01(  0.29%)


 NHO Directionality and "Bond Bending" (deviations from line of nuclear centers)

         [Thresholds for printing:  angular deviation  >  1.0 degree]
                                    hybrid p-character > 25.0%
                                    orbital occupancy  >  0.10e

                                Line of Centers        Hybrid 1              Hybrid 2
                                ---------------  -------------------   ------------------
                NBO               Theta   Phi    Theta   Phi    Dev    Theta   Phi    Dev
 ========================================================================================
     1. BD (   1) O   1 - O   2   180.0    0.0    90.0    0.0  90.0     90.0    0.0  90.0
     6. LP (   2) O   1             --     --     90.0   90.0   --       --     --    --
     8. LP (   2) O   2             --     --     90.0   90.0   --       --     --    --


 Second Order Perturbation Theory Analysis of Fock Matrix in NBO Basis

     Threshold for printing:   0.50 kcal/mol
                                                                              E(2)  E(j)-E(i) F(i,j)
         Donor NBO (i)                     Acceptor NBO (j)                 kcal/mol   a.u.    a.u. 
 ===================================================================================================

 within unit  1
   3. CR (   1) O   1                / 20. RY*(   2) O   2                    1.42   21.86    0.157
   4. CR (   1) O   2                / 10. RY*(   2) O   1                    1.42   21.86    0.157
   5. LP (   1) O   1                / 20. RY*(   2) O   2                    2.31    2.46    0.067
   6. LP (   2) O   1                / 19. RY*(   1) O   2                    8.35    2.01    0.116
   7. LP (   1) O   2                / 10. RY*(   2) O   1                    2.31    2.46    0.067
   8. LP (   2) O   2                /  9. RY*(   1) O   1                    8.35    2.01    0.116


 Natural Bond Orbitals (Summary):

                                                            Principal Delocalizations
           NBO                        Occupancy    Energy   (geminal,vicinal,remote)
 ====================================================================================
 Molecular unit  1  (O2)
     1. BD (   1) O   1 - O   2          2.00000    -0.67151   
     2. BD (   2) O   1 - O   2          2.00000    -1.49707   
     3. CR (   1) O   1                  1.99992   -20.58186  20(v)
     4. CR (   1) O   2                  1.99992   -20.58186  10(v)
     5. LP (   1) O   1                  1.99884    -1.17662  20(v)
     6. LP (   2) O   1                  1.99345    -0.60999  19(v)
     7. LP (   1) O   2                  1.99884    -1.17662  10(v)
     8. LP (   2) O   2                  1.99345    -0.60999  9(v)
     9. RY*(   1) O   1                  0.00655     1.40070   
    10. RY*(   2) O   1                  0.00122     1.28122   
    11. RY*(   3) O   1                  0.00001     1.05136   
    12. RY*(   4) O   1                  0.00000     3.58940   
    13. RY*(   5) O   1                  0.00000     1.14149   
    14. RY*(   6) O   1                  0.00000     2.02086   
    15. RY*(   7) O   1                  0.00000     2.34404   
    16. RY*(   8) O   1                  0.00000     2.09059   
    17. RY*(   9) O   1                  0.00000     2.01813   
    18. RY*(  10) O   1                  0.00000     2.94121   
    19. RY*(   1) O   2                  0.00655     1.40070   
    20. RY*(   2) O   2                  0.00122     1.28122   
    21. RY*(   3) O   2                  0.00001     1.05136   
    22. RY*(   4) O   2                  0.00000     3.58940   
    23. RY*(   5) O   2                  0.00000     1.14149   
    24. RY*(   6) O   2                  0.00000     2.02086   
    25. RY*(   7) O   2                  0.00000     2.34404   
    26. RY*(   8) O   2                  0.00000     2.09059   
    27. RY*(   9) O   2                  0.00000     2.01813   
    28. RY*(  10) O   2                  0.00000     2.94121   
    29. BD*(   1) O   1 - O   2          0.00000     0.09505   
    30. BD*(   2) O   1 - O   2          0.00000     0.79328   
       -------------------------------
              Total Lewis   15.98442  ( 99.9026%)
        Valence non-Lewis    0.00000  (  0.0000%)
        Rydberg non-Lewis    0.01558  (  0.0974%)
       -------------------------------
            Total unit  1   16.00000  (100.0000%)
           Charge unit  1    0.00000
 Unable to Open any file for archive entry.
 1\1\GINC-LOCALHOST\FOpt\RHF\6-31G(d)\O2\USER\21-Mar-2026\0\\# opt freq
  hf/6-31g(d) pop=nbo geom=connectivity\\O2-HF-6-31G(D)\\0,1\O,0.824644
 5603,0.10683761,0.\O,-0.3409455003,0.10683761,0.\\Version=ES64L-G16Rev
 C.02\HF=-149.532997\RMSD=4.389e-09\RMSF=4.149e-09\Dipole=0.,0.,0.\Quad
 rupole=-0.2738513,-0.4746766,0.7485278,0.,0.,0.\PG=D*H [C*(O1.O1)]\\@
 The archive entry for this job was punched.


 ... FOR AFTERWARDS A MAN FINDS PLEASURE IN HIS PAINS,
 WHEN HE HAS SUFFERED LONG AND WANDERED FAR.

                                    -- HOMER
 Job cpu time:       0 days  0 hours  0 minutes 48.3 seconds.
 Elapsed time:       0 days  0 hours  0 minutes  3.3 seconds.
 File lengths (MBytes):  RWF=      6 Int=      0 D2E=      0 Chk=      1 Scr=      1
 Normal termination of Gaussian 16 at Sat Mar 21 10:16:42 2026.
 Link1:  Proceeding to internal job step number  2.
 -----------------------------------------------------------------
 #N Geom=AllCheck Guess=TCheck SCRF=Check GenChk RHF/6-31G(d) Freq
 -----------------------------------------------------------------
 1/10=4,29=7,30=1,38=1,40=1/1,3;
 2/12=2,40=1/2;
 3/5=1,6=6,7=1,11=1,14=-4,25=1,30=1,70=2,71=2,116=1,140=1/1,2,3;
 4/5=101/1;
 5/5=2,38=6,98=1/2;
 8/6=4,10=90,11=11/1;
 10/13=10,15=4/2;
 11/6=3,8=1,9=11,15=111,16=1/1,2,10;
 10/6=1/2;
 6/7=2,8=2,9=2,10=2,28=1,40=1/1,7;
 7/8=1,10=1,25=1/1,2,3,16;
 1/10=4,30=1/3;
 99//99;
 Structure from the checkpoint file:  "O2-HF-6-31G(D).chk"
 --------------
 O2-HF-6-31G(D)
 --------------
 Charge =  0 Multiplicity = 1
 Redundant internal coordinates found in file.  (old form).
 O,0,0.8246445603,0.10683761,0.
 O,0,-0.3409455003,0.10683761,0.
 Recover connectivity data from disk.

 GradGradGradGradGradGradGradGradGradGradGradGradGradGradGradGradGradGrad
 Berny optimization.
 Initialization pass.
                           ----------------------------
                           !    Initial Parameters    !
                           ! (Angstroms and Degrees)  !
 --------------------------                            --------------------------
 ! Name  Definition              Value          Derivative Info.                !
 --------------------------------------------------------------------------------
 ! R1    R(1,2)                  1.1656         calculate D2E/DX2 analytically  !
 --------------------------------------------------------------------------------
 Trust Radius=3.00D-01 FncErr=1.00D-07 GrdErr=1.00D-07 EigMax=2.50D+02 EigMin=1.00D-04
 Number of steps in this run=      2 maximum allowed number of steps=      2.
 GradGradGradGradGradGradGradGradGradGradGradGradGradGradGradGradGradGrad

                          Input orientation:                          
 ---------------------------------------------------------------------
 Center     Atomic      Atomic             Coordinates (Angstroms)
 Number     Number       Type             X           Y           Z
 ---------------------------------------------------------------------
      1          8           0        0.824645    0.106838    0.000000
      2          8           0       -0.340946    0.106838   -0.000000
 ---------------------------------------------------------------------
 Stoichiometry    O2
 Framework group  D*H[C*(O.O)]
 Deg. of freedom     1
 Full point group                 D*H     NOp   8
 Largest Abelian subgroup         D2H     NOp   8
 Largest concise Abelian subgroup C2      NOp   2
                         Standard orientation:                         
 ---------------------------------------------------------------------
 Center     Atomic      Atomic             Coordinates (Angstroms)
 Number     Number       Type             X           Y           Z
 ---------------------------------------------------------------------
      1          8           0        0.000000    0.000000    0.582795
      2          8           0        0.000000    0.000000   -0.582795
 ---------------------------------------------------------------------
 Rotational constants (GHZ):           0.0000000          46.5129193          46.5129193
 Standard basis: 6-31G(d) (6D, 7F)
 There are     8 symmetry adapted cartesian basis functions of AG  symmetry.
 There are     1 symmetry adapted cartesian basis functions of B1G symmetry.
 There are     3 symmetry adapted cartesian basis functions of B2G symmetry.
 There are     3 symmetry adapted cartesian basis functions of B3G symmetry.
 There are     1 symmetry adapted cartesian basis functions of AU  symmetry.
 There are     8 symmetry adapted cartesian basis functions of B1U symmetry.
 There are     3 symmetry adapted cartesian basis functions of B2U symmetry.
 There are     3 symmetry adapted cartesian basis functions of B3U symmetry.
 There are     8 symmetry adapted basis functions of AG  symmetry.
 There are     1 symmetry adapted basis functions of B1G symmetry.
 There are     3 symmetry adapted basis functions of B2G symmetry.
 There are     3 symmetry adapted basis functions of B3G symmetry.
 There are     1 symmetry adapted basis functions of AU  symmetry.
 There are     8 symmetry adapted basis functions of B1U symmetry.
 There are     3 symmetry adapted basis functions of B2U symmetry.
 There are     3 symmetry adapted basis functions of B3U symmetry.
    30 basis functions,    56 primitive gaussians,    30 cartesian basis functions
     8 alpha electrons        8 beta electrons
       nuclear repulsion energy        29.0559628474 Hartrees.
 NAtoms=    2 NActive=    2 NUniq=    1 SFac= 4.00D+00 NAtFMM=   60 NAOKFM=F Big=F
 Integral buffers will be    131072 words long.
 Raffenetti 1 integral format.
 Two-electron integral symmetry is turned on.
 One-electron integrals computed using PRISM.
 NBasis=    30 RedAO= T EigKep=  6.11D-03  NBF=     8     1     3     3     1     8     3     3
 NBsUse=    30 1.00D-06 EigRej= -1.00D+00 NBFU=     8     1     3     3     1     8     3     3
 Initial guess from the checkpoint file:  "O2-HF-6-31G(D).chk"
 B after Tr=     0.000000    0.000000    0.000000
         Rot=    1.000000    0.000000    0.000000    0.000000 Ang=   0.00 deg.
 Initial guess orbital symmetries:
       Occupied  (SGG) (SGU) (SGG) (SGU) (PIU) (SGG) (PIU) (?A)
       Virtual   (?A) (SGU) (SGG) (SGU) (PIU) (PIU) (SGG) (?A)
                 (?A) (SGU) (DLTG) (DLTG) (PIU) (PIU) (DLTU) (DLTU)
                 (SGG) (PIG) (PIG) (SGU) (SGG) (SGU)
 Keep R1 ints in memory in symmetry-blocked form, NReq=5046256.
 Requested convergence on RMS density matrix=1.00D-08 within 128 cycles.
 Requested convergence on MAX density matrix=1.00D-06.
 Requested convergence on             energy=1.00D-06.
 No special actions if energy rises.
 SCF Done:  E(RHF) =  -149.532996973     A.U. after    1 cycles
            NFock=  1  Conv=0.47D-09     -V/T= 2.0031
 Range of M.O.s used for correlation:     1    30
 NBasis=    30 NAE=     8 NBE=     8 NFC=     0 NFV=     0
 NROrb=     30 NOA=     8 NOB=     8 NVA=    22 NVB=    22
          Differentiating once with respect to electric field.
                with respect to dipole field.
          Electric field/nuclear overlap derivatives assumed to be zero.
 Keep R1 ints in memory in symmetry-blocked form, NReq=5046551.
          There are     3 degrees of freedom in the 1st order CPHF.  IDoFFX=0 NUNeed=     3.
      3 vectors produced by pass  0 Test12= 5.87D-15 3.33D-08 XBig12= 3.24D+00 1.53D+00.
 AX will form     3 AO Fock derivatives at one time.
      3 vectors produced by pass  1 Test12= 5.87D-15 3.33D-08 XBig12= 5.69D-01 3.99D-01.
      3 vectors produced by pass  2 Test12= 5.87D-15 3.33D-08 XBig12= 5.56D-02 1.42D-01.
      3 vectors produced by pass  3 Test12= 5.87D-15 3.33D-08 XBig12= 1.68D-03 2.02D-02.
      3 vectors produced by pass  4 Test12= 5.87D-15 3.33D-08 XBig12= 2.78D-05 2.72D-03.
      3 vectors produced by pass  5 Test12= 5.87D-15 3.33D-08 XBig12= 2.03D-07 2.09D-04.
      3 vectors produced by pass  6 Test12= 5.87D-15 3.33D-08 XBig12= 6.66D-10 1.16D-05.
      1 vectors produced by pass  7 Test12= 5.87D-15 3.33D-08 XBig12= 3.02D-12 7.50D-07.
      1 vectors produced by pass  8 Test12= 5.87D-15 3.33D-08 XBig12= 1.64D-14 5.54D-08.
 InvSVY:  IOpt=1 It=  1 EMax= 2.81D-16
 Solved reduced A of dimension    23 with     3 vectors.
 End of Minotr F.D. properties file   721 does not exist.
 End of Minotr F.D. properties file   722 does not exist.
 End of Minotr F.D. properties file   788 does not exist.
 Symmetrizing basis deriv contribution to polar:
 IMax=3 JMax=2 DiffMx= 0.00D+00
 G2DrvN: will do     3 centers at a time, making    1 passes.
 PxScal for G2LodP:  IOpCl= 0 ISclPx=1 IMOff=     1 NMtTot=     4 NTT=     465 ScalPx= 1.00D+00
 Calling FoFCou, ICntrl=  3107 FMM=F I1Cent=   0 AccDes= 0.00D+00.
 End of G2Drv F.D. properties file   721 does not exist.
 End of G2Drv F.D. properties file   722 does not exist.
 End of G2Drv F.D. properties file   788 does not exist.
          IDoAtm=11
          Differentiating once with respect to electric field.
                with respect to dipole field.
          Differentiating once with respect to nuclear coordinates.
 Keep R1 ints in memory in symmetry-blocked form, NReq=5046597.
          There are     6 degrees of freedom in the 1st order CPHF.  IDoFFX=4 NUNeed=     6.
 Will reuse    3 saved solutions.
      3 vectors produced by pass  0 Test12= 2.93D-15 1.67D-08 XBig12= 5.38D-02 1.45D-01.
 AX will form     3 AO Fock derivatives at one time.
      3 vectors produced by pass  1 Test12= 2.93D-15 1.67D-08 XBig12= 2.48D-03 2.84D-02.
      3 vectors produced by pass  2 Test12= 2.93D-15 1.67D-08 XBig12= 3.90D-05 3.21D-03.
      3 vectors produced by pass  3 Test12= 2.93D-15 1.67D-08 XBig12= 3.38D-07 3.80D-04.
      3 vectors produced by pass  4 Test12= 2.93D-15 1.67D-08 XBig12= 3.39D-09 4.27D-05.
      3 vectors produced by pass  5 Test12= 2.93D-15 1.67D-08 XBig12= 1.36D-11 1.94D-06.
      3 vectors produced by pass  6 Test12= 2.93D-15 1.67D-08 XBig12= 7.61D-14 1.53D-07.
 InvSVY:  IOpt=1 It=  1 EMax= 1.11D-16
 Solved reduced A of dimension    21 with     3 vectors.
 Isotropic polarizability for W=    0.000000        6.63 Bohr**3.
 End of Minotr F.D. properties file   721 does not exist.
 End of Minotr F.D. properties file   722 does not exist.
 End of Minotr F.D. properties file   788 does not exist.

 **********************************************************************

            Population analysis using the SCF Density.

 **********************************************************************

 Orbital symmetries:
       Occupied  (SGG) (SGU) (SGG) (SGU) (PIU) (SGG) (PIU) (?A)
       Virtual   (?A) (SGU) (SGG) (SGU) (PIU) (PIU) (SGG) (?A)
                 (?A) (SGU) (DLTG) (DLTG) (PIU) (PIU) (DLTU) (DLTU)
                 (SGG) (PIG) (PIG) (SGU) (SGG) (SGU)
 Unable to determine electronic state:  an orbital has unidentified symmetry.
 Alpha  occ. eigenvalues --  -20.74492 -20.74381  -1.69718  -1.08529  -0.78335
 Alpha  occ. eigenvalues --   -0.74819  -0.67151  -0.44991
 Alpha virt. eigenvalues --    0.05021   0.51458   0.87125   0.98120   1.05713
 Alpha virt. eigenvalues --    1.07140   1.08368   1.17518   1.20736   1.53950
 Alpha virt. eigenvalues --    1.79028   1.79039   1.80796   1.81218   2.25135
 Alpha virt. eigenvalues --    2.25143   2.85634   2.92918   2.95136   3.16942
 Alpha virt. eigenvalues --    3.58196   3.92163
          Condensed to atoms (all electrons):
               1          2
     1  O    7.880418   0.119582
     2  O    0.119582   7.880418
 Mulliken charges:
               1
     1  O    0.000000
     2  O    0.000000
 Sum of Mulliken charges =   0.00000
 Mulliken charges with hydrogens summed into heavy atoms:
               1
     1  O    0.000000
     2  O    0.000000
 APT charges:
               1
     1  O   -0.000000
     2  O    0.000000
 Sum of APT charges =   0.00000
 APT charges with hydrogens summed into heavy atoms:
               1
     1  O   -0.000000
     2  O    0.000000
 Electronic spatial extent (au):  <R**2>=             41.8620
 Charge=              0.0000 electrons
 Dipole moment (field-independent basis, Debye):
    X=              0.0000    Y=             -0.0000    Z=              0.0000  Tot=              0.0000
 Quadrupole moment (field-independent basis, Debye-Ang):
   XX=             -9.0610   YY=            -10.7062   ZZ=            -10.4361
   XY=              0.0000   XZ=              0.0000   YZ=              0.0000
 Traceless Quadrupole moment (field-independent basis, Debye-Ang):
   XX=              1.0068   YY=             -0.6385   ZZ=             -0.3683
   XY=              0.0000   XZ=              0.0000   YZ=              0.0000
 Octapole moment (field-independent basis, Debye-Ang**2):
  XXX=             -0.0000  YYY=             -0.0000  ZZZ=             -0.0000  XYY=             -0.0000
  XXY=             -0.0000  XXZ=             -0.0000  XZZ=             -0.0000  YZZ=             -0.0000
  YYZ=             -0.0000  XYZ=              0.0000
 Hexadecapole moment (field-independent basis, Debye-Ang**3):
 XXXX=             -5.8147 YYYY=             -7.2129 ZZZZ=            -26.4955 XXXY=              0.0000
 XXXZ=              0.0000 YYYX=              0.0000 YYYZ=              0.0000 ZZZX=              0.0000
 ZZZY=              0.0000 XXYY=             -2.1712 XXZZ=             -5.1005 YYZZ=             -6.3526
 XXYZ=              0.0000 YYXZ=              0.0000 ZZXY=             -0.0000
 N-N= 2.905596284738D+01 E-N=-4.124015994966D+02  KE= 1.490719880121D+02
 Symmetry AG   KE= 6.944371558907D+01
 Symmetry B1G  KE= 2.210746209341D-34
 Symmetry B2G  KE= 4.843747970224D-32
 Symmetry B3G  KE= 5.952021883604D+00
 Symmetry AU   KE= 5.325410096296D-34
 Symmetry B1U  KE= 6.481415972340D+01
 Symmetry B2U  KE= 4.669141072738D+00
 Symmetry B3U  KE= 4.192949743294D+00
  Exact polarizability:       4.306       0.000       3.706      -0.000       0.000      11.877
 Approx polarizability:       4.478      -0.000       3.390      -0.000      -0.000      11.949
 ******************************Gaussian NBO Version 3.1******************************
             N A T U R A L   A T O M I C   O R B I T A L   A N D
          N A T U R A L   B O N D   O R B I T A L   A N A L Y S I S
 ******************************Gaussian NBO Version 3.1******************************
       /RESON  / : Allow strongly delocalized NBO set

 Analyzing the SCF density

 Job title: O2-HF-6-31G(D)                                                  

 Storage needed:      2904 in NPA,      3709 in NBO (1342177252 available)
 GSVD:  LWork=         620 too small for GESVD, short by         150 words or         150 for optimal perf.
 GSVD:  LWork=         516 too small for GESVD, short by         432 words or         432 for optimal perf.


 NATURAL POPULATIONS:  Natural atomic orbital occupancies 
                                                          
   NAO  Atom  No  lang   Type(AO)    Occupancy      Energy
 ----------------------------------------------------------
     1    O    1  S      Cor( 1S)     1.99992     -20.58167
     2    O    1  S      Val( 2S)     1.76552      -1.22761
     3    O    1  S      Ryd( 3S)     0.01420       1.17159
     4    O    1  S      Ryd( 4S)     0.00001       3.60805
     5    O    1  px     Val( 2p)     0.99332      -0.28682
     6    O    1  px     Ryd( 3p)     0.00054       1.13688
     7    O    1  py     Val( 2p)     1.99181      -0.60878
     8    O    1  py     Ryd( 3p)     0.00565       1.12068
     9    O    1  pz     Val( 2p)     1.21239      -0.33493
    10    O    1  pz     Ryd( 3p)     0.00475       1.15549
    11    O    1  dxy    Ryd( 3d)     0.00000       2.02086
    12    O    1  dxz    Ryd( 3d)     0.00614       2.34725
    13    O    1  dyz    Ryd( 3d)     0.00254       2.36940
    14    O    1  dx2y2  Ryd( 3d)     0.00003       2.02085
    15    O    1  dz2    Ryd( 3d)     0.00318       2.95917
 
    16    O    2  S      Cor( 1S)     1.99992     -20.58167
    17    O    2  S      Val( 2S)     1.76552      -1.22761
    18    O    2  S      Ryd( 3S)     0.01420       1.17159
    19    O    2  S      Ryd( 4S)     0.00001       3.60805
    20    O    2  px     Val( 2p)     0.99332      -0.28682
    21    O    2  px     Ryd( 3p)     0.00054       1.13688
    22    O    2  py     Val( 2p)     1.99181      -0.60878
    23    O    2  py     Ryd( 3p)     0.00565       1.12068
    24    O    2  pz     Val( 2p)     1.21239      -0.33493
    25    O    2  pz     Ryd( 3p)     0.00475       1.15549
    26    O    2  dxy    Ryd( 3d)     0.00000       2.02086
    27    O    2  dxz    Ryd( 3d)     0.00614       2.34725
    28    O    2  dyz    Ryd( 3d)     0.00254       2.36940
    29    O    2  dx2y2  Ryd( 3d)     0.00003       2.02085
    30    O    2  dz2    Ryd( 3d)     0.00318       2.95917


 Summary of Natural Population Analysis:                  
                                                          
                                       Natural Population 
                Natural  -----------------------------------------------
    Atom  No    Charge         Core      Valence    Rydberg      Total
 -----------------------------------------------------------------------
      O    1    0.00000      1.99992     5.96305    0.03703     8.00000
      O    2    0.00000      1.99992     5.96305    0.03703     8.00000
 =======================================================================
   * Total *    0.00000      3.99984    11.92609    0.07407    16.00000

                                 Natural Population      
 --------------------------------------------------------
   Core                       3.99984 ( 99.9960% of   4)
   Valence                   11.92609 ( 99.3841% of  12)
   Natural Minimal Basis     15.92593 ( 99.5371% of  16)
   Natural Rydberg Basis      0.07407 (  0.4629% of  16)
 --------------------------------------------------------

    Atom  No          Natural Electron Configuration
 ----------------------------------------------------------------------------
      O    1      [core]2S( 1.77)2p( 4.20)3S( 0.01)3p( 0.01)3d( 0.01)
      O    2      [core]2S( 1.77)2p( 4.20)3S( 0.01)3p( 0.01)3d( 0.01)


 NATURAL BOND ORBITAL ANALYSIS:

                       Occupancies       Lewis Structure    Low   High
           Occ.    -------------------  -----------------   occ   occ
  Cycle   Thresh.   Lewis   Non-Lewis     CR  BD  3C  LP    (L)   (NL)   Dev
 =============================================================================
   1(1)    1.90    15.98442   0.01558      2   2   0   4     0      0    0.03
 -----------------------------------------------------------------------------

 Structure accepted: No low occupancy Lewis orbitals

 --------------------------------------------------------
   Core                      3.99984 ( 99.996% of   4)
   Valence Lewis            11.98458 ( 99.871% of  12)
  ==================       ============================
   Total Lewis              15.98442 ( 99.903% of  16)
  -----------------------------------------------------
   Valence non-Lewis         0.00000 (  0.000% of  16)
   Rydberg non-Lewis         0.01558 (  0.097% of  16)
  ==================       ============================
   Total non-Lewis           0.01558 (  0.097% of  16)
 --------------------------------------------------------


       (Occupancy)   Bond orbital/ Coefficients/ Hybrids
 ---------------------------------------------------------------------------------
     1. (2.00000) BD ( 1) O   1 - O   2  
                ( 50.00%)   0.7071* O   1 s(  0.00%)p 1.00( 99.39%)d 0.01(  0.61%)
                                            0.0000  0.0000  0.0000  0.0000  0.9967
                                            0.0232  0.0000  0.0000  0.0000  0.0000
                                            0.0000 -0.0784  0.0000  0.0000  0.0000
                ( 50.00%)   0.7071* O   2 s(  0.00%)p 1.00( 99.39%)d 0.01(  0.61%)
                                            0.0000  0.0000  0.0000  0.0000  0.9967
                                            0.0232  0.0000  0.0000  0.0000  0.0000
                                            0.0000  0.0784  0.0000  0.0000  0.0000
     2. (2.00000) BD ( 2) O   1 - O   2  
                ( 50.00%)   0.7071* O   1 s( 24.20%)p 3.12( 75.51%)d 0.01(  0.29%)
                                           -0.0000 -0.4798  0.1084  0.0005  0.0000
                                            0.0000  0.0000  0.0000  0.8665 -0.0652
                                            0.0000  0.0000  0.0000 -0.0038 -0.0536
                ( 50.00%)   0.7071* O   2 s( 24.20%)p 3.12( 75.51%)d 0.01(  0.29%)
                                           -0.0000 -0.4798  0.1084  0.0005  0.0000
                                            0.0000  0.0000  0.0000 -0.8665  0.0652
                                            0.0000  0.0000  0.0000 -0.0038 -0.0536
     3. (1.99992) CR ( 1) O   1           s(100.00%)
                                            1.0000  0.0001  0.0000  0.0000  0.0000
                                            0.0000  0.0000  0.0000  0.0000 -0.0000
                                            0.0000  0.0000  0.0000 -0.0000 -0.0000
     4. (1.99992) CR ( 1) O   2           s(100.00%)
                                            1.0000  0.0001  0.0000  0.0000  0.0000
                                            0.0000  0.0000  0.0000 -0.0000  0.0000
                                            0.0000  0.0000  0.0000 -0.0000 -0.0000
     5. (1.99884) LP ( 1) O   1           s( 76.90%)p 0.30( 23.09%)d 0.00(  0.01%)
                                           -0.0001  0.8764  0.0297  0.0001  0.0000
                                            0.0000  0.0000  0.0000  0.4805 -0.0049
                                            0.0000  0.0000  0.0000 -0.0016 -0.0114
     6. (1.99345) LP ( 2) O   1           s(  0.00%)p 1.00( 99.95%)d 0.00(  0.05%)
                                            0.0000  0.0000  0.0000  0.0000  0.0000
                                            0.0000  0.9996  0.0191  0.0000  0.0000
                                            0.0000  0.0000 -0.0214  0.0000  0.0000
     7. (1.99884) LP ( 1) O   2           s( 76.90%)p 0.30( 23.09%)d 0.00(  0.01%)
                                           -0.0001  0.8764  0.0297  0.0001  0.0000
                                            0.0000  0.0000  0.0000 -0.4805  0.0049
                                            0.0000  0.0000  0.0000 -0.0016 -0.0114
     8. (1.99345) LP ( 2) O   2           s(  0.00%)p 1.00( 99.95%)d 0.00(  0.05%)
                                            0.0000  0.0000  0.0000  0.0000  0.0000
                                            0.0000  0.9996  0.0191  0.0000  0.0000
                                            0.0000  0.0000  0.0214  0.0000  0.0000
     9. (0.00655) RY*( 1) O   1           s(  0.00%)p 1.00( 75.08%)d 0.33( 24.92%)
                                            0.0000  0.0000  0.0000  0.0000  0.0000
                                            0.0000 -0.0059  0.8665  0.0000  0.0000
                                            0.0000  0.0000  0.4992  0.0000  0.0000
    10. (0.00122) RY*( 2) O   1           s( 57.77%)p 0.66( 37.88%)d 0.08(  4.35%)
                                            0.0000  0.0397  0.7568 -0.0588  0.0000
                                            0.0000  0.0000  0.0000 -0.1297 -0.6016
                                            0.0000  0.0000  0.0000  0.0694 -0.1967
    11. (0.00001) RY*( 3) O   1           s( 38.39%)p 1.60( 61.61%)d 0.00(  0.00%)
    12. (0.00000) RY*( 4) O   1           s( 99.85%)p 0.00(  0.13%)d 0.00(  0.02%)
    13. (0.00000) RY*( 5) O   1           s(  0.00%)p 1.00(100.00%)d 0.00(  0.00%)
    14. (0.00000) RY*( 6) O   1           s(  0.00%)p 0.00(  0.00%)d 1.00(100.00%)
    15. (0.00000) RY*( 7) O   1           s(  0.00%)p 1.00(  0.61%)d99.99( 99.39%)
    16. (0.00000) RY*( 8) O   1           s(  0.00%)p 1.00( 24.97%)d 3.01( 75.03%)
    17. (0.00000) RY*( 9) O   1           s(  0.30%)p 0.69(  0.21%)d99.99( 99.49%)
    18. (0.00000) RY*(10) O   1           s(  2.59%)p 0.61(  1.57%)d37.02( 95.84%)
    19. (0.00655) RY*( 1) O   2           s(  0.00%)p 1.00( 75.08%)d 0.33( 24.92%)
                                            0.0000  0.0000  0.0000  0.0000  0.0000
                                            0.0000 -0.0059  0.8665  0.0000  0.0000
                                            0.0000  0.0000 -0.4992  0.0000  0.0000
    20. (0.00122) RY*( 2) O   2           s( 57.77%)p 0.66( 37.88%)d 0.08(  4.35%)
                                            0.0000  0.0397  0.7568 -0.0588  0.0000
                                            0.0000  0.0000  0.0000  0.1297  0.6016
                                            0.0000  0.0000  0.0000  0.0694 -0.1967
    21. (0.00001) RY*( 3) O   2           s( 38.39%)p 1.60( 61.61%)d 0.00(  0.00%)
    22. (0.00000) RY*( 4) O   2           s( 99.85%)p 0.00(  0.13%)d 0.00(  0.02%)
    23. (0.00000) RY*( 5) O   2           s(  0.00%)p 1.00(100.00%)d 0.00(  0.00%)
    24. (0.00000) RY*( 6) O   2           s(  0.00%)p 0.00(  0.00%)d 1.00(100.00%)
    25. (0.00000) RY*( 7) O   2           s(  0.00%)p 1.00(  0.61%)d99.99( 99.39%)
    26. (0.00000) RY*( 8) O   2           s(  0.00%)p 1.00( 24.97%)d 3.01( 75.03%)
    27. (0.00000) RY*( 9) O   2           s(  0.30%)p 0.69(  0.21%)d99.99( 99.49%)
    28. (0.00000) RY*(10) O   2           s(  2.59%)p 0.61(  1.57%)d37.02( 95.84%)
    29. (0.00000) BD*( 1) O   1 - O   2  
                ( 50.00%)   0.7071* O   1 s(  0.00%)p 1.00( 99.39%)d 0.01(  0.61%)
                ( 50.00%)  -0.7071* O   2 s(  0.00%)p 1.00( 99.39%)d 0.01(  0.61%)
    30. (0.00000) BD*( 2) O   1 - O   2  
                ( 50.00%)   0.7071* O   1 s( 24.20%)p 3.12( 75.51%)d 0.01(  0.29%)
                ( 50.00%)  -0.7071* O   2 s( 24.20%)p 3.12( 75.51%)d 0.01(  0.29%)


 NHO Directionality and "Bond Bending" (deviations from line of nuclear centers)

         [Thresholds for printing:  angular deviation  >  1.0 degree]
                                    hybrid p-character > 25.0%
                                    orbital occupancy  >  0.10e

                                Line of Centers        Hybrid 1              Hybrid 2
                                ---------------  -------------------   ------------------
                NBO               Theta   Phi    Theta   Phi    Dev    Theta   Phi    Dev
 ========================================================================================
     1. BD (   1) O   1 - O   2   180.0    0.0    90.0    0.0  90.0     90.0    0.0  90.0
     6. LP (   2) O   1             --     --     90.0   90.0   --       --     --    --
     8. LP (   2) O   2             --     --     90.0   90.0   --       --     --    --


 Second Order Perturbation Theory Analysis of Fock Matrix in NBO Basis

     Threshold for printing:   0.50 kcal/mol
                                                                              E(2)  E(j)-E(i) F(i,j)
         Donor NBO (i)                     Acceptor NBO (j)                 kcal/mol   a.u.    a.u. 
 ===================================================================================================

 within unit  1
   3. CR (   1) O   1                / 20. RY*(   2) O   2                    1.42   21.86    0.157
   4. CR (   1) O   2                / 10. RY*(   2) O   1                    1.42   21.86    0.157
   5. LP (   1) O   1                / 20. RY*(   2) O   2                    2.31    2.46    0.067
   6. LP (   2) O   1                / 19. RY*(   1) O   2                    8.35    2.01    0.116
   7. LP (   1) O   2                / 10. RY*(   2) O   1                    2.31    2.46    0.067
   8. LP (   2) O   2                /  9. RY*(   1) O   1                    8.35    2.01    0.116


 Natural Bond Orbitals (Summary):

                                                            Principal Delocalizations
           NBO                        Occupancy    Energy   (geminal,vicinal,remote)
 ====================================================================================
 Molecular unit  1  (O2)
     1. BD (   1) O   1 - O   2          2.00000    -0.67151   
     2. BD (   2) O   1 - O   2          2.00000    -1.49707   
     3. CR (   1) O   1                  1.99992   -20.58186  20(v)
     4. CR (   1) O   2                  1.99992   -20.58186  10(v)
     5. LP (   1) O   1                  1.99884    -1.17662  20(v)
     6. LP (   2) O   1                  1.99345    -0.60999  19(v)
     7. LP (   1) O   2                  1.99884    -1.17662  10(v)
     8. LP (   2) O   2                  1.99345    -0.60999  9(v)
     9. RY*(   1) O   1                  0.00655     1.40070   
    10. RY*(   2) O   1                  0.00122     1.28122   
    11. RY*(   3) O   1                  0.00001     1.05136   
    12. RY*(   4) O   1                  0.00000     3.58940   
    13. RY*(   5) O   1                  0.00000     1.14149   
    14. RY*(   6) O   1                  0.00000     2.02086   
    15. RY*(   7) O   1                  0.00000     2.34404   
    16. RY*(   8) O   1                  0.00000     2.09059   
    17. RY*(   9) O   1                  0.00000     2.01813   
    18. RY*(  10) O   1                  0.00000     2.94121   
    19. RY*(   1) O   2                  0.00655     1.40070   
    20. RY*(   2) O   2                  0.00122     1.28122   
    21. RY*(   3) O   2                  0.00001     1.05136   
    22. RY*(   4) O   2                  0.00000     3.58940   
    23. RY*(   5) O   2                  0.00000     1.14149   
    24. RY*(   6) O   2                  0.00000     2.02086   
    25. RY*(   7) O   2                  0.00000     2.34404   
    26. RY*(   8) O   2                  0.00000     2.09059   
    27. RY*(   9) O   2                  0.00000     2.01813   
    28. RY*(  10) O   2                  0.00000     2.94121   
    29. BD*(   1) O   1 - O   2          0.00000     0.09505   
    30. BD*(   2) O   1 - O   2          0.00000     0.79328   
       -------------------------------
              Total Lewis   15.98442  ( 99.9026%)
        Valence non-Lewis    0.00000  (  0.0000%)
        Rydberg non-Lewis    0.01558  (  0.0974%)
       -------------------------------
            Total unit  1   16.00000  (100.0000%)
           Charge unit  1    0.00000
 Calling FoFJK, ICntrl=    100127 FMM=F ISym2X=1 I1Cent= 0 IOpClX= 0 NMat=1 NMatS=1 NMatT=0.
 Full mass-weighted force constant matrix:
 Low frequencies ---   -0.1285    0.0010    0.0016    0.0017    0.0899 1997.8227
 Diagonal vibrational polarizability:
        0.0000000       0.0000000       0.0000000
 Diagonal vibrational hyperpolarizability:
       -0.0000000      -0.0000000      -0.0000000
 Harmonic frequencies (cm**-1), IR intensities (KM/Mole), Raman scattering
 activities (A**4/AMU), depolarization ratios for plane and unpolarized
 incident light, reduced masses (AMU), force constants (mDyne/A),
 and normal coordinates:
                      1
                     SGG
 Frequencies --   1997.8227
 Red. masses --     15.9949
 Frc consts  --     37.6137
 IR Inten    --      0.0000
 Raman Activ --     18.8477
 Depolar (P) --      0.3026
 Depolar (U) --      0.4647
  Atom  AN      X      Y      Z
     1   8    -0.00   0.00   0.71
     2   8     0.00   0.00  -0.71

 -------------------
 - Thermochemistry -
 -------------------
 Temperature   298.150 Kelvin.  Pressure   1.00000 Atm.
 Atom     1 has atomic number  8 and mass  15.99491
 Atom     2 has atomic number  8 and mass  15.99491
 Molecular mass:    31.98983 amu.
 Principal axes and moments of inertia in atomic units:
                           1         2         3
     Eigenvalues --    -0.00000  38.80086  38.80086
           X           -0.00000   1.00000  -0.00000
           Y            0.00000   0.00000   1.00000
           Z            1.00000   0.00000  -0.00000
 This molecule is a prolate symmetric top.
 Rotational symmetry number  2.
 Rotational temperature (Kelvin)      2.23227
 Rotational constant (GHZ):          46.512919
 Zero-point vibrational energy      11949.6 (Joules/Mol)
                                    2.85603 (Kcal/Mol)
 Vibrational temperatures:   2874.42
          (Kelvin)
 
 Zero-point correction=                           0.004551 (Hartree/Particle)
 Thermal correction to Energy=                    0.006912
 Thermal correction to Enthalpy=                  0.007857
 Thermal correction to Gibbs Free Energy=        -0.014312
 Sum of electronic and zero-point Energies=           -149.528446
 Sum of electronic and thermal Energies=              -149.526085
 Sum of electronic and thermal Enthalpies=            -149.525140
 Sum of electronic and thermal Free Energies=         -149.547309
 
                     E (Thermal)             CV                S
                      KCal/Mol        Cal/Mol-Kelvin    Cal/Mol-Kelvin
 Total                    4.338              4.980             46.658
 Electronic               0.000              0.000              0.000
 Translational            0.889              2.981             36.321
 Rotational               0.592              1.987             10.336
 Vibrational              2.856              0.012              0.001
                       Q            Log10(Q)             Ln(Q)
 Total Bot       0.382977D+07          6.583173         15.158316
 Total V=0       0.474962D+09          8.676658         19.978744
 Vib (Bot)       0.806386D-02         -2.093457         -4.820363
 Vib (V=0)       0.100007D+01          0.000028          0.000065
 Electronic      0.100000D+01          0.000000          0.000000
 Translational   0.711167D+07          6.851972         15.777248
 Rotational      0.667819D+02          1.824658          4.201431
 ***** Axes restored to original set *****
 -------------------------------------------------------------------
 Center     Atomic                   Forces (Hartrees/Bohr)
 Number     Number              X              Y              Z
 -------------------------------------------------------------------
      1        8          -0.000000009   -0.000000000   -0.000000000
      2        8           0.000000009    0.000000000    0.000000000
 -------------------------------------------------------------------
 Cartesian Forces:  Max     0.000000009 RMS     0.000000005
 FormGI is forming the generalized inverse of G from B-inverse, IUseBI=4.

 GradGradGradGradGradGradGradGradGradGradGradGradGradGradGradGradGradGrad
 Berny optimization.
 Internal  Forces:  Max     0.000000009 RMS     0.000000009
 Search for a local minimum.
 Step number   1 out of a maximum of    2
 All quantities printed in internal units (Hartrees-Bohrs-Radians)
 Second derivative matrix not updated -- analytic derivatives used.
 The second derivative matrix:
                          R1
           R1           1.20797
 ITU=  0
     Eigenvalues ---    1.20797
 Angle between quadratic step and forces=  90.00 degrees.
 Linear search not attempted -- first point.
 Iteration  1 RMS(Cart)=  0.00000001 RMS(Int)=  0.00000000
 ClnCor:  largest displacement from symmetrization is 2.36D-25 for atom     2.
 Variable       Old X    -DE/DX   Delta X   Delta X   Delta X     New X
                                 (Linear)    (Quad)   (Total)
    R1        2.20265  -0.00000   0.00000  -0.00000  -0.00000   2.20265
         Item               Value     Threshold  Converged?
 Maximum Force            0.000000     0.000450     YES
 RMS     Force            0.000000     0.000300     YES
 Maximum Displacement     0.000000     0.001800     YES
 RMS     Displacement     0.000000     0.001200     YES
 Predicted change in Energy=-3.603674D-17
 Optimization completed.
    -- Stationary point found.
                           ----------------------------
                           !   Optimized Parameters   !
                           ! (Angstroms and Degrees)  !
 --------------------------                            --------------------------
 ! Name  Definition              Value          Derivative Info.                !
 --------------------------------------------------------------------------------
 ! R1    R(1,2)                  1.1656         -DE/DX =    0.0                 !
 --------------------------------------------------------------------------------
 GradGradGradGradGradGradGradGradGradGradGradGradGradGradGradGradGradGrad

 Dipole is zero, so no output in dipole orientation.

 ----------------------------------------------------------------------

 Electric dipole moment (input orientation):
 (Debye = 10**-18 statcoulomb cm , SI units = C m)
                  (au)            (Debye)         (10**-30 SI)
   Tot        0.000000D+00      0.000000D+00      0.000000D+00
   x          0.000000D+00      0.000000D+00      0.000000D+00
   y          0.000000D+00      0.000000D+00      0.000000D+00
   z          0.000000D+00      0.000000D+00      0.000000D+00

 Dipole polarizability, Alpha (input orientation).
 (esu units = cm**3 , SI units = C**2 m**2 J**-1)
 Alpha(0;0):
               (au)            (10**-24 esu)      (10**-40 SI)
   iso        0.662962D+01      0.982408D+00      0.109308D+01
   aniso      0.788851D+01      0.116896D+01      0.130064D+01
   xx         0.118772D+02      0.176002D+01      0.195829D+01
   yx         0.000000D+00      0.000000D+00      0.000000D+00
   yy         0.370576D+01      0.549137D+00      0.610997D+00
   zx         0.000000D+00      0.000000D+00      0.000000D+00
   zy         0.000000D+00      0.000000D+00      0.000000D+00
   zz         0.430590D+01      0.638069D+00      0.709947D+00

 ----------------------------------------------------------------------
 Unable to Open any file for archive entry.
 1\1\GINC-LOCALHOST\Freq\RHF\6-31G(d)\O2\USER\21-Mar-2026\0\\#N Geom=Al
 lCheck Guess=TCheck SCRF=Check GenChk RHF/6-31G(d) Freq\\O2-HF-6-31G(D
 )\\0,1\O,0.8246445603,0.10683761,0.\O,-0.3409455003,0.10683761,0.\\Ver
 sion=ES64L-G16RevC.02\HF=-149.532997\RMSD=4.666e-10\RMSF=5.387e-09\Zer
 oPoint=0.0045514\Thermal=0.0069124\ETot=-149.5260845\HTot=-149.5251404
 \GTot=-149.5473092\Dipole=0.,0.,0.\DipoleDeriv=0.,0.,0.,0.,0.,0.,0.,0.
 ,0.,0.,0.,0.,0.,0.,0.,0.,0.,0.\Polar=11.8771997,0.,3.7057592,0.,0.,4.3
 059016\PolarDeriv=12.5528432,0.,0.1433716,0.,0.,0.5716742,0.,3.7098296
 ,0.,0.,0.,0.,0.,0.,0.,3.4373646,0.,0.,-12.5528432,0.,-0.1433716,0.,0.,
 -0.5716742,0.,-3.7098296,0.,0.,0.,0.,0.,0.,0.,-3.4373646,0.,0.\HyperPo
 lar=0.,0.,0.,0.,0.,0.,0.,0.,0.,0.\Quadrupole=-0.2738513,-0.4746765,0.7
 485278,0.,0.,0.\PG=D*H [C*(O1.O1)]\NImag=0\\1.20797313,0.,0.,0.,0.,0.,
 -1.20797313,0.,0.,1.20797313,0.,0.,0.,0.,0.,0.,0.,0.,0.,0.,0.\\0.,0.,0
 .,0.,0.,0.\\\@
 The archive entry for this job was punched.


 ERROR IS THE FORCE THAT WELDS MEN TOGETHER....
 TRUTH IS COMMUNICATED TO MEN ONLY BY DEEDS OF TRUTH.
           TOLSTOI,MY RELIGION
 Job cpu time:       0 days  0 hours  0 minutes 32.7 seconds.
 Elapsed time:       0 days  0 hours  0 minutes  2.1 seconds.
 File lengths (MBytes):  RWF=      6 Int=      0 D2E=      0 Chk=      1 Scr=      1
 Normal termination of Gaussian 16 at Sat Mar 21 10:16:44 2026.
