 Entering Gaussian System, Link 0=g16
 Input=O2-HF-STO-3G.gjf
 Output=O2-HF-STO-3G.log
 Initial command:
 /home/user/gaussian16_I/g16/l1.exe "/home/user/gaussian16_I/temp/Gau-3558440.inp" -scrdir="/home/user/gaussian16_I/temp/"
 Entering Link 1 = /home/user/gaussian16_I/g16/l1.exe PID=   3558441.
  
 Copyright (c) 1988-2021, Gaussian, Inc.  All Rights Reserved.
  
 This is part of the Gaussian(R) 16 program.  It is based on
 the Gaussian(R) 09 system (copyright 2009, Gaussian, Inc.),
 the Gaussian(R) 03 system (copyright 2003, Gaussian, Inc.),
 the Gaussian(R) 98 system (copyright 1998, Gaussian, Inc.),
 the Gaussian(R) 94 system (copyright 1995, Gaussian, Inc.),
 the Gaussian 92(TM) system (copyright 1992, Gaussian, Inc.),
 the Gaussian 90(TM) system (copyright 1990, Gaussian, Inc.),
 the Gaussian 88(TM) system (copyright 1988, Gaussian, Inc.),
 the Gaussian 86(TM) system (copyright 1986, Carnegie Mellon
 University), and the Gaussian 82(TM) system (copyright 1983,
 Carnegie Mellon University). Gaussian is a federally registered
 trademark of Gaussian, Inc.
  
 This software contains proprietary and confidential information,
 including trade secrets, belonging to Gaussian, Inc.
  
 This software is provided under written license and may be
 used, copied, transmitted, or stored only in accord with that
 written license.
  
 The following legend is applicable only to US Government
 contracts under FAR:
  
                    RESTRICTED RIGHTS LEGEND
  
 Use, reproduction and disclosure by the US Government is
 subject to restrictions as set forth in subparagraphs (a)
 and (c) of the Commercial Computer Software - Restricted
 Rights clause in FAR 52.227-19.
  
 Gaussian, Inc.
 340 Quinnipiac St., Bldg. 40, Wallingford CT 06492
  
  
 ---------------------------------------------------------------
 Warning -- This program may not be used in any manner that
 competes with the business of Gaussian, Inc. or will provide
 assistance to any competitor of Gaussian, Inc.  The licensee
 of this program is prohibited from giving any competitor of
 Gaussian, Inc. access to this program.  By using this program,
 the user acknowledges that Gaussian, Inc. is engaged in the
 business of creating and licensing software in the field of
 computational chemistry and represents and warrants to the
 licensee that it is not a competitor of Gaussian, Inc. and that
 it will not use this program in any manner prohibited above.
 ---------------------------------------------------------------
  

 Cite this work as:
 Gaussian 16, Revision C.02,
 M. J. Frisch, G. W. Trucks, H. B. Schlegel, G. E. Scuseria, 
 M. A. Robb, J. R. Cheeseman, G. Scalmani, V. Barone, 
 G. A. Petersson, H. Nakatsuji, X. Li, M. Caricato, A. V. Marenich, 
 J. Bloino, B. G. Janesko, R. Gomperts, B. Mennucci, H. P. Hratchian, 
 J. V. Ortiz, A. F. Izmaylov, J. L. Sonnenberg, D. Williams-Young, 
 F. Ding, F. Lipparini, F. Egidi, J. Goings, B. Peng, A. Petrone, 
 T. Henderson, D. Ranasinghe, V. G. Zakrzewski, J. Gao, N. Rega, 
 G. Zheng, W. Liang, M. Hada, M. Ehara, K. Toyota, R. Fukuda, 
 J. Hasegawa, M. Ishida, T. Nakajima, Y. Honda, O. Kitao, H. Nakai, 
 T. Vreven, K. Throssell, J. A. Montgomery, Jr., J. E. Peralta, 
 F. Ogliaro, M. J. Bearpark, J. J. Heyd, E. N. Brothers, K. N. Kudin, 
 V. N. Staroverov, T. A. Keith, R. Kobayashi, J. Normand, 
 K. Raghavachari, A. P. Rendell, J. C. Burant, S. S. Iyengar, 
 J. Tomasi, M. Cossi, J. M. Millam, M. Klene, C. Adamo, R. Cammi, 
 J. W. Ochterski, R. L. Martin, K. Morokuma, O. Farkas, 
 J. B. Foresman, and D. J. Fox, Gaussian, Inc., Wallingford CT, 2019.
 
 ******************************************
 Gaussian 16:  ES64L-G16RevC.02  7-Dec-2021
                21-Mar-2026 
 ******************************************
 %mem=10GB
 %CPU=0-23
 SetSPE:  set environment variable "OMP_PROC_BIND" = "true"
 SetSPE:  set environment variable "OMP_PLACES" = "{0},{1},{2},{3},{4},{5},{6},{7},{8},{9},{10},{11},{12},{13},{14},{15},{16},{17},{18},{19},{20},{21},{22},{23}"
 Will use up to   24 processors via shared memory.
 %chk=O2-HF-STO-3G.chk
 ----------------------------------------------
 # opt freq hf/sto-3g pop=nbo geom=connectivity
 ----------------------------------------------
 1/18=20,19=15,38=1,57=2/1,3;
 2/9=110,12=2,17=6,18=5,40=1/2;
 3/6=3,11=9,25=1,30=1,71=1/1,2,3;
 4//1;
 5/5=2,38=5/2;
 6/7=2,8=2,9=2,10=2,28=1,40=1/1,7;
 7//1,2,3,16;
 1/18=20,19=15/3(2);
 2/9=110/2;
 99//99;
 2/9=110/2;
 3/6=3,11=9,25=1,30=1,71=1/1,2,3;
 4/5=5,16=3,69=1/1;
 5/5=2,38=5/2;
 7//1,2,3,16;
 1/18=20,19=15/3(-5);
 2/9=110/2;
 6/7=2,8=2,9=2,10=2,19=2,28=1,40=1/1,7;
 99/9=1/99;
 ------------
 O2-HF-STO-3G
 ------------
 Symbolic Z-matrix:
 Charge =  0 Multiplicity = 1
 O                     0.82265   0.10684   0. 
 O                    -0.33895   0.10684   0. 
 

 GradGradGradGradGradGradGradGradGradGradGradGradGradGradGradGradGradGrad
 Berny optimization.
 Initialization pass.
                           ----------------------------
                           !    Initial Parameters    !
                           ! (Angstroms and Degrees)  !
 --------------------------                            --------------------------
 ! Name  Definition              Value          Derivative Info.                !
 --------------------------------------------------------------------------------
 ! R1    R(1,2)                  1.1616         estimate D2E/DX2                !
 --------------------------------------------------------------------------------
 Trust Radius=3.00D-01 FncErr=1.00D-07 GrdErr=1.00D-07 EigMax=2.50D+02 EigMin=1.00D-04
 Number of steps in this run=     20 maximum allowed number of steps=    100.
 GradGradGradGradGradGradGradGradGradGradGradGradGradGradGradGradGradGrad

                          Input orientation:                          
 ---------------------------------------------------------------------
 Center     Atomic      Atomic             Coordinates (Angstroms)
 Number     Number       Type             X           Y           Z
 ---------------------------------------------------------------------
      1          8           0        0.822650    0.106838    0.000000
      2          8           0       -0.338950    0.106838    0.000000
 ---------------------------------------------------------------------
 Stoichiometry    O2
 Framework group  D*H[C*(O.O)]
 Deg. of freedom     1
 Full point group                 D*H     NOp   8
 Largest Abelian subgroup         D2H     NOp   8
 Largest concise Abelian subgroup C2      NOp   2
                         Standard orientation:                         
 ---------------------------------------------------------------------
 Center     Atomic      Atomic             Coordinates (Angstroms)
 Number     Number       Type             X           Y           Z
 ---------------------------------------------------------------------
      1          8           0        0.000000    0.000000    0.580800
      2          8           0        0.000000    0.000000   -0.580800
 ---------------------------------------------------------------------
 Rotational constants (GHZ):           0.0000000          46.8330090          46.8330090
 Standard basis: STO-3G (5D, 7F)
 There are     3 symmetry adapted cartesian basis functions of AG  symmetry.
 There are     0 symmetry adapted cartesian basis functions of B1G symmetry.
 There are     1 symmetry adapted cartesian basis functions of B2G symmetry.
 There are     1 symmetry adapted cartesian basis functions of B3G symmetry.
 There are     0 symmetry adapted cartesian basis functions of AU  symmetry.
 There are     3 symmetry adapted cartesian basis functions of B1U symmetry.
 There are     1 symmetry adapted cartesian basis functions of B2U symmetry.
 There are     1 symmetry adapted cartesian basis functions of B3U symmetry.
 There are     3 symmetry adapted basis functions of AG  symmetry.
 There are     0 symmetry adapted basis functions of B1G symmetry.
 There are     1 symmetry adapted basis functions of B2G symmetry.
 There are     1 symmetry adapted basis functions of B3G symmetry.
 There are     0 symmetry adapted basis functions of AU  symmetry.
 There are     3 symmetry adapted basis functions of B1U symmetry.
 There are     1 symmetry adapted basis functions of B2U symmetry.
 There are     1 symmetry adapted basis functions of B3U symmetry.
    10 basis functions,    30 primitive gaussians,    10 cartesian basis functions
     8 alpha electrons        8 beta electrons
       nuclear repulsion energy        29.1557691967 Hartrees.
 NAtoms=    2 NActive=    2 NUniq=    1 SFac= 4.00D+00 NAtFMM=   60 NAOKFM=F Big=F
 Integral buffers will be    131072 words long.
 Raffenetti 1 integral format.
 Two-electron integral symmetry is turned on.
 One-electron integrals computed using PRISM.
 NBasis=    10 RedAO= T EigKep=  3.22D-01  NBF=     3     0     1     1     0     3     1     1
 NBsUse=    10 1.00D-06 EigRej= -1.00D+00 NBFU=     3     0     1     1     0     3     1     1
 ExpMin= 3.80D-01 ExpMax= 1.31D+02 ExpMxC= 1.31D+02 IAcc=3 IRadAn=         5 AccDes= 0.00D+00
 Harris functional with IExCor=  205 and IRadAn=       5 diagonalized for initial guess.
 HarFok:  IExCor=  205 AccDes= 0.00D+00 IRadAn=         5 IDoV= 1 UseB2=F ITyADJ=14
 ICtDFT=  3500011 ScaDFX=  1.000000  1.000000  1.000000  1.000000
 FoFCou: FMM=F IPFlag=           0 FMFlag=      100000 FMFlg1=           0
         NFxFlg=           0 DoJE=T BraDBF=F KetDBF=T FulRan=T
         wScrn=  0.000000 ICntrl=       500 IOpCl=  0 I1Cent=   200000004 NGrid=           0
         NMat0=    1 NMatS0=      1 NMatT0=    0 NMatD0=    1 NMtDS0=    0 NMtDT0=    0
 Petite list used in FoFCou.
 Initial guess orbital symmetries:
       Occupied  (SGU) (SGG) (SGG) (SGU) (SGG) (PIU) (PIU) (PIG)
       Virtual   (PIG) (SGU)
 Keep R1 ints in memory in symmetry-blocked form, NReq=4807517.
 Requested convergence on RMS density matrix=1.00D-08 within 128 cycles.
 Requested convergence on MAX density matrix=1.00D-06.
 Requested convergence on             energy=1.00D-06.
 No special actions if energy rises.
 SCF Done:  E(RHF) =  -147.542175519     A.U. after    5 cycles
            NFock=  5  Conv=0.44D-10     -V/T= 2.0102

 **********************************************************************

            Population analysis using the SCF Density.

 **********************************************************************

 Orbital symmetries:
       Occupied  (SGU) (SGG) (SGG) (SGU) (PIU) (SGG) (PIU) (PIG)
       Virtual   (PIG) (SGU)
 Unable to determine electronic state:  partially filled degenerate orbitals.
 Alpha  occ. eigenvalues --  -20.43623 -20.43573  -1.60279  -0.98164  -0.66849
 Alpha  occ. eigenvalues --   -0.59832  -0.55090  -0.31791
 Alpha virt. eigenvalues --    0.20700   0.81680
          Condensed to atoms (all electrons):
               1          2
     1  O    7.749650   0.250350
     2  O    0.250350   7.749650
 Mulliken charges:
               1
     1  O   -0.000000
     2  O   -0.000000
 Sum of Mulliken charges =  -0.00000
 Mulliken charges with hydrogens summed into heavy atoms:
               1
     1  O   -0.000000
     2  O   -0.000000
 Electronic spatial extent (au):  <R**2>=             39.1394
 Charge=             -0.0000 electrons
 Dipole moment (field-independent basis, Debye):
    X=             -0.0000    Y=             -0.0000    Z=             -0.0000  Tot=              0.0000
 Quadrupole moment (field-independent basis, Debye-Ang):
   XX=             -7.7235   YY=             -9.1837   ZZ=             -9.8126
   XY=              0.0000   XZ=              0.0000   YZ=              0.0000
 Traceless Quadrupole moment (field-independent basis, Debye-Ang):
   XX=              1.1831   YY=             -0.2771   ZZ=             -0.9060
   XY=              0.0000   XZ=              0.0000   YZ=              0.0000
 Octapole moment (field-independent basis, Debye-Ang**2):
  XXX=             -0.0000  YYY=             -0.0000  ZZZ=              0.0000  XYY=             -0.0000
  XXY=             -0.0000  XXZ=              0.0000  XZZ=             -0.0000  YZZ=              0.0000
  YYZ=              0.0000  XYZ=              0.0000
 Hexadecapole moment (field-independent basis, Debye-Ang**3):
 XXXX=             -3.5001 YYYY=             -4.3950 ZZZZ=            -22.1650 XXXY=              0.0000
 XXXZ=              0.0000 YYYX=              0.0000 YYYZ=              0.0000 ZZZX=              0.0000
 ZZZY=              0.0000 XXYY=             -1.3159 XXZZ=             -3.9339 YYZZ=             -4.7176
 XXYZ=              0.0000 YYXZ=              0.0000 ZZXY=             -0.0000
 N-N= 2.915576919669D+01 E-N=-4.082679477095D+02  KE= 1.460560627277D+02
 Symmetry AG   KE= 6.753854076744D+01
 Symmetry B1G  KE= 0.000000000000D+00
 Symmetry B2G  KE= 1.093499321052D-33
 Symmetry B3G  KE= 5.907310158166D+00
 Symmetry AU   KE= 0.000000000000D+00
 Symmetry B1U  KE= 6.369901868174D+01
 Symmetry B2U  KE= 4.455596560182D+00
 Symmetry B3U  KE= 4.455596560182D+00
 ******************************Gaussian NBO Version 3.1******************************
             N A T U R A L   A T O M I C   O R B I T A L   A N D
          N A T U R A L   B O N D   O R B I T A L   A N A L Y S I S
 ******************************Gaussian NBO Version 3.1******************************
       /RESON  / : Allow strongly delocalized NBO set

 Analyzing the SCF density

 Job title: O2-HF-STO-3G                                                    

 Storage needed:       370 in NPA,       439 in NBO (1342177252 available)


 NATURAL POPULATIONS:  Natural atomic orbital occupancies 
                                                          
   NAO  Atom  No  lang   Type(AO)    Occupancy      Energy
 ----------------------------------------------------------
     1    O    1  S      Cor( 1S)     2.00000     -20.34186
     2    O    1  S      Val( 2S)     1.84300      -1.15646
     3    O    1  px     Val( 2p)     1.00000      -0.17195
     4    O    1  py     Val( 2p)     2.00000      -0.49320
     5    O    1  pz     Val( 2p)     1.15700      -0.12063
 
     6    O    2  S      Cor( 1S)     2.00000     -20.34186
     7    O    2  S      Val( 2S)     1.84300      -1.15646
     8    O    2  px     Val( 2p)     1.00000      -0.17195
     9    O    2  py     Val( 2p)     2.00000      -0.49320
    10    O    2  pz     Val( 2p)     1.15700      -0.12063


 Summary of Natural Population Analysis:                  
                                                          
                                       Natural Population 
                Natural  -----------------------------------------------
    Atom  No    Charge         Core      Valence    Rydberg      Total
 -----------------------------------------------------------------------
      O    1   -0.00000      2.00000     6.00000    0.00000     8.00000
      O    2   -0.00000      2.00000     6.00000    0.00000     8.00000
 =======================================================================
   * Total *   -0.00000      4.00000    12.00000    0.00000    16.00000

                                 Natural Population      
 --------------------------------------------------------
   Core                       4.00000 (100.0000% of   4)
   Valence                   12.00000 (100.0000% of  12)
   Natural Minimal Basis     16.00000 (100.0000% of  16)
   Natural Rydberg Basis      0.00000 (  0.0000% of  16)
 --------------------------------------------------------

    Atom  No          Natural Electron Configuration
 ----------------------------------------------------------------------------
      O    1      [core]2S( 1.84)2p( 4.16)
      O    2      [core]2S( 1.84)2p( 4.16)


 NATURAL BOND ORBITAL ANALYSIS:

                       Occupancies       Lewis Structure    Low   High
           Occ.    -------------------  -----------------   occ   occ
  Cycle   Thresh.   Lewis   Non-Lewis     CR  BD  3C  LP    (L)   (NL)   Dev
 =============================================================================
   1(1)    1.90    16.00000   0.00000      2   2   0   4     0      0    0.00
 -----------------------------------------------------------------------------

 Structure accepted: No low occupancy Lewis orbitals

 --------------------------------------------------------
   Core                      4.00000 (100.000% of   4)
   Valence Lewis            12.00000 (100.000% of  12)
  ==================       ============================
   Total Lewis              16.00000 (100.000% of  16)
  -----------------------------------------------------
   Valence non-Lewis         0.00000 (  0.000% of  16)
   Rydberg non-Lewis         0.00000 (  0.000% of  16)
  ==================       ============================
   Total non-Lewis           0.00000 (  0.000% of  16)
 --------------------------------------------------------


       (Occupancy)   Bond orbital/ Coefficients/ Hybrids
 ---------------------------------------------------------------------------------
     1. (2.00000) BD ( 1) O   1 - O   2  
                ( 50.00%)   0.7071* O   1 s( 15.70%)p 5.37( 84.30%)
                                            0.0000 -0.3962  0.0000  0.0000  0.9182
                ( 50.00%)   0.7071* O   2 s( 15.70%)p 5.37( 84.30%)
                                            0.0000 -0.3962  0.0000  0.0000 -0.9182
     2. (2.00000) BD ( 2) O   1 - O   2  
                ( 50.00%)   0.7071* O   1 s(  0.00%)p 1.00(100.00%)
                                            0.0000  0.0000  1.0000  0.0000  0.0000
                ( 50.00%)   0.7071* O   2 s(  0.00%)p 1.00(100.00%)
                                            0.0000  0.0000  1.0000  0.0000  0.0000
     3. (2.00000) CR ( 1) O   1           s(100.00%)
                                            1.0000  0.0000  0.0000  0.0000  0.0000
     4. (2.00000) CR ( 1) O   2           s(100.00%)
                                            1.0000  0.0000  0.0000  0.0000  0.0000
     5. (2.00000) LP ( 1) O   1           s( 84.30%)p 0.19( 15.70%)
                                            0.0000  0.9182  0.0000  0.0000  0.3962
     6. (2.00000) LP ( 2) O   1           s(  0.00%)p 1.00(100.00%)
                                            0.0000  0.0000  0.0000  1.0000  0.0000
     7. (2.00000) LP ( 1) O   2           s( 84.30%)p 0.19( 15.70%)
                                            0.0000  0.9182  0.0000  0.0000 -0.3962
     8. (2.00000) LP ( 2) O   2           s(  0.00%)p 1.00(100.00%)
                                            0.0000  0.0000  0.0000  1.0000  0.0000
     9. (0.00000) BD*( 1) O   1 - O   2  
                ( 50.00%)   0.7071* O   1 s( 15.70%)p 5.37( 84.30%)
                ( 50.00%)  -0.7071* O   2 s( 15.70%)p 5.37( 84.30%)
    10. (0.00000) BD*( 2) O   1 - O   2  
                ( 50.00%)   0.7071* O   1 s(  0.00%)p 1.00(100.00%)
                ( 50.00%)  -0.7071* O   2 s(  0.00%)p 1.00(100.00%)


 NHO Directionality and "Bond Bending" (deviations from line of nuclear centers)

         [Thresholds for printing:  angular deviation  >  1.0 degree]
                                    hybrid p-character > 25.0%
                                    orbital occupancy  >  0.10e

                                Line of Centers        Hybrid 1              Hybrid 2
                                ---------------  -------------------   ------------------
                NBO               Theta   Phi    Theta   Phi    Dev    Theta   Phi    Dev
 ========================================================================================
     2. BD (   2) O   1 - O   2   180.0    0.0    90.0    0.0  90.0     90.0    0.0  90.0
     6. LP (   2) O   1             --     --     90.0   90.0   --       --     --    --
     8. LP (   2) O   2             --     --     90.0   90.0   --       --     --    --


 Second Order Perturbation Theory Analysis of Fock Matrix in NBO Basis

     Threshold for printing:   0.50 kcal/mol
                                                                              E(2)  E(j)-E(i) F(i,j)
         Donor NBO (i)                     Acceptor NBO (j)                 kcal/mol   a.u.    a.u. 
 ===================================================================================================

 within unit  1
       None above threshold


 Natural Bond Orbitals (Summary):

                                                            Principal Delocalizations
           NBO                        Occupancy    Energy   (geminal,vicinal,remote)
 ====================================================================================
 Molecular unit  1  (O2)
     1. BD (   1) O   1 - O   2          2.00000    -1.18088   
     2. BD (   2) O   1 - O   2          2.00000    -0.55090   
     3. CR (   1) O   1                  2.00000   -20.34186   
     4. CR (   1) O   2                  2.00000   -20.34186   
     5. LP (   1) O   1                  2.00000    -1.09505   
     6. LP (   2) O   1                  2.00000    -0.49320   
     7. LP (   1) O   2                  2.00000    -1.09505   
     8. LP (   2) O   2                  2.00000    -0.49320   
     9. BD*(   1) O   1 - O   2          0.00000     0.81680   
    10. BD*(   2) O   1 - O   2          0.00000     0.20700   
       -------------------------------
              Total Lewis   16.00000  (100.0000%)
        Valence non-Lewis    0.00000  (  0.0000%)
        Rydberg non-Lewis    0.00000  (  0.0000%)
       -------------------------------
            Total unit  1   16.00000  (100.0000%)
           Charge unit  1    0.00000
 Calling FoFJK, ICntrl=      2127 FMM=F ISym2X=1 I1Cent= 0 IOpClX= 0 NMat=1 NMatS=1 NMatT=0.
 ***** Axes restored to original set *****
 -------------------------------------------------------------------
 Center     Atomic                   Forces (Hartrees/Bohr)
 Number     Number              X              Y              Z
 -------------------------------------------------------------------
      1        8           0.175777997   -0.000000000   -0.000000000
      2        8          -0.175777997    0.000000000    0.000000000
 -------------------------------------------------------------------
 Cartesian Forces:  Max     0.175777997 RMS     0.101485474

 GradGradGradGradGradGradGradGradGradGradGradGradGradGradGradGradGradGrad
 Berny optimization.
 FormGI is forming the generalized inverse of G from B-inverse, IUseBI=4.
 Internal  Forces:  Max     0.175777997 RMS     0.175777997
 Search for a local minimum.
 Step number   1 out of a maximum of   20
 All quantities printed in internal units (Hartrees-Bohrs-Radians)
 Mixed Optimization -- RFO/linear search
 Second derivative matrix not updated -- first step.
 The second derivative matrix:
                          R1
           R1           1.26752
 ITU=  0
     Eigenvalues ---    1.26752
 RFO step:  Lambda=-2.39250054D-02 EMin= 1.26752315D+00
 Linear search not attempted -- first point.
 Iteration  1 RMS(Cart)=  0.09624375 RMS(Int)=  0.00000000
 Iteration  2 RMS(Cart)=  0.00000000 RMS(Int)=  0.00000000
 ClnCor:  largest displacement from symmetrization is 4.17D-18 for atom     1.
 Variable       Old X    -DE/DX   Delta X   Delta X   Delta X     New X
                                 (Linear)    (Quad)   (Total)
    R1        2.19511   0.17578   0.00000   0.13611   0.13611   2.33122
         Item               Value     Threshold  Converged?
 Maximum Force            0.175778     0.000450     NO 
 RMS     Force            0.175778     0.000300     NO 
 Maximum Displacement     0.068055     0.001800     NO 
 RMS     Displacement     0.096244     0.001200     NO 
 Predicted change in Energy=-1.218412D-02
 GradGradGradGradGradGradGradGradGradGradGradGradGradGradGradGradGradGrad

                          Input orientation:                          
 ---------------------------------------------------------------------
 Center     Atomic      Atomic             Coordinates (Angstroms)
 Number     Number       Type             X           Y           Z
 ---------------------------------------------------------------------
      1          8           0        0.858662    0.106838    0.000000
      2          8           0       -0.374963    0.106838   -0.000000
 ---------------------------------------------------------------------
 Stoichiometry    O2
 Framework group  D*H[C*(O.O)]
 Deg. of freedom     1
 Full point group                 D*H     NOp   8
 Largest Abelian subgroup         D2H     NOp   8
 Largest concise Abelian subgroup C2      NOp   2
                         Standard orientation:                         
 ---------------------------------------------------------------------
 Center     Atomic      Atomic             Coordinates (Angstroms)
 Number     Number       Type             X           Y           Z
 ---------------------------------------------------------------------
      1          8           0        0.000000    0.000000    0.616813
      2          8           0        0.000000    0.000000   -0.616813
 ---------------------------------------------------------------------
 Rotational constants (GHZ):           0.0000000          41.5239170          41.5239170
 Standard basis: STO-3G (5D, 7F)
 There are     3 symmetry adapted cartesian basis functions of AG  symmetry.
 There are     0 symmetry adapted cartesian basis functions of B1G symmetry.
 There are     1 symmetry adapted cartesian basis functions of B2G symmetry.
 There are     1 symmetry adapted cartesian basis functions of B3G symmetry.
 There are     0 symmetry adapted cartesian basis functions of AU  symmetry.
 There are     3 symmetry adapted cartesian basis functions of B1U symmetry.
 There are     1 symmetry adapted cartesian basis functions of B2U symmetry.
 There are     1 symmetry adapted cartesian basis functions of B3U symmetry.
 There are     3 symmetry adapted basis functions of AG  symmetry.
 There are     0 symmetry adapted basis functions of B1G symmetry.
 There are     1 symmetry adapted basis functions of B2G symmetry.
 There are     1 symmetry adapted basis functions of B3G symmetry.
 There are     0 symmetry adapted basis functions of AU  symmetry.
 There are     3 symmetry adapted basis functions of B1U symmetry.
 There are     1 symmetry adapted basis functions of B2U symmetry.
 There are     1 symmetry adapted basis functions of B3U symmetry.
    10 basis functions,    30 primitive gaussians,    10 cartesian basis functions
     8 alpha electrons        8 beta electrons
       nuclear repulsion energy        27.4534943056 Hartrees.
 NAtoms=    2 NActive=    2 NUniq=    1 SFac= 4.00D+00 NAtFMM=   60 NAOKFM=F Big=F
 Integral buffers will be    131072 words long.
 Raffenetti 1 integral format.
 Two-electron integral symmetry is turned on.
 One-electron integrals computed using PRISM.
 NBasis=    10 RedAO= T EigKep=  3.80D-01  NBF=     3     0     1     1     0     3     1     1
 NBsUse=    10 1.00D-06 EigRej= -1.00D+00 NBFU=     3     0     1     1     0     3     1     1
 Initial guess from the checkpoint file:  "O2-HF-STO-3G.chk"
 B after Tr=     0.000000   -0.000000    0.000000
         Rot=    1.000000    0.000000   -0.000000    0.000000 Ang=   0.00 deg.
 Initial guess orbital symmetries:
       Occupied  (SGU) (SGG) (SGG) (SGU) (PIU) (SGG) (PIU) (PIG)
       Virtual   (PIG) (SGU)
 ExpMin= 3.80D-01 ExpMax= 1.31D+02 ExpMxC= 1.31D+02 IAcc=3 IRadAn=         5 AccDes= 0.00D+00
 Harris functional with IExCor=  205 and IRadAn=       5 diagonalized for initial guess.
 HarFok:  IExCor=  205 AccDes= 0.00D+00 IRadAn=         5 IDoV= 1 UseB2=F ITyADJ=14
 ICtDFT=  3500011 ScaDFX=  1.000000  1.000000  1.000000  1.000000
 FoFCou: FMM=F IPFlag=           0 FMFlag=      100000 FMFlg1=           0
         NFxFlg=           0 DoJE=T BraDBF=F KetDBF=T FulRan=T
         wScrn=  0.000000 ICntrl=       500 IOpCl=  0 I1Cent=   200000004 NGrid=           0
         NMat0=    1 NMatS0=      1 NMatT0=    0 NMatD0=    1 NMtDS0=    0 NMtDT0=    0
 Petite list used in FoFCou.
 Keep R1 ints in memory in symmetry-blocked form, NReq=4807517.
 Requested convergence on RMS density matrix=1.00D-08 within 128 cycles.
 Requested convergence on MAX density matrix=1.00D-06.
 Requested convergence on             energy=1.00D-06.
 No special actions if energy rises.
 SCF Done:  E(RHF) =  -147.551251156     A.U. after    6 cycles
            NFock=  6  Conv=0.13D-12     -V/T= 2.0108
 Calling FoFJK, ICntrl=      2127 FMM=F ISym2X=1 I1Cent= 0 IOpClX= 0 NMat=1 NMatS=1 NMatT=0.
 ***** Axes restored to original set *****
 -------------------------------------------------------------------
 Center     Atomic                   Forces (Hartrees/Bohr)
 Number     Number              X              Y              Z
 -------------------------------------------------------------------
      1        8          -0.028112649   -0.000000000   -0.000000000
      2        8           0.028112649    0.000000000    0.000000000
 -------------------------------------------------------------------
 Cartesian Forces:  Max     0.028112649 RMS     0.016230845

 GradGradGradGradGradGradGradGradGradGradGradGradGradGradGradGradGradGrad
 Berny optimization.
 Using GEDIIS/GDIIS optimizer.
 Internal  Forces:  Max     0.028112649 RMS     0.028112649
 Search for a local minimum.
 Step number   2 out of a maximum of   20
 All quantities printed in internal units (Hartrees-Bohrs-Radians)
 Mixed Optimization -- RFO/linear search
 Update second derivatives using D2CorX and points    1    2
 DE= -9.08D-03 DEPred=-1.22D-02 R= 7.45D-01
 TightC=F SS=  1.41D+00  RLast= 1.36D-01 DXNew= 5.0454D-01 4.0833D-01
 Trust test= 7.45D-01 RLast= 1.36D-01 DXMaxT set to 4.08D-01
 The second derivative matrix:
                          R1
           R1           1.49799
 ITU=  1  0
 Use linear search instead of GDIIS.
     Eigenvalues ---    1.49799
 RFO step:  Lambda= 0.00000000D+00 EMin= 1.49799294D+00
 Quartic linear search produced a step of -0.16639.
 Iteration  1 RMS(Cart)=  0.01601444 RMS(Int)=  0.00000000
 Iteration  2 RMS(Cart)=  0.00000000 RMS(Int)=  0.00000000
 ClnCor:  largest displacement from symmetrization is 6.93D-19 for atom     1.
 Variable       Old X    -DE/DX   Delta X   Delta X   Delta X     New X
                                 (Linear)    (Quad)   (Total)
    R1        2.33122  -0.02811  -0.02265   0.00000  -0.02265   2.30857
         Item               Value     Threshold  Converged?
 Maximum Force            0.028113     0.000450     NO 
 RMS     Force            0.028113     0.000300     NO 
 Maximum Displacement     0.011324     0.001800     NO 
 RMS     Displacement     0.016014     0.001200     NO 
 Predicted change in Energy=-2.525120D-04
 GradGradGradGradGradGradGradGradGradGradGradGradGradGradGradGradGradGrad

                          Input orientation:                          
 ---------------------------------------------------------------------
 Center     Atomic      Atomic             Coordinates (Angstroms)
 Number     Number       Type             X           Y           Z
 ---------------------------------------------------------------------
      1          8           0        0.852670    0.106838    0.000000
      2          8           0       -0.368971    0.106838   -0.000000
 ---------------------------------------------------------------------
 Stoichiometry    O2
 Framework group  D*H[C*(O.O)]
 Deg. of freedom     1
 Full point group                 D*H     NOp   8
 Largest Abelian subgroup         D2H     NOp   8
 Largest concise Abelian subgroup C2      NOp   2
                         Standard orientation:                         
 ---------------------------------------------------------------------
 Center     Atomic      Atomic             Coordinates (Angstroms)
 Number     Number       Type             X           Y           Z
 ---------------------------------------------------------------------
      1          8           0        0.000000   -0.000000    0.610821
      2          8           0        0.000000    0.000000   -0.610821
 ---------------------------------------------------------------------
 Rotational constants (GHZ):           0.0000000          42.3426412          42.3426412
 Standard basis: STO-3G (5D, 7F)
 There are     3 symmetry adapted cartesian basis functions of AG  symmetry.
 There are     0 symmetry adapted cartesian basis functions of B1G symmetry.
 There are     1 symmetry adapted cartesian basis functions of B2G symmetry.
 There are     1 symmetry adapted cartesian basis functions of B3G symmetry.
 There are     0 symmetry adapted cartesian basis functions of AU  symmetry.
 There are     3 symmetry adapted cartesian basis functions of B1U symmetry.
 There are     1 symmetry adapted cartesian basis functions of B2U symmetry.
 There are     1 symmetry adapted cartesian basis functions of B3U symmetry.
 There are     3 symmetry adapted basis functions of AG  symmetry.
 There are     0 symmetry adapted basis functions of B1G symmetry.
 There are     1 symmetry adapted basis functions of B2G symmetry.
 There are     1 symmetry adapted basis functions of B3G symmetry.
 There are     0 symmetry adapted basis functions of AU  symmetry.
 There are     3 symmetry adapted basis functions of B1U symmetry.
 There are     1 symmetry adapted basis functions of B2U symmetry.
 There are     1 symmetry adapted basis functions of B3U symmetry.
    10 basis functions,    30 primitive gaussians,    10 cartesian basis functions
     8 alpha electrons        8 beta electrons
       nuclear repulsion energy        27.7228225230 Hartrees.
 NAtoms=    2 NActive=    2 NUniq=    1 SFac= 4.00D+00 NAtFMM=   60 NAOKFM=F Big=F
 Integral buffers will be    131072 words long.
 Raffenetti 1 integral format.
 Two-electron integral symmetry is turned on.
 One-electron integrals computed using PRISM.
 NBasis=    10 RedAO= T EigKep=  3.70D-01  NBF=     3     0     1     1     0     3     1     1
 NBsUse=    10 1.00D-06 EigRej= -1.00D+00 NBFU=     3     0     1     1     0     3     1     1
 Initial guess from the checkpoint file:  "O2-HF-STO-3G.chk"
 B after Tr=    -0.000000    0.000000   -0.000000
         Rot=    1.000000   -0.000000    0.000000    0.000000 Ang=   0.00 deg.
 Initial guess orbital symmetries:
       Occupied  (SGU) (SGG) (SGG) (SGU) (PIU) (SGG) (PIU) (PIG)
       Virtual   (PIG) (SGU)
 Keep R1 ints in memory in symmetry-blocked form, NReq=4807517.
 Requested convergence on RMS density matrix=1.00D-08 within 128 cycles.
 Requested convergence on MAX density matrix=1.00D-06.
 Requested convergence on             energy=1.00D-06.
 No special actions if energy rises.
 SCF Done:  E(RHF) =  -147.551571707     A.U. after    4 cycles
            NFock=  4  Conv=0.81D-09     -V/T= 2.0108
 Calling FoFJK, ICntrl=      2127 FMM=F ISym2X=1 I1Cent= 0 IOpClX= 0 NMat=1 NMatS=1 NMatT=0.
 ***** Axes restored to original set *****
 -------------------------------------------------------------------
 Center     Atomic                   Forces (Hartrees/Bohr)
 Number     Number              X              Y              Z
 -------------------------------------------------------------------
      1        8           0.000135840   -0.000000000   -0.000000000
      2        8          -0.000135840    0.000000000    0.000000000
 -------------------------------------------------------------------
 Cartesian Forces:  Max     0.000135840 RMS     0.000078427

 GradGradGradGradGradGradGradGradGradGradGradGradGradGradGradGradGradGrad
 Berny optimization.
 Using GEDIIS/GDIIS optimizer.
 Internal  Forces:  Max     0.000135840 RMS     0.000135840
 Search for a local minimum.
 Step number   3 out of a maximum of   20
 All quantities printed in internal units (Hartrees-Bohrs-Radians)
 Mixed Optimization -- En-DIIS/RFO-DIIS
 Update second derivatives using D2CorX and points    2    3
 DE= -3.21D-04 DEPred=-2.53D-04 R= 1.27D+00
 TightC=F SS=  1.41D+00  RLast= 2.26D-02 DXNew= 6.8672D-01 6.7944D-02
 Trust test= 1.27D+00 RLast= 2.26D-02 DXMaxT set to 4.08D-01
 The second derivative matrix:
                          R1
           R1           1.24729
 ITU=  1  1
 Use linear search instead of GDIIS.
     Eigenvalues ---    1.24729
 RFO step:  Lambda= 0.00000000D+00 EMin= 1.24729295D+00
 Quartic linear search produced a step of -0.00465.
 Iteration  1 RMS(Cart)=  0.00007439 RMS(Int)=  0.00000000
 Iteration  2 RMS(Cart)=  0.00000000 RMS(Int)=  0.00000000
 ClnCor:  largest displacement from symmetrization is 3.22D-21 for atom     2.
 Variable       Old X    -DE/DX   Delta X   Delta X   Delta X     New X
                                 (Linear)    (Quad)   (Total)
    R1        2.30857   0.00014   0.00011   0.00000   0.00011   2.30867
         Item               Value     Threshold  Converged?
 Maximum Force            0.000136     0.000450     YES
 RMS     Force            0.000136     0.000300     YES
 Maximum Displacement     0.000053     0.001800     YES
 RMS     Displacement     0.000074     0.001200     YES
 Predicted change in Energy=-7.388499D-09
 Optimization completed.
    -- Stationary point found.
                           ----------------------------
                           !   Optimized Parameters   !
                           ! (Angstroms and Degrees)  !
 --------------------------                            --------------------------
 ! Name  Definition              Value          Derivative Info.                !
 --------------------------------------------------------------------------------
 ! R1    R(1,2)                  1.2216         -DE/DX =    0.0001              !
 --------------------------------------------------------------------------------
 GradGradGradGradGradGradGradGradGradGradGradGradGradGradGradGradGradGrad

                          Input orientation:                          
 ---------------------------------------------------------------------
 Center     Atomic      Atomic             Coordinates (Angstroms)
 Number     Number       Type             X           Y           Z
 ---------------------------------------------------------------------
      1          8           0        0.852670    0.106838    0.000000
      2          8           0       -0.368971    0.106838   -0.000000
 ---------------------------------------------------------------------
 Stoichiometry    O2
 Framework group  D*H[C*(O.O)]
 Deg. of freedom     1
 Full point group                 D*H     NOp   8
 Largest Abelian subgroup         D2H     NOp   8
 Largest concise Abelian subgroup C2      NOp   2
                         Standard orientation:                         
 ---------------------------------------------------------------------
 Center     Atomic      Atomic             Coordinates (Angstroms)
 Number     Number       Type             X           Y           Z
 ---------------------------------------------------------------------
      1          8           0        0.000000    0.000000    0.610821
      2          8           0        0.000000   -0.000000   -0.610821
 ---------------------------------------------------------------------
 Rotational constants (GHZ):           0.0000000          42.3426412          42.3426412

 **********************************************************************

            Population analysis using the SCF Density.

 **********************************************************************

 Orbital symmetries:
       Occupied  (SGU) (SGG) (SGG) (SGU) (PIU) (SGG) (PIU) (PIG)
       Virtual   (PIG) (SGU)
 Unable to determine electronic state:  partially filled degenerate orbitals.
 Alpha  occ. eigenvalues --  -20.42248 -20.42185  -1.54115  -0.99597  -0.63509
 Alpha  occ. eigenvalues --   -0.57752  -0.50996  -0.33397
 Alpha virt. eigenvalues --    0.18354   0.71120
          Condensed to atoms (all electrons):
               1          2
     1  O    7.751274   0.248726
     2  O    0.248726   7.751274
 Mulliken charges:
               1
     1  O   -0.000000
     2  O   -0.000000
 Sum of Mulliken charges =  -0.00000
 Mulliken charges with hydrogens summed into heavy atoms:
               1
     1  O   -0.000000
     2  O   -0.000000
 Electronic spatial extent (au):  <R**2>=             41.1258
 Charge=             -0.0000 electrons
 Dipole moment (field-independent basis, Debye):
    X=             -0.0000    Y=             -0.0000    Z=             -0.0000  Tot=              0.0000
 Quadrupole moment (field-independent basis, Debye-Ang):
   XX=             -7.7403   YY=             -9.2146   ZZ=             -9.6874
   XY=             -0.0000   XZ=              0.0000   YZ=              0.0000
 Traceless Quadrupole moment (field-independent basis, Debye-Ang):
   XX=              1.1405   YY=             -0.3338   ZZ=             -0.8066
   XY=             -0.0000   XZ=              0.0000   YZ=              0.0000
 Octapole moment (field-independent basis, Debye-Ang**2):
  XXX=             -0.0000  YYY=             -0.0000  ZZZ=              0.0000  XYY=             -0.0000
  XXY=             -0.0000  XXZ=              0.0000  XZZ=             -0.0000  YZZ=             -0.0000
  YYZ=              0.0000  XYZ=              0.0000
 Hexadecapole moment (field-independent basis, Debye-Ang**3):
 XXXX=             -3.5090 YYYY=             -4.4203 ZZZZ=            -23.7807 XXXY=             -0.0000
 XXXZ=              0.0000 YYYX=             -0.0000 YYYZ=              0.0000 ZZZX=              0.0000
 ZZZY=              0.0000 XXYY=             -1.3216 XXZZ=             -4.2002 YYZZ=             -5.0368
 XXYZ=              0.0000 YYXZ=              0.0000 ZZXY=             -0.0000
 N-N= 2.772282252296D+01 E-N=-4.056550152016D+02  KE= 1.459822006550D+02
 Symmetry AG   KE= 6.743196554596D+01
 Symmetry B1G  KE= 0.000000000000D+00
 Symmetry B2G  KE= 9.715495918496D-34
 Symmetry B3G  KE= 5.795010615916D+00
 Symmetry AU   KE= 0.000000000000D+00
 Symmetry B1U  KE= 6.373699209895D+01
 Symmetry B2U  KE= 4.509116197068D+00
 Symmetry B3U  KE= 4.509116197068D+00
 ******************************Gaussian NBO Version 3.1******************************
             N A T U R A L   A T O M I C   O R B I T A L   A N D
          N A T U R A L   B O N D   O R B I T A L   A N A L Y S I S
 ******************************Gaussian NBO Version 3.1******************************
       /RESON  / : Allow strongly delocalized NBO set

 Analyzing the SCF density

 Job title: O2-HF-STO-3G                                                    

 Storage needed:       370 in NPA,       439 in NBO (1342177252 available)


 NATURAL POPULATIONS:  Natural atomic orbital occupancies 
                                                          
   NAO  Atom  No  lang   Type(AO)    Occupancy      Energy
 ----------------------------------------------------------
     1    O    1  S      Cor( 1S)     2.00000     -20.35240
     2    O    1  S      Val( 2S)     1.87226      -1.15899
     3    O    1  px     Val( 2p)     1.00000      -0.16321
     4    O    1  py     Val( 2p)     2.00000      -0.48453
     5    O    1  pz     Val( 2p)     1.12774      -0.11250
 
     6    O    2  S      Cor( 1S)     2.00000     -20.35240
     7    O    2  S      Val( 2S)     1.87226      -1.15899
     8    O    2  px     Val( 2p)     1.00000      -0.16321
     9    O    2  py     Val( 2p)     2.00000      -0.48453
    10    O    2  pz     Val( 2p)     1.12774      -0.11250


 Summary of Natural Population Analysis:                  
                                                          
                                       Natural Population 
                Natural  -----------------------------------------------
    Atom  No    Charge         Core      Valence    Rydberg      Total
 -----------------------------------------------------------------------
      O    1   -0.00000      2.00000     6.00000    0.00000     8.00000
      O    2   -0.00000      2.00000     6.00000    0.00000     8.00000
 =======================================================================
   * Total *   -0.00000      4.00000    12.00000    0.00000    16.00000

                                 Natural Population      
 --------------------------------------------------------
   Core                       4.00000 (100.0000% of   4)
   Valence                   12.00000 (100.0000% of  12)
   Natural Minimal Basis     16.00000 (100.0000% of  16)
   Natural Rydberg Basis      0.00000 (  0.0000% of  16)
 --------------------------------------------------------

    Atom  No          Natural Electron Configuration
 ----------------------------------------------------------------------------
      O    1      [core]2S( 1.87)2p( 4.13)
      O    2      [core]2S( 1.87)2p( 4.13)


 NATURAL BOND ORBITAL ANALYSIS:

                       Occupancies       Lewis Structure    Low   High
           Occ.    -------------------  -----------------   occ   occ
  Cycle   Thresh.   Lewis   Non-Lewis     CR  BD  3C  LP    (L)   (NL)   Dev
 =============================================================================
   1(1)    1.90    16.00000   0.00000      2   2   0   4     0      0    0.00
 -----------------------------------------------------------------------------

 Structure accepted: No low occupancy Lewis orbitals

 --------------------------------------------------------
   Core                      4.00000 (100.000% of   4)
   Valence Lewis            12.00000 (100.000% of  12)
  ==================       ============================
   Total Lewis              16.00000 (100.000% of  16)
  -----------------------------------------------------
   Valence non-Lewis         0.00000 (  0.000% of  16)
   Rydberg non-Lewis         0.00000 (  0.000% of  16)
  ==================       ============================
   Total non-Lewis           0.00000 (  0.000% of  16)
 --------------------------------------------------------


       (Occupancy)   Bond orbital/ Coefficients/ Hybrids
 ---------------------------------------------------------------------------------
     1. (2.00000) BD ( 1) O   1 - O   2  
                ( 50.00%)   0.7071* O   1 s( 12.77%)p 6.83( 87.23%)
                                            0.0000 -0.3574  0.0000  0.0000  0.9339
                ( 50.00%)   0.7071* O   2 s( 12.77%)p 6.83( 87.23%)
                                            0.0000 -0.3574  0.0000  0.0000 -0.9339
     2. (2.00000) BD ( 2) O   1 - O   2  
                ( 50.00%)   0.7071* O   1 s(  0.00%)p 1.00(100.00%)
                                            0.0000  0.0000  1.0000  0.0000  0.0000
                ( 50.00%)   0.7071* O   2 s(  0.00%)p 1.00(100.00%)
                                            0.0000  0.0000  1.0000  0.0000  0.0000
     3. (2.00000) CR ( 1) O   1           s(100.00%)
                                            1.0000  0.0000  0.0000  0.0000  0.0000
     4. (2.00000) CR ( 1) O   2           s(100.00%)
                                            1.0000  0.0000  0.0000  0.0000  0.0000
     5. (2.00000) LP ( 1) O   1           s( 87.23%)p 0.15( 12.77%)
                                            0.0000  0.9339  0.0000  0.0000  0.3574
     6. (2.00000) LP ( 2) O   1           s(  0.00%)p 1.00(100.00%)
                                            0.0000  0.0000  0.0000  1.0000  0.0000
     7. (2.00000) LP ( 1) O   2           s( 87.23%)p 0.15( 12.77%)
                                            0.0000  0.9339  0.0000  0.0000 -0.3574
     8. (2.00000) LP ( 2) O   2           s(  0.00%)p 1.00(100.00%)
                                            0.0000  0.0000  0.0000  1.0000  0.0000
     9. (0.00000) BD*( 1) O   1 - O   2  
                ( 50.00%)   0.7071* O   1 s( 12.77%)p 6.83( 87.23%)
                ( 50.00%)  -0.7071* O   2 s( 12.77%)p 6.83( 87.23%)
    10. (0.00000) BD*( 2) O   1 - O   2  
                ( 50.00%)   0.7071* O   1 s(  0.00%)p 1.00(100.00%)
                ( 50.00%)  -0.7071* O   2 s(  0.00%)p 1.00(100.00%)


 NHO Directionality and "Bond Bending" (deviations from line of nuclear centers)

         [Thresholds for printing:  angular deviation  >  1.0 degree]
                                    hybrid p-character > 25.0%
                                    orbital occupancy  >  0.10e

                                Line of Centers        Hybrid 1              Hybrid 2
                                ---------------  -------------------   ------------------
                NBO               Theta   Phi    Theta   Phi    Dev    Theta   Phi    Dev
 ========================================================================================
     2. BD (   2) O   1 - O   2   180.0    0.0    90.0    0.0  90.0     90.0    0.0  90.0
     6. LP (   2) O   1             --     --     90.0   90.0   --       --     --    --
     8. LP (   2) O   2             --     --     90.0   90.0   --       --     --    --


 Second Order Perturbation Theory Analysis of Fock Matrix in NBO Basis

     Threshold for printing:   0.50 kcal/mol
                                                                              E(2)  E(j)-E(i) F(i,j)
         Donor NBO (i)                     Acceptor NBO (j)                 kcal/mol   a.u.    a.u. 
 ===================================================================================================

 within unit  1
       None above threshold


 Natural Bond Orbitals (Summary):

                                                            Principal Delocalizations
           NBO                        Occupancy    Energy   (geminal,vicinal,remote)
 ====================================================================================
 Molecular unit  1  (O2)
     1. BD (   1) O   1 - O   2          2.00000    -1.04654   
     2. BD (   2) O   1 - O   2          2.00000    -0.50996   
     3. CR (   1) O   1                  2.00000   -20.35240   
     4. CR (   1) O   2                  2.00000   -20.35240   
     5. LP (   1) O   1                  2.00000    -1.10382   
     6. LP (   2) O   1                  2.00000    -0.48453   
     7. LP (   1) O   2                  2.00000    -1.10382   
     8. LP (   2) O   2                  2.00000    -0.48453   
     9. BD*(   1) O   1 - O   2          0.00000     0.71120   
    10. BD*(   2) O   1 - O   2          0.00000     0.18354   
       -------------------------------
              Total Lewis   16.00000  (100.0000%)
        Valence non-Lewis    0.00000  (  0.0000%)
        Rydberg non-Lewis    0.00000  (  0.0000%)
       -------------------------------
            Total unit  1   16.00000  (100.0000%)
           Charge unit  1    0.00000
 Unable to Open any file for archive entry.
 1\1\GINC-LOCALHOST\FOpt\RHF\STO-3G\O2\USER\21-Mar-2026\0\\# opt freq h
 f/sto-3g pop=nbo geom=connectivity\\O2-HF-STO-3G\\0,1\O,0.8526701178,0
 .10683761,0.\O,-0.3689710578,0.10683761,0.\\Version=ES64L-G16RevC.02\H
 F=-147.5515717\RMSD=8.106e-10\RMSF=7.843e-05\Dipole=0.,0.,0.\Quadrupol
 e=-0.5997069,-0.2481989,0.8479057,0.,0.,0.\PG=D*H [C*(O1.O1)]\\@
 The archive entry for this job was punched.


 I WANT IT ALL - RICH, THIN, AND CHOCOLATE.
 Job cpu time:       0 days  0 hours  0 minutes 43.3 seconds.
 Elapsed time:       0 days  0 hours  0 minutes  3.1 seconds.
 File lengths (MBytes):  RWF=      6 Int=      0 D2E=      0 Chk=      1 Scr=      1
 Normal termination of Gaussian 16 at Sat Mar 21 10:16:54 2026.
 Link1:  Proceeding to internal job step number  2.
 ---------------------------------------------------------------
 #N Geom=AllCheck Guess=TCheck SCRF=Check GenChk RHF/STO-3G Freq
 ---------------------------------------------------------------
 1/10=4,29=7,30=1,38=1,40=1/1,3;
 2/12=2,40=1/2;
 3/6=3,11=1,14=-4,25=1,30=1,70=2,71=2,116=1,140=1/1,2,3;
 4/5=101/1;
 5/5=2,38=6,98=1/2;
 8/6=4,10=90,11=11/1;
 10/13=10,15=4/2;
 11/6=3,8=1,9=11,15=111,16=1/1,2,10;
 10/6=1/2;
 6/7=2,8=2,9=2,10=2,28=1,40=1/1,7;
 7/8=1,10=1,25=1/1,2,3,16;
 1/10=4,30=1/3;
 99//99;
 Structure from the checkpoint file:  "O2-HF-STO-3G.chk"
 ------------
 O2-HF-STO-3G
 ------------
 Charge =  0 Multiplicity = 1
 Redundant internal coordinates found in file.  (old form).
 O,0,0.8526701178,0.10683761,0.
 O,0,-0.3689710578,0.10683761,0.
 Recover connectivity data from disk.

 GradGradGradGradGradGradGradGradGradGradGradGradGradGradGradGradGradGrad
 Berny optimization.
 Initialization pass.
                           ----------------------------
                           !    Initial Parameters    !
                           ! (Angstroms and Degrees)  !
 --------------------------                            --------------------------
 ! Name  Definition              Value          Derivative Info.                !
 --------------------------------------------------------------------------------
 ! R1    R(1,2)                  1.2216         calculate D2E/DX2 analytically  !
 --------------------------------------------------------------------------------
 Trust Radius=3.00D-01 FncErr=1.00D-07 GrdErr=1.00D-07 EigMax=2.50D+02 EigMin=1.00D-04
 Number of steps in this run=      2 maximum allowed number of steps=      2.
 GradGradGradGradGradGradGradGradGradGradGradGradGradGradGradGradGradGrad

                          Input orientation:                          
 ---------------------------------------------------------------------
 Center     Atomic      Atomic             Coordinates (Angstroms)
 Number     Number       Type             X           Y           Z
 ---------------------------------------------------------------------
      1          8           0        0.852670    0.106838    0.000000
      2          8           0       -0.368971    0.106838   -0.000000
 ---------------------------------------------------------------------
 Stoichiometry    O2
 Framework group  D*H[C*(O.O)]
 Deg. of freedom     1
 Full point group                 D*H     NOp   8
 Largest Abelian subgroup         D2H     NOp   8
 Largest concise Abelian subgroup C2      NOp   2
                         Standard orientation:                         
 ---------------------------------------------------------------------
 Center     Atomic      Atomic             Coordinates (Angstroms)
 Number     Number       Type             X           Y           Z
 ---------------------------------------------------------------------
      1          8           0        0.000000    0.000000    0.610821
      2          8           0        0.000000    0.000000   -0.610821
 ---------------------------------------------------------------------
 Rotational constants (GHZ):           0.0000000          42.3426412          42.3426412
 Standard basis: STO-3G (5D, 7F)
 There are     3 symmetry adapted cartesian basis functions of AG  symmetry.
 There are     0 symmetry adapted cartesian basis functions of B1G symmetry.
 There are     1 symmetry adapted cartesian basis functions of B2G symmetry.
 There are     1 symmetry adapted cartesian basis functions of B3G symmetry.
 There are     0 symmetry adapted cartesian basis functions of AU  symmetry.
 There are     3 symmetry adapted cartesian basis functions of B1U symmetry.
 There are     1 symmetry adapted cartesian basis functions of B2U symmetry.
 There are     1 symmetry adapted cartesian basis functions of B3U symmetry.
 There are     3 symmetry adapted basis functions of AG  symmetry.
 There are     0 symmetry adapted basis functions of B1G symmetry.
 There are     1 symmetry adapted basis functions of B2G symmetry.
 There are     1 symmetry adapted basis functions of B3G symmetry.
 There are     0 symmetry adapted basis functions of AU  symmetry.
 There are     3 symmetry adapted basis functions of B1U symmetry.
 There are     1 symmetry adapted basis functions of B2U symmetry.
 There are     1 symmetry adapted basis functions of B3U symmetry.
    10 basis functions,    30 primitive gaussians,    10 cartesian basis functions
     8 alpha electrons        8 beta electrons
       nuclear repulsion energy        27.7228225230 Hartrees.
 NAtoms=    2 NActive=    2 NUniq=    1 SFac= 4.00D+00 NAtFMM=   60 NAOKFM=F Big=F
 Integral buffers will be    131072 words long.
 Raffenetti 1 integral format.
 Two-electron integral symmetry is turned on.
 One-electron integrals computed using PRISM.
 NBasis=    10 RedAO= T EigKep=  3.70D-01  NBF=     3     0     1     1     0     3     1     1
 NBsUse=    10 1.00D-06 EigRej= -1.00D+00 NBFU=     3     0     1     1     0     3     1     1
 Initial guess from the checkpoint file:  "O2-HF-STO-3G.chk"
 B after Tr=     0.000000   -0.000000    0.000000
         Rot=    1.000000    0.000000   -0.000000    0.000000 Ang=   0.00 deg.
 Initial guess orbital symmetries:
       Occupied  (SGU) (SGG) (SGG) (SGU) (PIU) (SGG) (PIU) (PIG)
       Virtual   (PIG) (SGU)
 Keep R1 ints in memory in symmetry-blocked form, NReq=4807517.
 Requested convergence on RMS density matrix=1.00D-08 within 128 cycles.
 Requested convergence on MAX density matrix=1.00D-06.
 Requested convergence on             energy=1.00D-06.
 No special actions if energy rises.
 Skip diagonalization as Alpha Fock matrix is already diagonal.
 SCF Done:  E(RHF) =  -147.551571707     A.U. after    1 cycles
            NFock=  1  Conv=0.00D+00     -V/T= 2.0108
 Range of M.O.s used for correlation:     1    10
 NBasis=    10 NAE=     8 NBE=     8 NFC=     0 NFV=     0
 NROrb=     10 NOA=     8 NOB=     8 NVA=     2 NVB=     2
          Differentiating once with respect to electric field.
                with respect to dipole field.
          Electric field/nuclear overlap derivatives assumed to be zero.
 Keep R1 ints in memory in symmetry-blocked form, NReq=4807809.
          There are     3 degrees of freedom in the 1st order CPHF.  IDoFFX=0 NUNeed=     3.
      3 vectors produced by pass  0 Test12= 5.33D-16 3.33D-08 XBig12= 3.47D+00 1.68D+00.
 AX will form     3 AO Fock derivatives at one time.
      2 vectors produced by pass  1 Test12= 5.33D-16 3.33D-08 XBig12= 9.16D-02 2.17D-01.
      1 vectors produced by pass  2 Test12= 5.33D-16 3.33D-08 XBig12= 5.30D-03 5.05D-02.
      1 vectors produced by pass  3 Test12= 5.33D-16 3.33D-08 XBig12= 3.24D-09 5.69D-05.
 InvSVY:  IOpt=1 It=  1 EMax= 4.86D-17
 Solved reduced A of dimension     7 with     3 vectors.
 End of Minotr F.D. properties file   721 does not exist.
 End of Minotr F.D. properties file   722 does not exist.
 End of Minotr F.D. properties file   788 does not exist.
 Symmetrizing basis deriv contribution to polar:
 IMax=3 JMax=2 DiffMx= 0.00D+00
 G2DrvN: will do     3 centers at a time, making    1 passes.
 PxScal for G2LodP:  IOpCl= 0 ISclPx=1 IMOff=     1 NMtTot=     4 NTT=      55 ScalPx= 1.40D+00
 Calling FoFCou, ICntrl=  3107 FMM=F I1Cent=   0 AccDes= 0.00D+00.
 End of G2Drv F.D. properties file   721 does not exist.
 End of G2Drv F.D. properties file   722 does not exist.
 End of G2Drv F.D. properties file   788 does not exist.
          IDoAtm=11
          Differentiating once with respect to electric field.
                with respect to dipole field.
          Differentiating once with respect to nuclear coordinates.
 Keep R1 ints in memory in symmetry-blocked form, NReq=4807855.
          There are     6 degrees of freedom in the 1st order CPHF.  IDoFFX=4 NUNeed=     6.
 Will reuse    3 saved solutions.
      3 vectors produced by pass  0 Test12= 2.67D-16 1.67D-08 XBig12= 6.66D-02 1.92D-01.
 AX will form     3 AO Fock derivatives at one time.
      2 vectors produced by pass  1 Test12= 2.67D-16 1.67D-08 XBig12= 2.13D-04 1.11D-02.
      1 vectors produced by pass  2 Test12= 2.67D-16 1.67D-08 XBig12= 3.36D-07 4.16D-04.
      1 vectors produced by pass  3 Test12= 2.67D-16 1.67D-08 XBig12= 4.59D-09 4.97D-05.
 InvSVY:  IOpt=1 It=  1 EMax= 1.39D-17
 Solved reduced A of dimension     7 with     3 vectors.
 Isotropic polarizability for W=    0.000000        3.00 Bohr**3.
 End of Minotr F.D. properties file   721 does not exist.
 End of Minotr F.D. properties file   722 does not exist.
 End of Minotr F.D. properties file   788 does not exist.

 **********************************************************************

            Population analysis using the SCF Density.

 **********************************************************************

 Orbital symmetries:
       Occupied  (SGU) (SGG) (SGG) (SGU) (PIU) (SGG) (PIU) (PIG)
       Virtual   (PIG) (SGU)
 Unable to determine electronic state:  partially filled degenerate orbitals.
 Alpha  occ. eigenvalues --  -20.42248 -20.42185  -1.54115  -0.99597  -0.63509
 Alpha  occ. eigenvalues --   -0.57752  -0.50996  -0.33397
 Alpha virt. eigenvalues --    0.18354   0.71120
          Condensed to atoms (all electrons):
               1          2
     1  O    7.751274   0.248726
     2  O    0.248726   7.751274
 Mulliken charges:
               1
     1  O   -0.000000
     2  O   -0.000000
 Sum of Mulliken charges =  -0.00000
 Mulliken charges with hydrogens summed into heavy atoms:
               1
     1  O   -0.000000
     2  O   -0.000000
 APT charges:
               1
     1  O    0.000000
     2  O   -0.000000
 Sum of APT charges =  -0.00000
 APT charges with hydrogens summed into heavy atoms:
               1
     1  O    0.000000
     2  O   -0.000000
 Electronic spatial extent (au):  <R**2>=             41.1258
 Charge=             -0.0000 electrons
 Dipole moment (field-independent basis, Debye):
    X=              0.0000    Y=             -0.0000    Z=             -0.0000  Tot=              0.0000
 Quadrupole moment (field-independent basis, Debye-Ang):
   XX=             -7.7403   YY=             -9.2146   ZZ=             -9.6874
   XY=             -0.0000   XZ=              0.0000   YZ=              0.0000
 Traceless Quadrupole moment (field-independent basis, Debye-Ang):
   XX=              1.1405   YY=             -0.3338   ZZ=             -0.8066
   XY=             -0.0000   XZ=              0.0000   YZ=              0.0000
 Octapole moment (field-independent basis, Debye-Ang**2):
  XXX=             -0.0000  YYY=             -0.0000  ZZZ=              0.0000  XYY=             -0.0000
  XXY=             -0.0000  XXZ=              0.0000  XZZ=             -0.0000  YZZ=             -0.0000
  YYZ=              0.0000  XYZ=              0.0000
 Hexadecapole moment (field-independent basis, Debye-Ang**3):
 XXXX=             -3.5090 YYYY=             -4.4203 ZZZZ=            -23.7807 XXXY=             -0.0000
 XXXZ=              0.0000 YYYX=             -0.0000 YYYZ=              0.0000 ZZZX=              0.0000
 ZZZY=              0.0000 XXYY=             -1.3216 XXZZ=             -4.2002 YYZZ=             -5.0368
 XXYZ=              0.0000 YYXZ=              0.0000 ZZXY=             -0.0000
 N-N= 2.772282252296D+01 E-N=-4.056550152016D+02  KE= 1.459822006550D+02
 Symmetry AG   KE= 6.743196554596D+01
 Symmetry B1G  KE= 0.000000000000D+00
 Symmetry B2G  KE= 9.715495918496D-34
 Symmetry B3G  KE= 5.795010615916D+00
 Symmetry AU   KE= 0.000000000000D+00
 Symmetry B1U  KE= 6.373699209895D+01
 Symmetry B2U  KE= 4.509116197068D+00
 Symmetry B3U  KE= 4.509116197068D+00
  Exact polarizability:       1.690       0.000       0.232      -0.000       0.000       7.080
 Approx polarizability:       1.261      -0.000       0.114      -0.000       0.000      11.170
 ******************************Gaussian NBO Version 3.1******************************
             N A T U R A L   A T O M I C   O R B I T A L   A N D
          N A T U R A L   B O N D   O R B I T A L   A N A L Y S I S
 ******************************Gaussian NBO Version 3.1******************************
       /RESON  / : Allow strongly delocalized NBO set

 Analyzing the SCF density

 Job title: O2-HF-STO-3G                                                    

 Storage needed:       370 in NPA,       439 in NBO (1342177252 available)


 NATURAL POPULATIONS:  Natural atomic orbital occupancies 
                                                          
   NAO  Atom  No  lang   Type(AO)    Occupancy      Energy
 ----------------------------------------------------------
     1    O    1  S      Cor( 1S)     2.00000     -20.35240
     2    O    1  S      Val( 2S)     1.87226      -1.15899
     3    O    1  px     Val( 2p)     1.00000      -0.16321
     4    O    1  py     Val( 2p)     2.00000      -0.48453
     5    O    1  pz     Val( 2p)     1.12774      -0.11250
 
     6    O    2  S      Cor( 1S)     2.00000     -20.35240
     7    O    2  S      Val( 2S)     1.87226      -1.15899
     8    O    2  px     Val( 2p)     1.00000      -0.16321
     9    O    2  py     Val( 2p)     2.00000      -0.48453
    10    O    2  pz     Val( 2p)     1.12774      -0.11250


 Summary of Natural Population Analysis:                  
                                                          
                                       Natural Population 
                Natural  -----------------------------------------------
    Atom  No    Charge         Core      Valence    Rydberg      Total
 -----------------------------------------------------------------------
      O    1   -0.00000      2.00000     6.00000    0.00000     8.00000
      O    2   -0.00000      2.00000     6.00000    0.00000     8.00000
 =======================================================================
   * Total *   -0.00000      4.00000    12.00000    0.00000    16.00000

                                 Natural Population      
 --------------------------------------------------------
   Core                       4.00000 (100.0000% of   4)
   Valence                   12.00000 (100.0000% of  12)
   Natural Minimal Basis     16.00000 (100.0000% of  16)
   Natural Rydberg Basis      0.00000 (  0.0000% of  16)
 --------------------------------------------------------

    Atom  No          Natural Electron Configuration
 ----------------------------------------------------------------------------
      O    1      [core]2S( 1.87)2p( 4.13)
      O    2      [core]2S( 1.87)2p( 4.13)


 NATURAL BOND ORBITAL ANALYSIS:

                       Occupancies       Lewis Structure    Low   High
           Occ.    -------------------  -----------------   occ   occ
  Cycle   Thresh.   Lewis   Non-Lewis     CR  BD  3C  LP    (L)   (NL)   Dev
 =============================================================================
   1(1)    1.90    16.00000   0.00000      2   2   0   4     0      0    0.00
 -----------------------------------------------------------------------------

 Structure accepted: No low occupancy Lewis orbitals

 --------------------------------------------------------
   Core                      4.00000 (100.000% of   4)
   Valence Lewis            12.00000 (100.000% of  12)
  ==================       ============================
   Total Lewis              16.00000 (100.000% of  16)
  -----------------------------------------------------
   Valence non-Lewis         0.00000 (  0.000% of  16)
   Rydberg non-Lewis         0.00000 (  0.000% of  16)
  ==================       ============================
   Total non-Lewis           0.00000 (  0.000% of  16)
 --------------------------------------------------------


       (Occupancy)   Bond orbital/ Coefficients/ Hybrids
 ---------------------------------------------------------------------------------
     1. (2.00000) BD ( 1) O   1 - O   2  
                ( 50.00%)   0.7071* O   1 s( 12.77%)p 6.83( 87.23%)
                                            0.0000 -0.3574  0.0000  0.0000  0.9339
                ( 50.00%)   0.7071* O   2 s( 12.77%)p 6.83( 87.23%)
                                            0.0000 -0.3574  0.0000  0.0000 -0.9339
     2. (2.00000) BD ( 2) O   1 - O   2  
                ( 50.00%)   0.7071* O   1 s(  0.00%)p 1.00(100.00%)
                                            0.0000  0.0000  1.0000  0.0000  0.0000
                ( 50.00%)   0.7071* O   2 s(  0.00%)p 1.00(100.00%)
                                            0.0000  0.0000  1.0000  0.0000  0.0000
     3. (2.00000) CR ( 1) O   1           s(100.00%)
                                            1.0000  0.0000  0.0000  0.0000  0.0000
     4. (2.00000) CR ( 1) O   2           s(100.00%)
                                            1.0000  0.0000  0.0000  0.0000  0.0000
     5. (2.00000) LP ( 1) O   1           s( 87.23%)p 0.15( 12.77%)
                                            0.0000  0.9339  0.0000  0.0000  0.3574
     6. (2.00000) LP ( 2) O   1           s(  0.00%)p 1.00(100.00%)
                                            0.0000  0.0000  0.0000  1.0000  0.0000
     7. (2.00000) LP ( 1) O   2           s( 87.23%)p 0.15( 12.77%)
                                            0.0000  0.9339  0.0000  0.0000 -0.3574
     8. (2.00000) LP ( 2) O   2           s(  0.00%)p 1.00(100.00%)
                                            0.0000  0.0000  0.0000  1.0000  0.0000
     9. (0.00000) BD*( 1) O   1 - O   2  
                ( 50.00%)   0.7071* O   1 s( 12.77%)p 6.83( 87.23%)
                ( 50.00%)  -0.7071* O   2 s( 12.77%)p 6.83( 87.23%)
    10. (0.00000) BD*( 2) O   1 - O   2  
                ( 50.00%)   0.7071* O   1 s(  0.00%)p 1.00(100.00%)
                ( 50.00%)  -0.7071* O   2 s(  0.00%)p 1.00(100.00%)


 NHO Directionality and "Bond Bending" (deviations from line of nuclear centers)

         [Thresholds for printing:  angular deviation  >  1.0 degree]
                                    hybrid p-character > 25.0%
                                    orbital occupancy  >  0.10e

                                Line of Centers        Hybrid 1              Hybrid 2
                                ---------------  -------------------   ------------------
                NBO               Theta   Phi    Theta   Phi    Dev    Theta   Phi    Dev
 ========================================================================================
     2. BD (   2) O   1 - O   2   180.0    0.0    90.0    0.0  90.0     90.0    0.0  90.0
     6. LP (   2) O   1             --     --     90.0   90.0   --       --     --    --
     8. LP (   2) O   2             --     --     90.0   90.0   --       --     --    --


 Second Order Perturbation Theory Analysis of Fock Matrix in NBO Basis

     Threshold for printing:   0.50 kcal/mol
                                                                              E(2)  E(j)-E(i) F(i,j)
         Donor NBO (i)                     Acceptor NBO (j)                 kcal/mol   a.u.    a.u. 
 ===================================================================================================

 within unit  1
       None above threshold


 Natural Bond Orbitals (Summary):

                                                            Principal Delocalizations
           NBO                        Occupancy    Energy   (geminal,vicinal,remote)
 ====================================================================================
 Molecular unit  1  (O2)
     1. BD (   1) O   1 - O   2          2.00000    -1.04654   
     2. BD (   2) O   1 - O   2          2.00000    -0.50996   
     3. CR (   1) O   1                  2.00000   -20.35240   
     4. CR (   1) O   2                  2.00000   -20.35240   
     5. LP (   1) O   1                  2.00000    -1.10382   
     6. LP (   2) O   1                  2.00000    -0.48453   
     7. LP (   1) O   2                  2.00000    -1.10382   
     8. LP (   2) O   2                  2.00000    -0.48453   
     9. BD*(   1) O   1 - O   2          0.00000     0.71120   
    10. BD*(   2) O   1 - O   2          0.00000     0.18354   
       -------------------------------
              Total Lewis   16.00000  (100.0000%)
        Valence non-Lewis    0.00000  (  0.0000%)
        Rydberg non-Lewis    0.00000  (  0.0000%)
       -------------------------------
            Total unit  1   16.00000  (100.0000%)
           Charge unit  1    0.00000
 Calling FoFJK, ICntrl=    100127 FMM=F ISym2X=1 I1Cent= 0 IOpClX= 0 NMat=1 NMatS=1 NMatT=0.
 Full mass-weighted force constant matrix:
 Low frequencies ---  -13.9435  -13.9435   -0.0008    0.0006    0.0006 2065.8194
 Diagonal vibrational polarizability:
        0.0000000       0.0000000       0.0000000
 Diagonal vibrational hyperpolarizability:
        0.0000000       0.0000000       0.0000000
 Harmonic frequencies (cm**-1), IR intensities (KM/Mole), Raman scattering
 activities (A**4/AMU), depolarization ratios for plane and unpolarized
 incident light, reduced masses (AMU), force constants (mDyne/A),
 and normal coordinates:
                      1
                     SGG
 Frequencies --   2065.8194
 Red. masses --     15.9949
 Frc consts  --     40.2177
 IR Inten    --      0.0000
 Raman Activ --      7.6864
 Depolar (P) --      0.3145
 Depolar (U) --      0.4785
  Atom  AN      X      Y      Z
     1   8    -0.00   0.00   0.71
     2   8     0.00  -0.00  -0.71

 -------------------
 - Thermochemistry -
 -------------------
 Temperature   298.150 Kelvin.  Pressure   1.00000 Atm.
 Atom     1 has atomic number  8 and mass  15.99491
 Atom     2 has atomic number  8 and mass  15.99491
 Molecular mass:    31.98983 amu.
 Principal axes and moments of inertia in atomic units:
                           1         2         3
     Eigenvalues --     0.00000  42.62231  42.62231
           X           -0.00000   1.00000   0.00000
           Y           -0.00000   0.00000   1.00000
           Z            1.00000   0.00000   0.00000
 This molecule is a prolate symmetric top.
 Rotational symmetry number  2.
 Rotational temperature (Kelvin)      2.03213
 Rotational constant (GHZ):          42.342641
 Zero-point vibrational energy      12356.3 (Joules/Mol)
                                    2.95324 (Kcal/Mol)
 Vibrational temperatures:   2972.25
          (Kelvin)
 
 Zero-point correction=                           0.004706 (Hartree/Particle)
 Thermal correction to Energy=                    0.007067
 Thermal correction to Enthalpy=                  0.008011
 Thermal correction to Gibbs Free Energy=        -0.014246
 Sum of electronic and zero-point Energies=           -147.546865
 Sum of electronic and thermal Energies=              -147.544505
 Sum of electronic and thermal Enthalpies=            -147.543560
 Sum of electronic and thermal Free Energies=         -147.565818
 
                     E (Thermal)             CV                S
                      KCal/Mol        Cal/Mol-Kelvin    Cal/Mol-Kelvin
 Total                    4.435              4.977             46.845
 Electronic               0.000              0.000              0.000
 Translational            0.889              2.981             36.321
 Rotational               0.592              1.987             10.523
 Vibrational              2.954              0.009              0.001
                       Q            Log10(Q)             Ln(Q)
 Total Bot       0.357033D+07          6.552708         15.088168
 Total V=0       0.521730D+09          8.717446         20.072662
 Vib (Bot)       0.684357D-02         -2.164718         -4.984446
 Vib (V=0)       0.100005D+01          0.000020          0.000047
 Electronic      0.100000D+01          0.000000          0.000000
 Translational   0.711167D+07          6.851972         15.777248
 Rotational      0.733591D+02          1.865454          4.295367
 ***** Axes restored to original set *****
 -------------------------------------------------------------------
 Center     Atomic                   Forces (Hartrees/Bohr)
 Number     Number              X              Y              Z
 -------------------------------------------------------------------
      1        8           0.000135840   -0.000000000   -0.000000000
      2        8          -0.000135840    0.000000000    0.000000000
 -------------------------------------------------------------------
 Cartesian Forces:  Max     0.000135840 RMS     0.000078427
 FormGI is forming the generalized inverse of G from B-inverse, IUseBI=4.

 GradGradGradGradGradGradGradGradGradGradGradGradGradGradGradGradGradGrad
 Berny optimization.
 Internal  Forces:  Max     0.000135840 RMS     0.000135840
 Search for a local minimum.
 Step number   1 out of a maximum of    2
 All quantities printed in internal units (Hartrees-Bohrs-Radians)
 Second derivative matrix not updated -- analytic derivatives used.
 The second derivative matrix:
                          R1
           R1           1.29160
 ITU=  0
     Eigenvalues ---    1.29160
 Angle between quadratic step and forces=   0.00 degrees.
 Linear search not attempted -- first point.
 Iteration  1 RMS(Cart)=  0.00007437 RMS(Int)=  0.00000000
 Iteration  2 RMS(Cart)=  0.00000000 RMS(Int)=  0.00000000
 ClnCor:  largest displacement from symmetrization is 3.22D-21 for atom     1.
 Variable       Old X    -DE/DX   Delta X   Delta X   Delta X     New X
                                 (Linear)    (Quad)   (Total)
    R1        2.30857   0.00014   0.00000   0.00011   0.00011   2.30867
         Item               Value     Threshold  Converged?
 Maximum Force            0.000136     0.000450     YES
 RMS     Force            0.000136     0.000300     YES
 Maximum Displacement     0.000053     0.001800     YES
 RMS     Displacement     0.000074     0.001200     YES
 Predicted change in Energy=-7.143281D-09
 Optimization completed.
    -- Stationary point found.
                           ----------------------------
                           !   Optimized Parameters   !
                           ! (Angstroms and Degrees)  !
 --------------------------                            --------------------------
 ! Name  Definition              Value          Derivative Info.                !
 --------------------------------------------------------------------------------
 ! R1    R(1,2)                  1.2216         -DE/DX =    0.0001              !
 --------------------------------------------------------------------------------
 GradGradGradGradGradGradGradGradGradGradGradGradGradGradGradGradGradGrad

 Dipole is zero, so no output in dipole orientation.

 ----------------------------------------------------------------------

 Electric dipole moment (input orientation):
 (Debye = 10**-18 statcoulomb cm , SI units = C m)
                  (au)            (Debye)         (10**-30 SI)
   Tot        0.000000D+00      0.000000D+00      0.000000D+00
   x          0.000000D+00      0.000000D+00      0.000000D+00
   y          0.000000D+00      0.000000D+00      0.000000D+00
   z          0.000000D+00      0.000000D+00      0.000000D+00

 Dipole polarizability, Alpha (input orientation).
 (esu units = cm**3 , SI units = C**2 m**2 J**-1)
 Alpha(0;0):
               (au)            (10**-24 esu)      (10**-40 SI)
   iso        0.300065D+01      0.444651D+00      0.494741D+00
   aniso      0.624815D+01      0.925880D+00      0.103018D+01
   xx         0.708014D+01      0.104917D+01      0.116736D+01
   yx         0.000000D+00      0.000000D+00      0.000000D+00
   yy         0.231883D+00      0.343616D-01      0.382324D-01
   zx         0.000000D+00      0.000000D+00      0.000000D+00
   zy         0.000000D+00      0.000000D+00      0.000000D+00
   zz         0.168994D+01      0.250423D+00      0.278633D+00

 ----------------------------------------------------------------------
 Unable to Open any file for archive entry.
 1\1\GINC-LOCALHOST\Freq\RHF\STO-3G\O2\USER\21-Mar-2026\0\\#N Geom=AllC
 heck Guess=TCheck SCRF=Check GenChk RHF/STO-3G Freq\\O2-HF-STO-3G\\0,1
 \O,0.8526701178,0.10683761,0.\O,-0.3689710578,0.10683761,0.\\Version=E
 S64L-G16RevC.02\HF=-147.5515717\RMSD=0.000e+00\RMSF=7.843e-05\ZeroPoin
 t=0.0047063\Thermal=0.0070672\ETot=-147.5445045\HTot=-147.5435603\GTot
 =-147.5658177\Dipole=0.,0.,0.\DipoleDeriv=0.,0.,0.,0.,0.,0.,0.,0.,0.,0
 .,0.,0.,0.,0.,0.,0.,0.,0.\Polar=7.0801369,0.,0.2318833,0.,0.,1.6899359
 \PolarDeriv=8.0412016,0.,-0.0407145,0.,0.,0.3211668,0.,2.9664519,0.,0.
 ,0.,0.,0.,0.,0.,2.3348685,0.,0.,-8.0412016,0.,0.0407145,0.,0.,-0.32116
 68,0.,-2.9664519,0.,0.,0.,0.,0.,0.,0.,-2.3348685,0.,0.\HyperPolar=0.,0
 .,0.,0.,0.,0.,0.,0.,0.,0.\Quadrupole=-0.5997069,-0.2481989,0.8479057,0
 .,0.,0.\PG=D*H [C*(O1.O1)]\NImag=0\\1.29160012,0.,-0.00005884,0.,0.,-0
 .00005884,-1.29160012,0.,0.,1.29160012,0.,0.00005884,0.,0.,-0.00005884
 ,0.,0.,0.00005884,0.,0.,-0.00005884\\-0.00013584,0.,0.,0.00013584,0.,0
 .\\\@
 The archive entry for this job was punched.


 MUD THROWN IS GROUND LOST -- FROM A TEA BAG
 Job cpu time:       0 days  0 hours  0 minutes 23.4 seconds.
 Elapsed time:       0 days  0 hours  0 minutes  1.7 seconds.
 File lengths (MBytes):  RWF=      6 Int=      0 D2E=      0 Chk=      1 Scr=      1
 Normal termination of Gaussian 16 at Sat Mar 21 10:16:56 2026.
