 Entering Gaussian System, Link 0=g16
 Input=N2-B3LYP-ccpvdz.gjf
 Output=N2-B3LYP-ccpvdz.log
 Initial command:
 /home/user/gaussian16_I/g16/l1.exe "/home/user/gaussian16_I/temp/Gau-3542752.inp" -scrdir="/home/user/gaussian16_I/temp/"
 Entering Link 1 = /home/user/gaussian16_I/g16/l1.exe PID=   3542753.
  
 Copyright (c) 1988-2021, Gaussian, Inc.  All Rights Reserved.
  
 This is part of the Gaussian(R) 16 program.  It is based on
 the Gaussian(R) 09 system (copyright 2009, Gaussian, Inc.),
 the Gaussian(R) 03 system (copyright 2003, Gaussian, Inc.),
 the Gaussian(R) 98 system (copyright 1998, Gaussian, Inc.),
 the Gaussian(R) 94 system (copyright 1995, Gaussian, Inc.),
 the Gaussian 92(TM) system (copyright 1992, Gaussian, Inc.),
 the Gaussian 90(TM) system (copyright 1990, Gaussian, Inc.),
 the Gaussian 88(TM) system (copyright 1988, Gaussian, Inc.),
 the Gaussian 86(TM) system (copyright 1986, Carnegie Mellon
 University), and the Gaussian 82(TM) system (copyright 1983,
 Carnegie Mellon University). Gaussian is a federally registered
 trademark of Gaussian, Inc.
  
 This software contains proprietary and confidential information,
 including trade secrets, belonging to Gaussian, Inc.
  
 This software is provided under written license and may be
 used, copied, transmitted, or stored only in accord with that
 written license.
  
 The following legend is applicable only to US Government
 contracts under FAR:
  
                    RESTRICTED RIGHTS LEGEND
  
 Use, reproduction and disclosure by the US Government is
 subject to restrictions as set forth in subparagraphs (a)
 and (c) of the Commercial Computer Software - Restricted
 Rights clause in FAR 52.227-19.
  
 Gaussian, Inc.
 340 Quinnipiac St., Bldg. 40, Wallingford CT 06492
  
  
 ---------------------------------------------------------------
 Warning -- This program may not be used in any manner that
 competes with the business of Gaussian, Inc. or will provide
 assistance to any competitor of Gaussian, Inc.  The licensee
 of this program is prohibited from giving any competitor of
 Gaussian, Inc. access to this program.  By using this program,
 the user acknowledges that Gaussian, Inc. is engaged in the
 business of creating and licensing software in the field of
 computational chemistry and represents and warrants to the
 licensee that it is not a competitor of Gaussian, Inc. and that
 it will not use this program in any manner prohibited above.
 ---------------------------------------------------------------
  

 Cite this work as:
 Gaussian 16, Revision C.02,
 M. J. Frisch, G. W. Trucks, H. B. Schlegel, G. E. Scuseria, 
 M. A. Robb, J. R. Cheeseman, G. Scalmani, V. Barone, 
 G. A. Petersson, H. Nakatsuji, X. Li, M. Caricato, A. V. Marenich, 
 J. Bloino, B. G. Janesko, R. Gomperts, B. Mennucci, H. P. Hratchian, 
 J. V. Ortiz, A. F. Izmaylov, J. L. Sonnenberg, D. Williams-Young, 
 F. Ding, F. Lipparini, F. Egidi, J. Goings, B. Peng, A. Petrone, 
 T. Henderson, D. Ranasinghe, V. G. Zakrzewski, J. Gao, N. Rega, 
 G. Zheng, W. Liang, M. Hada, M. Ehara, K. Toyota, R. Fukuda, 
 J. Hasegawa, M. Ishida, T. Nakajima, Y. Honda, O. Kitao, H. Nakai, 
 T. Vreven, K. Throssell, J. A. Montgomery, Jr., J. E. Peralta, 
 F. Ogliaro, M. J. Bearpark, J. J. Heyd, E. N. Brothers, K. N. Kudin, 
 V. N. Staroverov, T. A. Keith, R. Kobayashi, J. Normand, 
 K. Raghavachari, A. P. Rendell, J. C. Burant, S. S. Iyengar, 
 J. Tomasi, M. Cossi, J. M. Millam, M. Klene, C. Adamo, R. Cammi, 
 J. W. Ochterski, R. L. Martin, K. Morokuma, O. Farkas, 
 J. B. Foresman, and D. J. Fox, Gaussian, Inc., Wallingford CT, 2019.
 
 ******************************************
 Gaussian 16:  ES64L-G16RevC.02  7-Dec-2021
                21-Mar-2026 
 ******************************************
 %mem=10GB
 %cpu=0-23
 SetSPE:  set environment variable "OMP_PROC_BIND" = "true"
 SetSPE:  set environment variable "OMP_PLACES" = "{0},{1},{2},{3},{4},{5},{6},{7},{8},{9},{10},{11},{12},{13},{14},{15},{16},{17},{18},{19},{20},{21},{22},{23}"
 Will use up to   24 processors via shared memory.
 %chk=N2-B3LYP-ccpvdz.chk
 --------------------------------------------------
 # opt freq b3lyp/cc-pvdz pop=nbo geom=connectivity
 --------------------------------------------------
 1/18=20,19=15,26=3,38=1,57=2/1,3;
 2/9=110,12=2,17=6,18=5,40=1/2;
 3/5=16,11=2,25=1,30=1,71=1,74=-5/1,2,3;
 4//1;
 5/5=2,38=5/2;
 6/7=2,8=2,9=2,10=2,28=1,40=1/1,7;
 7//1,2,3,16;
 1/18=20,19=15,26=3/3(2);
 2/9=110/2;
 99//99;
 2/9=110/2;
 3/5=16,11=2,25=1,30=1,71=1,74=-5/1,2,3;
 4/5=5,16=3,69=1/1;
 5/5=2,38=5/2;
 7//1,2,3,16;
 1/18=20,19=15,26=3/3(-5);
 2/9=110/2;
 6/7=2,8=2,9=2,10=2,19=2,28=1,40=1/1,7;
 99/9=1/99;
 --------------------
 N2-opt-B3LYP-cc-pvdz
 --------------------
 Symbolic Z-matrix:
 Charge =  0 Multiplicity = 1
 N                     0.        2.1688    0. 
 N                     1.23932   2.19017   0. 
 

 GradGradGradGradGradGradGradGradGradGradGradGradGradGradGradGradGradGrad
 Berny optimization.
 Initialization pass.
                           ----------------------------
                           !    Initial Parameters    !
                           ! (Angstroms and Degrees)  !
 --------------------------                            --------------------------
 ! Name  Definition              Value          Derivative Info.                !
 --------------------------------------------------------------------------------
 ! R1    R(1,2)                  1.2395         estimate D2E/DX2                !
 --------------------------------------------------------------------------------
 Trust Radius=3.00D-01 FncErr=1.00D-07 GrdErr=1.00D-06 EigMax=2.50D+02 EigMin=1.00D-04
 Number of steps in this run=     20 maximum allowed number of steps=    100.
 GradGradGradGradGradGradGradGradGradGradGradGradGradGradGradGradGradGrad

                          Input orientation:                          
 ---------------------------------------------------------------------
 Center     Atomic      Atomic             Coordinates (Angstroms)
 Number     Number       Type             X           Y           Z
 ---------------------------------------------------------------------
      1          7           0        0.000000    2.168803    0.000000
      2          7           0        1.239316    2.190171    0.000000
 ---------------------------------------------------------------------
 Stoichiometry    N2
 Framework group  D*H[C*(N.N)]
 Deg. of freedom     1
 Full point group                 D*H     NOp   8
 Largest Abelian subgroup         D2H     NOp   8
 Largest concise Abelian subgroup C2      NOp   2
                         Standard orientation:                         
 ---------------------------------------------------------------------
 Center     Atomic      Atomic             Coordinates (Angstroms)
 Number     Number       Type             X           Y           Z
 ---------------------------------------------------------------------
      1          7           0        0.000000   -0.000000    0.619750
      2          7           0        0.000000   -0.000000   -0.619750
 ---------------------------------------------------------------------
 Rotational constants (GHZ):           0.0000000          46.9818907          46.9818907
 Standard basis: CC-pVDZ (5D, 7F)
 There are     8 symmetry adapted cartesian basis functions of AG  symmetry.
 There are     1 symmetry adapted cartesian basis functions of B1G symmetry.
 There are     3 symmetry adapted cartesian basis functions of B2G symmetry.
 There are     3 symmetry adapted cartesian basis functions of B3G symmetry.
 There are     1 symmetry adapted cartesian basis functions of AU  symmetry.
 There are     8 symmetry adapted cartesian basis functions of B1U symmetry.
 There are     3 symmetry adapted cartesian basis functions of B2U symmetry.
 There are     3 symmetry adapted cartesian basis functions of B3U symmetry.
 There are     7 symmetry adapted basis functions of AG  symmetry.
 There are     1 symmetry adapted basis functions of B1G symmetry.
 There are     3 symmetry adapted basis functions of B2G symmetry.
 There are     3 symmetry adapted basis functions of B3G symmetry.
 There are     1 symmetry adapted basis functions of AU  symmetry.
 There are     7 symmetry adapted basis functions of B1U symmetry.
 There are     3 symmetry adapted basis functions of B2U symmetry.
 There are     3 symmetry adapted basis functions of B3U symmetry.
    28 basis functions,    66 primitive gaussians,    30 cartesian basis functions
     7 alpha electrons        7 beta electrons
       nuclear repulsion energy        20.9194639890 Hartrees.
 NAtoms=    2 NActive=    2 NUniq=    1 SFac= 4.00D+00 NAtFMM=   60 NAOKFM=F Big=F
 Integral buffers will be    131072 words long.
 Raffenetti 2 integral format.
 Two-electron integral symmetry is turned on.
 One-electron integrals computed using PRISM.
 NBasis=    28 RedAO= T EigKep=  1.03D-02  NBF=     7     1     3     3     1     7     3     3
 NBsUse=    28 1.00D-06 EigRej= -1.00D+00 NBFU=     7     1     3     3     1     7     3     3
 ExpMin= 2.18D-01 ExpMax= 9.05D+03 ExpMxC= 3.09D+02 IAcc=3 IRadAn=         5 AccDes= 0.00D+00
 Harris functional with IExCor=  402 and IRadAn=       5 diagonalized for initial guess.
 HarFok:  IExCor=  402 AccDes= 0.00D+00 IRadAn=         5 IDoV= 1 UseB2=F ITyADJ=14
 ICtDFT=  3500011 ScaDFX=  1.000000  1.000000  1.000000  1.000000
 FoFCou: FMM=F IPFlag=           0 FMFlag=      100000 FMFlg1=           0
         NFxFlg=           0 DoJE=T BraDBF=F KetDBF=T FulRan=T
         wScrn=  0.000000 ICntrl=       500 IOpCl=  0 I1Cent=   200000004 NGrid=           0
         NMat0=    1 NMatS0=      1 NMatT0=    0 NMatD0=    1 NMtDS0=    0 NMtDT0=    0
 Petite list used in FoFCou.
 Initial guess orbital symmetries:
       Occupied  (SGG) (SGU) (SGG) (SGU) (PIU) (PIU) (SGG)
       Virtual   (PIG) (PIG) (SGU) (PIU) (PIU) (SGG) (SGU) (PIG)
                 (PIG) (SGG) (SGU) (PIU) (PIU) (DLTG) (DLTG) (DLTU)
                 (DLTU) (SGG) (PIG) (PIG) (SGU)
 The electronic state of the initial guess is 1-SGG.
 Keep R1 ints in memory in symmetry-blocked form, NReq=20812887.
 Requested convergence on RMS density matrix=1.00D-08 within 128 cycles.
 Requested convergence on MAX density matrix=1.00D-06.
 Requested convergence on             energy=1.00D-06.
 No special actions if energy rises.
 Integral accuracy reduced to 1.0D-05 until final iterations.
 Initial convergence to 1.0D-05 achieved.  Increase integral accuracy.
 SCF Done:  E(RB3LYP) =  -109.495301205     A.U. after    8 cycles
            NFock=  8  Conv=0.44D-08     -V/T= 2.0110

 **********************************************************************

            Population analysis using the SCF Density.

 **********************************************************************

 Orbital symmetries:
       Occupied  (SGG) (SGU) (SGG) (SGU) (PIU) (PIU) (SGG)
       Virtual   (PIG) (PIG) (SGU) (PIU) (PIU) (SGG) (SGU) (PIG)
                 (PIG) (SGG) (SGU) (PIU) (PIU) (DLTG) (DLTG) (DLTU)
                 (DLTU) (SGG) (PIG) (PIG) (SGU)
 The electronic state is 1-SGG.
 Alpha  occ. eigenvalues --  -14.46095 -14.46048  -1.04343  -0.58366  -0.42069
 Alpha  occ. eigenvalues --   -0.42069  -0.41532
 Alpha virt. eigenvalues --   -0.07488  -0.07488   0.33044   0.65659   0.65659
 Alpha virt. eigenvalues --    0.66846   0.69319   0.76506   0.76506   0.76788
 Alpha virt. eigenvalues --    1.29270   1.48197   1.48197   1.53463   1.53463
 Alpha virt. eigenvalues --    1.90115   1.90115   2.32475   2.50075   2.50075
 Alpha virt. eigenvalues --    2.73303
          Condensed to atoms (all electrons):
               1          2
     1  N    6.411847   0.588153
     2  N    0.588153   6.411847
 Mulliken charges:
               1
     1  N    0.000000
     2  N    0.000000
 Sum of Mulliken charges =   0.00000
 Mulliken charges with hydrogens summed into heavy atoms:
               1
     1  N    0.000000
     2  N    0.000000
 Electronic spatial extent (au):  <R**2>=             43.0901
 Charge=              0.0000 electrons
 Dipole moment (field-independent basis, Debye):
    X=              0.0000    Y=             -0.0000    Z=             -0.0000  Tot=              0.0000
 Quadrupole moment (field-independent basis, Debye-Ang):
   XX=            -10.2662   YY=            -10.2662   ZZ=            -11.5971
   XY=              0.0000   XZ=              0.0000   YZ=             -0.0000
 Traceless Quadrupole moment (field-independent basis, Debye-Ang):
   XX=              0.4436   YY=              0.4436   ZZ=             -0.8873
   XY=              0.0000   XZ=              0.0000   YZ=             -0.0000
 Octapole moment (field-independent basis, Debye-Ang**2):
  XXX=             -0.0000  YYY=              0.0000  ZZZ=              0.0000  XYY=             -0.0000
  XXY=              0.0000  XXZ=              0.0000  XZZ=             -0.0000  YZZ=              0.0000
  YYZ=              0.0000  XYZ=             -0.0000
 Hexadecapole moment (field-independent basis, Debye-Ang**3):
 XXXX=             -8.2111 YYYY=             -8.2111 ZZZZ=            -35.3742 XXXY=              0.0000
 XXXZ=              0.0000 YYYX=              0.0000 YYYZ=             -0.0000 ZZZX=              0.0000
 ZZZY=             -0.0000 XXYY=             -2.7370 XXZZ=             -6.8331 YYZZ=             -6.8331
 XXYZ=             -0.0000 YYXZ=              0.0000 ZZXY=              0.0000
 N-N= 2.091946398900D+01 E-N=-2.976229792493D+02  KE= 1.082992600776D+02
 Symmetry AG   KE= 5.278458971240D+01
 Symmetry B1G  KE= 5.693571406714D-34
 Symmetry B2G  KE= 1.275995850552D-32
 Symmetry B3G  KE= 2.073967273671D-32
 Symmetry AU   KE= 8.053190247632D-34
 Symmetry B1U  KE= 4.890603289939D+01
 Symmetry B2U  KE= 3.304318732908D+00
 Symmetry B3U  KE= 3.304318732908D+00
 ******************************Gaussian NBO Version 3.1******************************
             N A T U R A L   A T O M I C   O R B I T A L   A N D
          N A T U R A L   B O N D   O R B I T A L   A N A L Y S I S
 ******************************Gaussian NBO Version 3.1******************************
       /RESON  / : Allow strongly delocalized NBO set

 Analyzing the SCF density

 Job title: N2-opt-B3LYP-cc-pvdz                                            

 Storage needed:      2518 in NPA,      3238 in NBO (1342177252 available)
 GSVD:  LWork=         504 too small for GESVD, short by         266 words or         266 for optimal perf.
 GSVD:  LWork=         592 too small for GESVD, short by           8 words or           8 for optimal perf.
 GSVD:  LWork=         504 too small for GESVD, short by         266 words or         266 for optimal perf.


 NATURAL POPULATIONS:  Natural atomic orbital occupancies 
                                                          
   NAO  Atom  No  lang   Type(AO)    Occupancy      Energy
 ----------------------------------------------------------
     1    N    1  S      Cor( 1S)     1.99979     -14.30523
     2    N    1  S      Val( 2S)     1.71226      -0.71518
     3    N    1  S      Ryd( 3S)     0.01393       1.00505
     4    N    1  px     Val( 2p)     0.99657      -0.23658
     5    N    1  px     Ryd( 3p)     0.00020       0.70854
     6    N    1  py     Val( 2p)     0.99657      -0.23658
     7    N    1  py     Ryd( 3p)     0.00020       0.70854
     8    N    1  pz     Val( 2p)     1.26760      -0.20348
     9    N    1  pz     Ryd( 3p)     0.00456       0.66206
    10    N    1  dxy    Ryd( 3d)     0.00000       1.71789
    11    N    1  dxz    Ryd( 3d)     0.00322       1.98244
    12    N    1  dyz    Ryd( 3d)     0.00322       1.98244
    13    N    1  dx2y2  Ryd( 3d)     0.00000       1.71789
    14    N    1  dz2    Ryd( 3d)     0.00185       2.48007
 
    15    N    2  S      Cor( 1S)     1.99979     -14.30523
    16    N    2  S      Val( 2S)     1.71226      -0.71518
    17    N    2  S      Ryd( 3S)     0.01393       1.00505
    18    N    2  px     Val( 2p)     0.99657      -0.23658
    19    N    2  px     Ryd( 3p)     0.00020       0.70854
    20    N    2  py     Val( 2p)     0.99657      -0.23658
    21    N    2  py     Ryd( 3p)     0.00020       0.70854
    22    N    2  pz     Val( 2p)     1.26760      -0.20348
    23    N    2  pz     Ryd( 3p)     0.00456       0.66206
    24    N    2  dxy    Ryd( 3d)     0.00000       1.71789
    25    N    2  dxz    Ryd( 3d)     0.00322       1.98244
    26    N    2  dyz    Ryd( 3d)     0.00322       1.98244
    27    N    2  dx2y2  Ryd( 3d)     0.00000       1.71789
    28    N    2  dz2    Ryd( 3d)     0.00185       2.48007


 Summary of Natural Population Analysis:                  
                                                          
                                       Natural Population 
                Natural  -----------------------------------------------
    Atom  No    Charge         Core      Valence    Rydberg      Total
 -----------------------------------------------------------------------
      N    1   -0.00000      1.99979     4.97302    0.02719     7.00000
      N    2   -0.00000      1.99979     4.97302    0.02719     7.00000
 =======================================================================
   * Total *   -0.00000      3.99959     9.94603    0.05438    14.00000

                                 Natural Population      
 --------------------------------------------------------
   Core                       3.99959 ( 99.9897% of   4)
   Valence                    9.94603 ( 99.4603% of  10)
   Natural Minimal Basis     13.94562 ( 99.6116% of  14)
   Natural Rydberg Basis      0.05438 (  0.3884% of  14)
 --------------------------------------------------------

    Atom  No          Natural Electron Configuration
 ----------------------------------------------------------------------------
      N    1      [core]2S( 1.71)2p( 3.26)3S( 0.01)3d( 0.01)
      N    2      [core]2S( 1.71)2p( 3.26)3S( 0.01)3d( 0.01)


 NATURAL BOND ORBITAL ANALYSIS:

                       Occupancies       Lewis Structure    Low   High
           Occ.    -------------------  -----------------   occ   occ
  Cycle   Thresh.   Lewis   Non-Lewis     CR  BD  3C  LP    (L)   (NL)   Dev
 =============================================================================
   1(1)    1.90    13.99455   0.00545      2   3   0   2     0      0    0.01
 -----------------------------------------------------------------------------

 Structure accepted: No low occupancy Lewis orbitals

 --------------------------------------------------------
   Core                      3.99959 ( 99.990% of   4)
   Valence Lewis             9.99496 ( 99.950% of  10)
  ==================       ============================
   Total Lewis              13.99455 ( 99.961% of  14)
  -----------------------------------------------------
   Valence non-Lewis         0.00000 (  0.000% of  14)
   Rydberg non-Lewis         0.00545 (  0.039% of  14)
  ==================       ============================
   Total non-Lewis           0.00545 (  0.039% of  14)
 --------------------------------------------------------


       (Occupancy)   Bond orbital/ Coefficients/ Hybrids
 ---------------------------------------------------------------------------------
     1. (2.00000) BD ( 1) N   1 - N   2  
                ( 50.00%)   0.7071* N   1 s( 29.26%)p 2.41( 70.59%)d 0.01(  0.15%)
                                            0.0000 -0.5307 -0.1049  0.0000  0.0000
                                            0.0000  0.0000  0.8387  0.0487  0.0000
                                            0.0000  0.0000  0.0000 -0.0386
                ( 50.00%)   0.7071* N   2 s( 29.26%)p 2.41( 70.59%)d 0.01(  0.15%)
                                           -0.0000 -0.5307 -0.1049  0.0000  0.0000
                                            0.0000  0.0000 -0.8387 -0.0487  0.0000
                                            0.0000  0.0000  0.0000 -0.0386
     2. (2.00000) BD ( 2) N   1 - N   2  
                ( 50.00%)   0.7071* N   1 s(  0.00%)p 1.00( 99.68%)d 0.00(  0.32%)
                                            0.0000  0.0000  0.0000  0.9983 -0.0143
                                            0.0000  0.0000  0.0000  0.0000  0.0000
                                           -0.0568  0.0000  0.0000  0.0000
                ( 50.00%)   0.7071* N   2 s(  0.00%)p 1.00( 99.68%)d 0.00(  0.32%)
                                            0.0000  0.0000  0.0000  0.9983 -0.0143
                                            0.0000  0.0000  0.0000  0.0000  0.0000
                                            0.0568  0.0000  0.0000  0.0000
     3. (2.00000) BD ( 3) N   1 - N   2  
                ( 50.00%)   0.7071* N   1 s(  0.00%)p 1.00( 99.68%)d 0.00(  0.32%)
                                            0.0000  0.0000  0.0000  0.0000  0.0000
                                            0.9983 -0.0143  0.0000  0.0000  0.0000
                                            0.0000 -0.0568  0.0000  0.0000
                ( 50.00%)   0.7071* N   2 s(  0.00%)p 1.00( 99.68%)d 0.00(  0.32%)
                                            0.0000  0.0000  0.0000  0.0000  0.0000
                                            0.9983 -0.0143  0.0000  0.0000  0.0000
                                            0.0000  0.0568  0.0000  0.0000
     4. (1.99979) CR ( 1) N   1           s(100.00%)
                                            1.0000  0.0001 -0.0000  0.0000  0.0000
                                            0.0000  0.0000  0.0001 -0.0000  0.0000
                                            0.0000  0.0000  0.0000 -0.0000
     5. (1.99979) CR ( 1) N   2           s(100.00%)
                                            1.0000  0.0001 -0.0000  0.0000  0.0000
                                            0.0000  0.0000 -0.0001  0.0000  0.0000
                                            0.0000  0.0000  0.0000 -0.0000
     6. (1.99748) LP ( 1) N   1           s( 71.73%)p 0.39( 28.25%)d 0.00(  0.02%)
                                           -0.0002  0.8463 -0.0329  0.0000  0.0000
                                            0.0000  0.0000  0.5314 -0.0114  0.0000
                                            0.0000  0.0000  0.0000 -0.0130
     7. (1.99748) LP ( 1) N   2           s( 71.73%)p 0.39( 28.25%)d 0.00(  0.02%)
                                           -0.0002  0.8463 -0.0329  0.0000  0.0000
                                            0.0000  0.0000 -0.5314  0.0114  0.0000
                                            0.0000  0.0000  0.0000 -0.0130
     8. (0.00271) RY*( 1) N   1           s( 28.10%)p 2.56( 71.89%)d 0.00(  0.01%)
                                            0.0000 -0.0451  0.5281 -0.0000 -0.0000
                                           -0.0000 -0.0000  0.0861 -0.8435 -0.0000
                                           -0.0000 -0.0000 -0.0000 -0.0104
     9. (0.00002) RY*( 2) N   1           s(  0.71%)p 0.67(  0.48%)d99.99( 98.82%)
    10. (0.00000) RY*( 3) N   1           s(  0.00%)p 1.00(100.00%)d 0.00(  0.00%)
    11. (0.00000) RY*( 4) N   1           s( 70.20%)p 0.41( 28.79%)d 0.01(  1.01%)
    12. (0.00000) RY*( 5) N   1           s(  0.00%)p 0.00(  0.00%)d 1.00(100.00%)
    13. (0.00000) RY*( 6) N   1           s(  0.00%)p 1.00(  0.32%)d99.99( 99.68%)
    14. (0.00000) RY*( 7) N   1           s(  0.00%)p 1.00(  0.32%)d99.99( 99.68%)
    15. (0.00000) RY*( 8) N   1           s(  0.00%)p 0.00(  0.00%)d 1.00(100.00%)
    16. (0.00000) RY*( 9) N   1           s(  0.00%)p 1.00(100.00%)d 0.00(  0.00%)
    17. (0.00271) RY*( 1) N   2           s( 28.10%)p 2.56( 71.89%)d 0.00(  0.01%)
                                           -0.0000 -0.0451  0.5281  0.0000  0.0000
                                            0.0000  0.0000 -0.0861  0.8435  0.0000
                                            0.0000  0.0000  0.0000 -0.0104
    18. (0.00002) RY*( 2) N   2           s(  0.71%)p 0.67(  0.48%)d99.99( 98.82%)
    19. (0.00000) RY*( 3) N   2           s(  0.00%)p 1.00(100.00%)d 0.00(  0.00%)
    20. (0.00000) RY*( 4) N   2           s( 70.20%)p 0.41( 28.79%)d 0.01(  1.01%)
    21. (0.00000) RY*( 5) N   2           s(  0.00%)p 0.00(  0.00%)d 1.00(100.00%)
    22. (0.00000) RY*( 6) N   2           s(  0.00%)p 1.00(  0.32%)d99.99( 99.68%)
    23. (0.00000) RY*( 7) N   2           s(  0.00%)p 1.00(  0.32%)d99.99( 99.68%)
    24. (0.00000) RY*( 8) N   2           s(  0.00%)p 0.00(  0.00%)d 1.00(100.00%)
    25. (0.00000) RY*( 9) N   2           s(  0.00%)p 1.00(100.00%)d 0.00(  0.00%)
    26. (0.00000) BD*( 1) N   1 - N   2  
                ( 50.00%)   0.7071* N   1 s( 29.26%)p 2.41( 70.59%)d 0.01(  0.15%)
                ( 50.00%)  -0.7071* N   2 s( 29.26%)p 2.41( 70.59%)d 0.01(  0.15%)
    27. (0.00000) BD*( 2) N   1 - N   2  
                ( 50.00%)   0.7071* N   1 s(  0.00%)p 1.00( 99.68%)d 0.00(  0.32%)
                ( 50.00%)  -0.7071* N   2 s(  0.00%)p 1.00( 99.68%)d 0.00(  0.32%)
    28. (0.00000) BD*( 3) N   1 - N   2  
                ( 50.00%)   0.7071* N   1 s(  0.00%)p 1.00( 99.68%)d 0.00(  0.32%)
                ( 50.00%)  -0.7071* N   2 s(  0.00%)p 1.00( 99.68%)d 0.00(  0.32%)


 NHO Directionality and "Bond Bending" (deviations from line of nuclear centers)

         [Thresholds for printing:  angular deviation  >  1.0 degree]
                                    hybrid p-character > 25.0%
                                    orbital occupancy  >  0.10e

                                Line of Centers        Hybrid 1              Hybrid 2
                                ---------------  -------------------   ------------------
                NBO               Theta   Phi    Theta   Phi    Dev    Theta   Phi    Dev
 ========================================================================================
     2. BD (   2) N   1 - N   2   180.0    0.0    90.0    0.0  90.0     90.0    0.0  90.0
     3. BD (   3) N   1 - N   2   180.0    0.0    90.0   90.0  90.0     90.0   90.0  90.0
     6. LP (   1) N   1             --     --      0.0    0.0   --       --     --    --
     7. LP (   1) N   2             --     --    180.0    0.0   --       --     --    --


 Second Order Perturbation Theory Analysis of Fock Matrix in NBO Basis

     Threshold for printing:   0.50 kcal/mol
                                                                              E(2)  E(j)-E(i) F(i,j)
         Donor NBO (i)                     Acceptor NBO (j)                 kcal/mol   a.u.    a.u. 
 ===================================================================================================

 within unit  1
   4. CR (   1) N   1                / 17. RY*(   1) N   2                    2.85   15.05    0.185
   5. CR (   1) N   2                /  8. RY*(   1) N   1                    2.85   15.05    0.185
   6. LP (   1) N   1                / 17. RY*(   1) N   2                    3.32    1.40    0.061
   7. LP (   1) N   2                /  8. RY*(   1) N   1                    3.32    1.40    0.061


 Natural Bond Orbitals (Summary):

                                                            Principal Delocalizations
           NBO                        Occupancy    Energy   (geminal,vicinal,remote)
 ====================================================================================
 Molecular unit  1  (N2)
     1. BD (   1) N   1 - N   2          2.00000    -1.01713   
     2. BD (   2) N   1 - N   2          2.00000    -0.42069   
     3. BD (   3) N   1 - N   2          2.00000    -0.42069   
     4. CR (   1) N   1                  1.99979   -14.30561  17(v)
     5. CR (   1) N   2                  1.99979   -14.30561  8(v)
     6. LP (   1) N   1                  1.99748    -0.66363  17(v)
     7. LP (   1) N   2                  1.99748    -0.66363  8(v)
     8. RY*(   1) N   1                  0.00271     0.74064   
     9. RY*(   2) N   1                  0.00002     2.47510   
    10. RY*(   3) N   1                  0.00000     0.71021   
    11. RY*(   4) N   1                  0.00000     0.89929   
    12. RY*(   5) N   1                  0.00000     1.71789   
    13. RY*(   6) N   1                  0.00000     1.97962   
    14. RY*(   7) N   1                  0.00000     1.97962   
    15. RY*(   8) N   1                  0.00000     1.71789   
    16. RY*(   9) N   1                  0.00000     0.71021   
    17. RY*(   1) N   2                  0.00271     0.74064   
    18. RY*(   2) N   2                  0.00002     2.47510   
    19. RY*(   3) N   2                  0.00000     0.71021   
    20. RY*(   4) N   2                  0.00000     0.89929   
    21. RY*(   5) N   2                  0.00000     1.71789   
    22. RY*(   6) N   2                  0.00000     1.97962   
    23. RY*(   7) N   2                  0.00000     1.97962   
    24. RY*(   8) N   2                  0.00000     1.71789   
    25. RY*(   9) N   2                  0.00000     0.71021   
    26. BD*(   1) N   1 - N   2          0.00000     0.57217   
    27. BD*(   2) N   1 - N   2          0.00000    -0.05016   
    28. BD*(   3) N   1 - N   2          0.00000    -0.05016   
       -------------------------------
              Total Lewis   13.99455  ( 99.9611%)
        Valence non-Lewis    0.00000  (  0.0000%)
        Rydberg non-Lewis    0.00545  (  0.0389%)
       -------------------------------
            Total unit  1   14.00000  (100.0000%)
           Charge unit  1    0.00000
 Calling FoFJK, ICntrl=      2127 FMM=F ISym2X=1 I1Cent= 0 IOpClX= 0 NMat=1 NMatS=1 NMatT=0.
 ***** Axes restored to original set *****
 -------------------------------------------------------------------
 Center     Atomic                   Forces (Hartrees/Bohr)
 Number     Number              X              Y              Z
 -------------------------------------------------------------------
      1        7           0.253740694    0.004374839    0.000000000
      2        7          -0.253740694   -0.004374839   -0.000000000
 -------------------------------------------------------------------
 Cartesian Forces:  Max     0.253740694 RMS     0.146519030

 GradGradGradGradGradGradGradGradGradGradGradGradGradGradGradGradGradGrad
 Berny optimization.
 FormGI is forming the generalized inverse of G from B-inverse, IUseBI=4.
 Internal  Forces:  Max     0.253778405 RMS     0.253778405
 Search for a local minimum.
 Step number   1 out of a maximum of   20
 All quantities printed in internal units (Hartrees-Bohrs-Radians)
 Mixed Optimization -- RFO/linear search
 Second derivative matrix not updated -- first step.
 The second derivative matrix:
                          R1
           R1           0.87240
 ITU=  0
     Eigenvalues ---    0.87240
 RFO step:  Lambda=-6.84522925D-02 EMin= 8.72399744D-01
 Linear search not attempted -- first point.
 Iteration  1 RMS(Cart)=  0.14142136 RMS(Int)=  0.06973254
 Iteration  2 RMS(Cart)=  0.04930835 RMS(Int)=  0.00000000
 Iteration  3 RMS(Cart)=  0.00000000 RMS(Int)=  0.00000000
 ClnCor:  largest displacement from symmetrization is 5.00D-16 for atom     1.
 Variable       Old X    -DE/DX   Delta X   Delta X   Delta X     New X
                                 (Linear)    (Quad)   (Total)
    R1        2.34232  -0.25378   0.00000  -0.26973  -0.26973   2.07258
         Item               Value     Threshold  Converged?
 Maximum Force            0.253778     0.000450     NO 
 RMS     Force            0.253778     0.000300     NO 
 Maximum Displacement     0.134846     0.001800     NO 
 RMS     Displacement     0.190730     0.001200     NO 
 Predicted change in Energy=-3.671629D-02
 GradGradGradGradGradGradGradGradGradGradGradGradGradGradGradGradGradGrad

                          Input orientation:                          
 ---------------------------------------------------------------------
 Center     Atomic      Atomic             Coordinates (Angstroms)
 Number     Number       Type             X           Y           Z
 ---------------------------------------------------------------------
      1          7           0        0.071358    2.170034    0.000000
      2          7           0        1.167959    2.188941    0.000000
 ---------------------------------------------------------------------
 Stoichiometry    N2
 Framework group  D*H[C*(N.N)]
 Deg. of freedom     1
 Full point group                 D*H     NOp   8
 Largest Abelian subgroup         D2H     NOp   8
 Largest concise Abelian subgroup C2      NOp   2
                         Standard orientation:                         
 ---------------------------------------------------------------------
 Center     Atomic      Atomic             Coordinates (Angstroms)
 Number     Number       Type             X           Y           Z
 ---------------------------------------------------------------------
      1          7           0        0.000000   -0.000000    0.548382
      2          7           0        0.000000    0.000000   -0.548382
 ---------------------------------------------------------------------
 Rotational constants (GHZ):           0.0000000          60.0063749          60.0063749
 Standard basis: CC-pVDZ (5D, 7F)
 There are     8 symmetry adapted cartesian basis functions of AG  symmetry.
 There are     1 symmetry adapted cartesian basis functions of B1G symmetry.
 There are     3 symmetry adapted cartesian basis functions of B2G symmetry.
 There are     3 symmetry adapted cartesian basis functions of B3G symmetry.
 There are     1 symmetry adapted cartesian basis functions of AU  symmetry.
 There are     8 symmetry adapted cartesian basis functions of B1U symmetry.
 There are     3 symmetry adapted cartesian basis functions of B2U symmetry.
 There are     3 symmetry adapted cartesian basis functions of B3U symmetry.
 There are     7 symmetry adapted basis functions of AG  symmetry.
 There are     1 symmetry adapted basis functions of B1G symmetry.
 There are     3 symmetry adapted basis functions of B2G symmetry.
 There are     3 symmetry adapted basis functions of B3G symmetry.
 There are     1 symmetry adapted basis functions of AU  symmetry.
 There are     7 symmetry adapted basis functions of B1U symmetry.
 There are     3 symmetry adapted basis functions of B2U symmetry.
 There are     3 symmetry adapted basis functions of B3U symmetry.
    28 basis functions,    66 primitive gaussians,    30 cartesian basis functions
     7 alpha electrons        7 beta electrons
       nuclear repulsion energy        23.6419885706 Hartrees.
 NAtoms=    2 NActive=    2 NUniq=    1 SFac= 4.00D+00 NAtFMM=   60 NAOKFM=F Big=F
 Integral buffers will be    131072 words long.
 Raffenetti 2 integral format.
 Two-electron integral symmetry is turned on.
 One-electron integrals computed using PRISM.
 NBasis=    28 RedAO= T EigKep=  6.13D-03  NBF=     7     1     3     3     1     7     3     3
 NBsUse=    28 1.00D-06 EigRej= -1.00D+00 NBFU=     7     1     3     3     1     7     3     3
 Initial guess from the checkpoint file:  "N2-B3LYP-ccpvdz.chk"
 B after Tr=    -0.000000   -0.000000   -0.000000
         Rot=    1.000000    0.000000    0.000000    0.000000 Ang=   0.00 deg.
 Initial guess orbital symmetries:
       Occupied  (SGG) (SGU) (SGG) (SGU) (PIU) (PIU) (SGG)
       Virtual   (PIG) (PIG) (SGU) (PIU) (PIU) (SGG) (SGU) (PIG)
                 (PIG) (SGG) (SGU) (PIU) (PIU) (DLTG) (DLTG) (DLTU)
                 (DLTU) (SGG) (PIG) (PIG) (SGU)
 ExpMin= 2.18D-01 ExpMax= 9.05D+03 ExpMxC= 3.09D+02 IAcc=3 IRadAn=         5 AccDes= 0.00D+00
 Harris functional with IExCor=  402 and IRadAn=       5 diagonalized for initial guess.
 HarFok:  IExCor=  402 AccDes= 0.00D+00 IRadAn=         5 IDoV= 1 UseB2=F ITyADJ=14
 ICtDFT=  3500011 ScaDFX=  1.000000  1.000000  1.000000  1.000000
 FoFCou: FMM=F IPFlag=           0 FMFlag=      100000 FMFlg1=           0
         NFxFlg=           0 DoJE=T BraDBF=F KetDBF=T FulRan=T
         wScrn=  0.000000 ICntrl=       500 IOpCl=  0 I1Cent=   200000004 NGrid=           0
         NMat0=    1 NMatS0=      1 NMatT0=    0 NMatD0=    1 NMtDS0=    0 NMtDT0=    0
 Petite list used in FoFCou.
 Keep R1 ints in memory in symmetry-blocked form, NReq=20812887.
 Requested convergence on RMS density matrix=1.00D-08 within 128 cycles.
 Requested convergence on MAX density matrix=1.00D-06.
 Requested convergence on             energy=1.00D-06.
 No special actions if energy rises.
 Integral accuracy reduced to 1.0D-05 until final iterations.
 Initial convergence to 1.0D-05 achieved.  Increase integral accuracy.
 SCF Done:  E(RB3LYP) =  -109.533204201     A.U. after    9 cycles
            NFock=  9  Conv=0.20D-09     -V/T= 2.0056
 Calling FoFJK, ICntrl=      2127 FMM=F ISym2X=1 I1Cent= 0 IOpClX= 0 NMat=1 NMatS=1 NMatT=0.
 ***** Axes restored to original set *****
 -------------------------------------------------------------------
 Center     Atomic                   Forces (Hartrees/Bohr)
 Number     Number              X              Y              Z
 -------------------------------------------------------------------
      1        7          -0.023806799   -0.000410462    0.000000000
      2        7           0.023806799    0.000410462   -0.000000000
 -------------------------------------------------------------------
 Cartesian Forces:  Max     0.023806799 RMS     0.013746904

 GradGradGradGradGradGradGradGradGradGradGradGradGradGradGradGradGradGrad
 Berny optimization.
 Using GEDIIS/GDIIS optimizer.
 Internal  Forces:  Max     0.023810337 RMS     0.023810337
 Search for a local minimum.
 Step number   2 out of a maximum of   20
 All quantities printed in internal units (Hartrees-Bohrs-Radians)
 Mixed Optimization -- RFO/linear search
 Update second derivatives using D2CorX and points    1    2
 DE= -3.79D-02 DEPred=-3.67D-02 R= 1.03D+00
 TightC=F SS=  1.41D+00  RLast= 2.70D-01 DXNew= 5.0454D-01 8.0920D-01
 Trust test= 1.03D+00 RLast= 2.70D-01 DXMaxT set to 5.05D-01
 The second derivative matrix:
                          R1
           R1           1.02913
 ITU=  1  0
 Use linear search instead of GDIIS.
     Eigenvalues ---    1.02913
 RFO step:  Lambda= 0.00000000D+00 EMin= 1.02912591D+00
 Quartic linear search produced a step of -0.05479.
 Iteration  1 RMS(Cart)=  0.01044959 RMS(Int)=  0.00000000
 Iteration  2 RMS(Cart)=  0.00000000 RMS(Int)=  0.00000000
 ClnCor:  largest displacement from symmetrization is 5.00D-16 for atom     1.
 Variable       Old X    -DE/DX   Delta X   Delta X   Delta X     New X
                                 (Linear)    (Quad)   (Total)
    R1        2.07258   0.02381   0.01478   0.00000   0.01478   2.08736
         Item               Value     Threshold  Converged?
 Maximum Force            0.023810     0.000450     NO 
 RMS     Force            0.023810     0.000300     NO 
 Maximum Displacement     0.007388     0.001800     NO 
 RMS     Displacement     0.010450     0.001200     NO 
 Predicted change in Energy=-2.394937D-04
 GradGradGradGradGradGradGradGradGradGradGradGradGradGradGradGradGradGrad

                          Input orientation:                          
 ---------------------------------------------------------------------
 Center     Atomic      Atomic             Coordinates (Angstroms)
 Number     Number       Type             X           Y           Z
 ---------------------------------------------------------------------
      1          7           0        0.067448    2.169966   -0.000000
      2          7           0        1.171868    2.189008    0.000000
 ---------------------------------------------------------------------
 Stoichiometry    N2
 Framework group  D*H[C*(N.N)]
 Deg. of freedom     1
 Full point group                 D*H     NOp   8
 Largest Abelian subgroup         D2H     NOp   8
 Largest concise Abelian subgroup C2      NOp   2
                         Standard orientation:                         
 ---------------------------------------------------------------------
 Center     Atomic      Atomic             Coordinates (Angstroms)
 Number     Number       Type             X           Y           Z
 ---------------------------------------------------------------------
      1          7           0       -0.000000   -0.000000    0.552292
      2          7           0        0.000000    0.000000   -0.552292
 ---------------------------------------------------------------------
 Rotational constants (GHZ):           0.0000000          59.1597249          59.1597249
 Standard basis: CC-pVDZ (5D, 7F)
 There are     8 symmetry adapted cartesian basis functions of AG  symmetry.
 There are     1 symmetry adapted cartesian basis functions of B1G symmetry.
 There are     3 symmetry adapted cartesian basis functions of B2G symmetry.
 There are     3 symmetry adapted cartesian basis functions of B3G symmetry.
 There are     1 symmetry adapted cartesian basis functions of AU  symmetry.
 There are     8 symmetry adapted cartesian basis functions of B1U symmetry.
 There are     3 symmetry adapted cartesian basis functions of B2U symmetry.
 There are     3 symmetry adapted cartesian basis functions of B3U symmetry.
 There are     7 symmetry adapted basis functions of AG  symmetry.
 There are     1 symmetry adapted basis functions of B1G symmetry.
 There are     3 symmetry adapted basis functions of B2G symmetry.
 There are     3 symmetry adapted basis functions of B3G symmetry.
 There are     1 symmetry adapted basis functions of AU  symmetry.
 There are     7 symmetry adapted basis functions of B1U symmetry.
 There are     3 symmetry adapted basis functions of B2U symmetry.
 There are     3 symmetry adapted basis functions of B3U symmetry.
    28 basis functions,    66 primitive gaussians,    30 cartesian basis functions
     7 alpha electrons        7 beta electrons
       nuclear repulsion energy        23.4746096984 Hartrees.
 NAtoms=    2 NActive=    2 NUniq=    1 SFac= 4.00D+00 NAtFMM=   60 NAOKFM=F Big=F
 Integral buffers will be    131072 words long.
 Raffenetti 2 integral format.
 Two-electron integral symmetry is turned on.
 One-electron integrals computed using PRISM.
 NBasis=    28 RedAO= T EigKep=  6.32D-03  NBF=     7     1     3     3     1     7     3     3
 NBsUse=    28 1.00D-06 EigRej= -1.00D+00 NBFU=     7     1     3     3     1     7     3     3
 Initial guess from the checkpoint file:  "N2-B3LYP-ccpvdz.chk"
 B after Tr=     0.000000   -0.000000   -0.000000
         Rot=    1.000000   -0.000000   -0.000000    0.000000 Ang=   0.00 deg.
 Initial guess orbital symmetries:
       Occupied  (SGG) (SGU) (SGG) (SGU) (PIU) (PIU) (SGG)
       Virtual   (PIG) (PIG) (SGU) (SGG) (PIU) (PIU) (SGG) (PIG)
                 (PIG) (SGU) (SGU) (DLTG) (DLTG) (PIU) (PIU) (DLTU)
                 (DLTU) (SGG) (PIG) (PIG) (SGU)
 Keep R1 ints in memory in symmetry-blocked form, NReq=20812887.
 Requested convergence on RMS density matrix=1.00D-08 within 128 cycles.
 Requested convergence on MAX density matrix=1.00D-06.
 Requested convergence on             energy=1.00D-06.
 No special actions if energy rises.
 SCF Done:  E(RB3LYP) =  -109.533375364     A.U. after    6 cycles
            NFock=  6  Conv=0.20D-08     -V/T= 2.0060
 Calling FoFJK, ICntrl=      2127 FMM=F ISym2X=1 I1Cent= 0 IOpClX= 0 NMat=1 NMatS=1 NMatT=0.
 ***** Axes restored to original set *****
 -------------------------------------------------------------------
 Center     Atomic                   Forces (Hartrees/Bohr)
 Number     Number              X              Y              Z
 -------------------------------------------------------------------
      1        7           0.000419996    0.000007241    0.000000000
      2        7          -0.000419996   -0.000007241   -0.000000000
 -------------------------------------------------------------------
 Cartesian Forces:  Max     0.000419996 RMS     0.000242521

 GradGradGradGradGradGradGradGradGradGradGradGradGradGradGradGradGradGrad
 Berny optimization.
 Using GEDIIS/GDIIS optimizer.
 Internal  Forces:  Max     0.000420059 RMS     0.000420059
 Search for a local minimum.
 Step number   3 out of a maximum of   20
 All quantities printed in internal units (Hartrees-Bohrs-Radians)
 Mixed Optimization -- En-DIIS/RFO-DIIS
 Update second derivatives using D2CorX and points    2    3
 DE= -1.71D-04 DEPred=-2.39D-04 R= 7.15D-01
 TightC=F SS=  1.41D+00  RLast= 1.48D-02 DXNew= 8.4853D-01 4.4334D-02
 Trust test= 7.15D-01 RLast= 1.48D-02 DXMaxT set to 5.05D-01
 The second derivative matrix:
                          R1
           R1           1.63963
 ITU=  1  1
 Use linear search instead of GDIIS.
     Eigenvalues ---    1.63963
 RFO step:  Lambda= 0.00000000D+00 EMin= 1.63963118D+00
 Quartic linear search produced a step of -0.01782.
 Iteration  1 RMS(Cart)=  0.00018624 RMS(Int)=  0.00000000
 Iteration  2 RMS(Cart)=  0.00000000 RMS(Int)=  0.00000000
 ClnCor:  largest displacement from symmetrization is 1.33D-15 for atom     2.
 Variable       Old X    -DE/DX   Delta X   Delta X   Delta X     New X
                                 (Linear)    (Quad)   (Total)
    R1        2.08736  -0.00042  -0.00026   0.00000  -0.00026   2.08710
         Item               Value     Threshold  Converged?
 Maximum Force            0.000420     0.000450     YES
 RMS     Force            0.000420     0.000300     NO 
 Maximum Displacement     0.000132     0.001800     YES
 RMS     Displacement     0.000186     0.001200     YES
 Predicted change in Energy=-5.376519D-08
 GradGradGradGradGradGradGradGradGradGradGradGradGradGradGradGradGradGrad

                          Input orientation:                          
 ---------------------------------------------------------------------
 Center     Atomic      Atomic             Coordinates (Angstroms)
 Number     Number       Type             X           Y           Z
 ---------------------------------------------------------------------
      1          7           0        0.067518    2.169967    0.000000
      2          7           0        1.171798    2.189007    0.000000
 ---------------------------------------------------------------------
 Stoichiometry    N2
 Framework group  D*H[C*(N.N)]
 Deg. of freedom     1
 Full point group                 D*H     NOp   8
 Largest Abelian subgroup         D2H     NOp   8
 Largest concise Abelian subgroup C2      NOp   2
                         Standard orientation:                         
 ---------------------------------------------------------------------
 Center     Atomic      Atomic             Coordinates (Angstroms)
 Number     Number       Type             X           Y           Z
 ---------------------------------------------------------------------
      1          7           0        0.000000   -0.000000    0.552222
      2          7           0        0.000000   -0.000000   -0.552222
 ---------------------------------------------------------------------
 Rotational constants (GHZ):           0.0000000          59.1746574          59.1746574
 Standard basis: CC-pVDZ (5D, 7F)
 There are     8 symmetry adapted cartesian basis functions of AG  symmetry.
 There are     1 symmetry adapted cartesian basis functions of B1G symmetry.
 There are     3 symmetry adapted cartesian basis functions of B2G symmetry.
 There are     3 symmetry adapted cartesian basis functions of B3G symmetry.
 There are     1 symmetry adapted cartesian basis functions of AU  symmetry.
 There are     8 symmetry adapted cartesian basis functions of B1U symmetry.
 There are     3 symmetry adapted cartesian basis functions of B2U symmetry.
 There are     3 symmetry adapted cartesian basis functions of B3U symmetry.
 There are     7 symmetry adapted basis functions of AG  symmetry.
 There are     1 symmetry adapted basis functions of B1G symmetry.
 There are     3 symmetry adapted basis functions of B2G symmetry.
 There are     3 symmetry adapted basis functions of B3G symmetry.
 There are     1 symmetry adapted basis functions of AU  symmetry.
 There are     7 symmetry adapted basis functions of B1U symmetry.
 There are     3 symmetry adapted basis functions of B2U symmetry.
 There are     3 symmetry adapted basis functions of B3U symmetry.
    28 basis functions,    66 primitive gaussians,    30 cartesian basis functions
     7 alpha electrons        7 beta electrons
       nuclear repulsion energy        23.4775721242 Hartrees.
 NAtoms=    2 NActive=    2 NUniq=    1 SFac= 4.00D+00 NAtFMM=   60 NAOKFM=F Big=F
 Integral buffers will be    131072 words long.
 Raffenetti 2 integral format.
 Two-electron integral symmetry is turned on.
 One-electron integrals computed using PRISM.
 NBasis=    28 RedAO= T EigKep=  6.31D-03  NBF=     7     1     3     3     1     7     3     3
 NBsUse=    28 1.00D-06 EigRej= -1.00D+00 NBFU=     7     1     3     3     1     7     3     3
 Initial guess from the checkpoint file:  "N2-B3LYP-ccpvdz.chk"
 B after Tr=    -0.000000    0.000000    0.000000
         Rot=    1.000000   -0.000000   -0.000000   -0.000000 Ang=   0.00 deg.
 Initial guess orbital symmetries:
       Occupied  (SGG) (SGU) (SGG) (SGU) (PIU) (PIU) (SGG)
       Virtual   (PIG) (PIG) (SGU) (SGG) (PIU) (PIU) (SGG) (PIG)
                 (PIG) (SGU) (SGU) (DLTG) (DLTG) (PIU) (PIU) (DLTU)
                 (DLTU) (SGG) (PIG) (PIG) (SGU)
 Keep R1 ints in memory in symmetry-blocked form, NReq=20812887.
 Requested convergence on RMS density matrix=1.00D-08 within 128 cycles.
 Requested convergence on MAX density matrix=1.00D-06.
 Requested convergence on             energy=1.00D-06.
 No special actions if energy rises.
 SCF Done:  E(RB3LYP) =  -109.533375419     A.U. after    4 cycles
            NFock=  4  Conv=0.77D-08     -V/T= 2.0060
 Calling FoFJK, ICntrl=      2127 FMM=F ISym2X=1 I1Cent= 0 IOpClX= 0 NMat=1 NMatS=1 NMatT=0.
 ***** Axes restored to original set *****
 -------------------------------------------------------------------
 Center     Atomic                   Forces (Hartrees/Bohr)
 Number     Number              X              Y              Z
 -------------------------------------------------------------------
      1        7          -0.000000046   -0.000000001    0.000000000
      2        7           0.000000046    0.000000001   -0.000000000
 -------------------------------------------------------------------
 Cartesian Forces:  Max     0.000000046 RMS     0.000000027

 GradGradGradGradGradGradGradGradGradGradGradGradGradGradGradGradGradGrad
 Berny optimization.
 Using GEDIIS/GDIIS optimizer.
 Internal  Forces:  Max     0.000000046 RMS     0.000000046
 Search for a local minimum.
 Step number   4 out of a maximum of   20
 All quantities printed in internal units (Hartrees-Bohrs-Radians)
 Mixed Optimization -- En-DIIS/RFO-DIIS
 Swapping is turned off.
 Update second derivatives using D2CorX and points    4
 DE= -5.53D-08 DEPred=-5.38D-08 R= 1.03D+00
 Trust test= 1.03D+00 RLast= 2.63D-04 DXMaxT set to 5.05D-01
 The second derivative matrix:
                          R1
           R1           1.63963
 ITU=  0  1
     Eigenvalues ---    1.63963
 En-DIIS/RFO-DIIS/Sim-DIIS IScMMF=       -3 using points:     4    3
 RFO step:  Lambda=-1.33226763D-15.
 DIIS inversion failure, remove point   2.
 Use linear search instead of GDIIS.
 RFO step:  Lambda= 0.00000000D+00 EMin= 1.63963118D+00
 Quartic linear search produced a step of -0.00011.
 Iteration  1 RMS(Cart)=  0.00000002 RMS(Int)=  0.00000000
 ClnCor:  largest displacement from symmetrization is 2.22D-16 for atom     1.
 Variable       Old X    -DE/DX   Delta X   Delta X   Delta X     New X
                                 (Linear)    (Quad)   (Total)
    R1        2.08710   0.00000   0.00000  -0.00000   0.00000   2.08710
         Item               Value     Threshold  Converged?
 Maximum Force            0.000000     0.000450     YES
 RMS     Force            0.000000     0.000300     YES
 Maximum Displacement     0.000000     0.001800     YES
 RMS     Displacement     0.000000     0.001200     YES
 Predicted change in Energy=-6.474996D-16
 Optimization completed.
    -- Stationary point found.
                           ----------------------------
                           !   Optimized Parameters   !
                           ! (Angstroms and Degrees)  !
 --------------------------                            --------------------------
 ! Name  Definition              Value          Derivative Info.                !
 --------------------------------------------------------------------------------
 ! R1    R(1,2)                  1.1044         -DE/DX =    0.0                 !
 --------------------------------------------------------------------------------
 GradGradGradGradGradGradGradGradGradGradGradGradGradGradGradGradGradGrad

                          Input orientation:                          
 ---------------------------------------------------------------------
 Center     Atomic      Atomic             Coordinates (Angstroms)
 Number     Number       Type             X           Y           Z
 ---------------------------------------------------------------------
      1          7           0        0.067518    2.169967    0.000000
      2          7           0        1.171798    2.189007    0.000000
 ---------------------------------------------------------------------
 Stoichiometry    N2
 Framework group  D*H[C*(N.N)]
 Deg. of freedom     1
 Full point group                 D*H     NOp   8
 Largest Abelian subgroup         D2H     NOp   8
 Largest concise Abelian subgroup C2      NOp   2
                         Standard orientation:                         
 ---------------------------------------------------------------------
 Center     Atomic      Atomic             Coordinates (Angstroms)
 Number     Number       Type             X           Y           Z
 ---------------------------------------------------------------------
      1          7           0        0.000000   -0.000000    0.552222
      2          7           0        0.000000   -0.000000   -0.552222
 ---------------------------------------------------------------------
 Rotational constants (GHZ):           0.0000000          59.1746574          59.1746574

 **********************************************************************

            Population analysis using the SCF Density.

 **********************************************************************

 Orbital symmetries:
       Occupied  (SGG) (SGU) (SGG) (SGU) (PIU) (PIU) (SGG)
       Virtual   (PIG) (PIG) (SGU) (SGG) (PIU) (PIU) (SGG) (PIG)
                 (PIG) (SGU) (SGU) (DLTG) (DLTG) (PIU) (PIU) (DLTU)
                 (DLTU) (SGG) (PIG) (PIG) (SGU)
 The electronic state is 1-SGG.
 Alpha  occ. eigenvalues --  -14.43182 -14.43031  -1.12072  -0.54826  -0.45834
 Alpha  occ. eigenvalues --   -0.45834  -0.42102
 Alpha virt. eigenvalues --   -0.01835  -0.01835   0.42143   0.62632   0.63650
 Alpha virt. eigenvalues --    0.63650   0.77216   0.78317   0.78317   0.83322
 Alpha virt. eigenvalues --    1.38801   1.48740   1.48740   1.57624   1.57624
 Alpha virt. eigenvalues --    1.97738   1.97738   2.52938   2.64488   2.64488
 Alpha virt. eigenvalues --    2.87375
          Condensed to atoms (all electrons):
               1          2
     1  N    6.271325   0.728675
     2  N    0.728675   6.271325
 Mulliken charges:
               1
     1  N    0.000000
     2  N    0.000000
 Sum of Mulliken charges =   0.00000
 Mulliken charges with hydrogens summed into heavy atoms:
               1
     1  N    0.000000
     2  N    0.000000
 Electronic spatial extent (au):  <R**2>=             38.5771
 Charge=              0.0000 electrons
 Dipole moment (field-independent basis, Debye):
    X=             -0.0000    Y=             -0.0000    Z=             -0.0000  Tot=              0.0000
 Quadrupole moment (field-independent basis, Debye-Ang):
   XX=             -9.9076   YY=             -9.9076   ZZ=            -11.5662
   XY=             -0.0000   XZ=              0.0000   YZ=              0.0000
 Traceless Quadrupole moment (field-independent basis, Debye-Ang):
   XX=              0.5529   YY=              0.5529   ZZ=             -1.1057
   XY=             -0.0000   XZ=              0.0000   YZ=              0.0000
 Octapole moment (field-independent basis, Debye-Ang**2):
  XXX=             -0.0000  YYY=             -0.0000  ZZZ=             -0.0000  XYY=             -0.0000
  XXY=             -0.0000  XXZ=             -0.0000  XZZ=             -0.0000  YZZ=             -0.0000
  YYZ=             -0.0000  XYZ=              0.0000
 Hexadecapole moment (field-independent basis, Debye-Ang**3):
 XXXX=             -7.6718 YYYY=             -7.6718 ZZZZ=            -30.1712 XXXY=             -0.0000
 XXXZ=              0.0000 YYYX=             -0.0000 YYYZ=              0.0000 ZZZX=              0.0000
 ZZZY=              0.0000 XXYY=             -2.5573 XXZZ=             -5.8951 YYZZ=             -5.8951
 XXYZ=              0.0000 YYXZ=              0.0000 ZZXY=             -0.0000
 N-N= 2.347757212422D+01 E-N=-3.031874559071D+02  KE= 1.088765025623D+02
 Symmetry AG   KE= 5.328694894286D+01
 Symmetry B1G  KE= 1.991402202755D-34
 Symmetry B2G  KE= 1.355614474862D-31
 Symmetry B3G  KE= 1.286726333908D-32
 Symmetry AU   KE= 4.139396849817D-34
 Symmetry B1U  KE= 4.878364614256D+01
 Symmetry B2U  KE= 3.402953738436D+00
 Symmetry B3U  KE= 3.402953738436D+00
 ******************************Gaussian NBO Version 3.1******************************
             N A T U R A L   A T O M I C   O R B I T A L   A N D
          N A T U R A L   B O N D   O R B I T A L   A N A L Y S I S
 ******************************Gaussian NBO Version 3.1******************************
       /RESON  / : Allow strongly delocalized NBO set

 Analyzing the SCF density

 Job title: N2-opt-B3LYP-cc-pvdz                                            

 Storage needed:      2518 in NPA,      3238 in NBO (1342177252 available)
 GSVD:  LWork=         504 too small for GESVD, short by         266 words or         266 for optimal perf.
 GSVD:  LWork=          -8 too small for GESVD, short by        1538 words or        1538 for optimal perf.


 NATURAL POPULATIONS:  Natural atomic orbital occupancies 
                                                          
   NAO  Atom  No  lang   Type(AO)    Occupancy      Energy
 ----------------------------------------------------------
     1    N    1  S      Cor( 1S)     1.99970     -14.21821
     2    N    1  S      Val( 2S)     1.62285      -0.65383
     3    N    1  S      Ryd( 3S)     0.01979       1.04696
     4    N    1  px     Val( 2p)     0.99542      -0.21705
     5    N    1  px     Ryd( 3p)     0.00006       0.70530
     6    N    1  py     Val( 2p)     0.99542      -0.21705
     7    N    1  py     Ryd( 3p)     0.00006       0.70530
     8    N    1  pz     Val( 2p)     1.34570      -0.17916
     9    N    1  pz     Ryd( 3p)     0.00658       0.64593
    10    N    1  dxy    Ryd( 3d)     0.00000       1.73239
    11    N    1  dxz    Ryd( 3d)     0.00452       2.09379
    12    N    1  dyz    Ryd( 3d)     0.00452       2.09379
    13    N    1  dx2y2  Ryd( 3d)     0.00000       1.73239
    14    N    1  dz2    Ryd( 3d)     0.00539       2.60437
 
    15    N    2  S      Cor( 1S)     1.99970     -14.21821
    16    N    2  S      Val( 2S)     1.62285      -0.65383
    17    N    2  S      Ryd( 3S)     0.01979       1.04696
    18    N    2  px     Val( 2p)     0.99542      -0.21705
    19    N    2  px     Ryd( 3p)     0.00006       0.70530
    20    N    2  py     Val( 2p)     0.99542      -0.21705
    21    N    2  py     Ryd( 3p)     0.00006       0.70530
    22    N    2  pz     Val( 2p)     1.34570      -0.17916
    23    N    2  pz     Ryd( 3p)     0.00658       0.64593
    24    N    2  dxy    Ryd( 3d)     0.00000       1.73239
    25    N    2  dxz    Ryd( 3d)     0.00452       2.09379
    26    N    2  dyz    Ryd( 3d)     0.00452       2.09379
    27    N    2  dx2y2  Ryd( 3d)     0.00000       1.73239
    28    N    2  dz2    Ryd( 3d)     0.00539       2.60437


 Summary of Natural Population Analysis:                  
                                                          
                                       Natural Population 
                Natural  -----------------------------------------------
    Atom  No    Charge         Core      Valence    Rydberg      Total
 -----------------------------------------------------------------------
      N    1    0.00000      1.99970     4.95939    0.04091     7.00000
      N    2    0.00000      1.99970     4.95939    0.04091     7.00000
 =======================================================================
   * Total *    0.00000      3.99939     9.91878    0.08183    14.00000

                                 Natural Population      
 --------------------------------------------------------
   Core                       3.99939 ( 99.9849% of   4)
   Valence                    9.91878 ( 99.1878% of  10)
   Natural Minimal Basis     13.91817 ( 99.4155% of  14)
   Natural Rydberg Basis      0.08183 (  0.5845% of  14)
 --------------------------------------------------------

    Atom  No          Natural Electron Configuration
 ----------------------------------------------------------------------------
      N    1      [core]2S( 1.62)2p( 3.34)3S( 0.02)3p( 0.01)3d( 0.01)
      N    2      [core]2S( 1.62)2p( 3.34)3S( 0.02)3p( 0.01)3d( 0.01)


 NATURAL BOND ORBITAL ANALYSIS:

                       Occupancies       Lewis Structure    Low   High
           Occ.    -------------------  -----------------   occ   occ
  Cycle   Thresh.   Lewis   Non-Lewis     CR  BD  3C  LP    (L)   (NL)   Dev
 =============================================================================
   1(1)    1.90    13.98803   0.01197      2   3   0   2     0      0    0.02
 -----------------------------------------------------------------------------

 Structure accepted: No low occupancy Lewis orbitals

 --------------------------------------------------------
   Core                      3.99939 ( 99.985% of   4)
   Valence Lewis             9.98864 ( 99.886% of  10)
  ==================       ============================
   Total Lewis              13.98803 ( 99.915% of  14)
  -----------------------------------------------------
   Valence non-Lewis         0.00000 (  0.000% of  14)
   Rydberg non-Lewis         0.01197 (  0.085% of  14)
  ==================       ============================
   Total non-Lewis           0.01197 (  0.085% of  14)
 --------------------------------------------------------


       (Occupancy)   Bond orbital/ Coefficients/ Hybrids
 ---------------------------------------------------------------------------------
     1. (2.00000) BD ( 1) N   1 - N   2  
                ( 50.00%)   0.7071* N   1 s( 37.90%)p 1.63( 61.69%)d 0.01(  0.40%)
                                            0.0000 -0.6048 -0.1151  0.0000  0.0000
                                            0.0000  0.0000  0.7837  0.0516  0.0000
                                            0.0000  0.0000  0.0000 -0.0636
                ( 50.00%)   0.7071* N   2 s( 37.90%)p 1.63( 61.69%)d 0.01(  0.40%)
                                           -0.0000 -0.6048 -0.1151  0.0000  0.0000
                                            0.0000  0.0000 -0.7837 -0.0516  0.0000
                                            0.0000  0.0000  0.0000 -0.0636
     2. (2.00000) BD ( 2) N   1 - N   2  
                ( 50.00%)   0.7071* N   1 s(  0.00%)p 1.00( 99.55%)d 0.00(  0.45%)
                                            0.0000  0.0000  0.0000  0.9977 -0.0075
                                            0.0000  0.0000  0.0000  0.0000  0.0000
                                           -0.0672  0.0000  0.0000  0.0000
                ( 50.00%)   0.7071* N   2 s(  0.00%)p 1.00( 99.55%)d 0.00(  0.45%)
                                            0.0000  0.0000  0.0000  0.9977 -0.0075
                                            0.0000  0.0000  0.0000  0.0000  0.0000
                                            0.0672  0.0000  0.0000  0.0000
     3. (2.00000) BD ( 3) N   1 - N   2  
                ( 50.00%)   0.7071* N   1 s(  0.00%)p 1.00( 99.55%)d 0.00(  0.45%)
                                            0.0000  0.0000  0.0000  0.0000  0.0000
                                            0.9977 -0.0075  0.0000  0.0000  0.0000
                                            0.0000 -0.0672  0.0000  0.0000
                ( 50.00%)   0.7071* N   2 s(  0.00%)p 1.00( 99.55%)d 0.00(  0.45%)
                                            0.0000  0.0000  0.0000  0.0000  0.0000
                                            0.9977 -0.0075  0.0000  0.0000  0.0000
                                            0.0000  0.0672  0.0000  0.0000
     4. (1.99970) CR ( 1) N   1           s(100.00%)p 0.00(  0.00%)
                                            1.0000  0.0002 -0.0000  0.0000  0.0000
                                            0.0000  0.0000  0.0002 -0.0000  0.0000
                                            0.0000  0.0000  0.0000 -0.0000
     5. (1.99970) CR ( 1) N   2           s(100.00%)p 0.00(  0.00%)
                                            1.0000  0.0002 -0.0000  0.0000  0.0000
                                            0.0000  0.0000 -0.0002  0.0000  0.0000
                                            0.0000  0.0000  0.0000 -0.0000
     6. (1.99432) LP ( 1) N   1           s( 63.22%)p 0.58( 36.72%)d 0.00(  0.06%)
                                           -0.0003  0.7939 -0.0438  0.0000  0.0000
                                            0.0000  0.0000  0.6056 -0.0207  0.0000
                                            0.0000  0.0000  0.0000 -0.0247
     7. (1.99432) LP ( 1) N   2           s( 63.22%)p 0.58( 36.72%)d 0.00(  0.06%)
                                           -0.0003  0.7939 -0.0438  0.0000  0.0000
                                            0.0000  0.0000 -0.6056  0.0207  0.0000
                                            0.0000  0.0000  0.0000 -0.0247
     8. (0.00595) RY*( 1) N   1           s( 45.48%)p 1.15( 52.53%)d 0.04(  1.99%)
                                            0.0000 -0.0612  0.6716 -0.0000 -0.0000
                                           -0.0000 -0.0000  0.1101 -0.7163 -0.0000
                                           -0.0000 -0.0000 -0.0000  0.1410
     9. (0.00003) RY*( 2) N   1           s( 34.87%)p 0.50( 17.54%)d 1.36( 47.58%)
    10. (0.00000) RY*( 3) N   1           s(  0.00%)p 1.00(100.00%)d 0.00(  0.00%)
    11. (0.00000) RY*( 4) N   1           s(  0.00%)p 1.00(100.00%)d 0.00(  0.00%)
    12. (0.00000) RY*( 5) N   1           s(  0.00%)p 0.00(  0.00%)d 1.00(100.00%)
    13. (0.00000) RY*( 6) N   1           s(  0.00%)p 1.00(  0.45%)d99.99( 99.55%)
    14. (0.00000) RY*( 7) N   1           s(  0.00%)p 1.00(  0.45%)d99.99( 99.55%)
    15. (0.00000) RY*( 8) N   1           s(  0.00%)p 0.00(  0.00%)d 1.00(100.00%)
    16. (0.00000) RY*( 9) N   1           s( 18.52%)p 1.70( 31.52%)d 2.70( 49.96%)
    17. (0.00595) RY*( 1) N   2           s( 45.48%)p 1.15( 52.53%)d 0.04(  1.99%)
                                           -0.0000 -0.0612  0.6716  0.0000  0.0000
                                            0.0000  0.0000 -0.1101  0.7163  0.0000
                                            0.0000  0.0000  0.0000  0.1410
    18. (0.00003) RY*( 2) N   2           s( 34.87%)p 0.50( 17.54%)d 1.36( 47.58%)
    19. (0.00000) RY*( 3) N   2           s(  0.00%)p 1.00(100.00%)d 0.00(  0.00%)
    20. (0.00000) RY*( 4) N   2           s(  0.00%)p 1.00(100.00%)d 0.00(  0.00%)
    21. (0.00000) RY*( 5) N   2           s(  0.00%)p 0.00(  0.00%)d 1.00(100.00%)
    22. (0.00000) RY*( 6) N   2           s(  0.00%)p 1.00(  0.45%)d99.99( 99.55%)
    23. (0.00000) RY*( 7) N   2           s(  0.00%)p 1.00(  0.45%)d99.99( 99.55%)
    24. (0.00000) RY*( 8) N   2           s(  0.00%)p 0.00(  0.00%)d 1.00(100.00%)
    25. (0.00000) RY*( 9) N   2           s( 18.52%)p 1.70( 31.52%)d 2.70( 49.96%)
    26. (0.00000) BD*( 1) N   1 - N   2  
                ( 50.00%)   0.7071* N   1 s( 37.90%)p 1.63( 61.69%)d 0.01(  0.40%)
                ( 50.00%)  -0.7071* N   2 s( 37.90%)p 1.63( 61.69%)d 0.01(  0.40%)
    27. (0.00000) BD*( 2) N   1 - N   2  
                ( 50.00%)   0.7071* N   1 s(  0.00%)p 1.00( 99.55%)d 0.00(  0.45%)
                ( 50.00%)  -0.7071* N   2 s(  0.00%)p 1.00( 99.55%)d 0.00(  0.45%)
    28. (0.00000) BD*( 3) N   1 - N   2  
                ( 50.00%)   0.7071* N   1 s(  0.00%)p 1.00( 99.55%)d 0.00(  0.45%)
                ( 50.00%)  -0.7071* N   2 s(  0.00%)p 1.00( 99.55%)d 0.00(  0.45%)


 NHO Directionality and "Bond Bending" (deviations from line of nuclear centers)

         [Thresholds for printing:  angular deviation  >  1.0 degree]
                                    hybrid p-character > 25.0%
                                    orbital occupancy  >  0.10e

                                Line of Centers        Hybrid 1              Hybrid 2
                                ---------------  -------------------   ------------------
                NBO               Theta   Phi    Theta   Phi    Dev    Theta   Phi    Dev
 ========================================================================================
     2. BD (   2) N   1 - N   2   180.0    0.0    90.0    0.0  90.0     90.0    0.0  90.0
     3. BD (   3) N   1 - N   2   180.0    0.0    90.0   90.0  90.0     90.0   90.0  90.0
     6. LP (   1) N   1             --     --      0.0    0.0   --       --     --    --
     7. LP (   1) N   2             --     --    180.0    0.0   --       --     --    --


 Second Order Perturbation Theory Analysis of Fock Matrix in NBO Basis

     Threshold for printing:   0.50 kcal/mol
                                                                              E(2)  E(j)-E(i) F(i,j)
         Donor NBO (i)                     Acceptor NBO (j)                 kcal/mol   a.u.    a.u. 
 ===================================================================================================

 within unit  1
   1. BD (   1) N   1 - N   2        /  8. RY*(   1) N   1                    0.51    2.01    0.028
   1. BD (   1) N   1 - N   2        / 17. RY*(   1) N   2                    0.51    2.01    0.028
   4. CR (   1) N   1                / 17. RY*(   1) N   2                    4.69   14.99    0.237
   5. CR (   1) N   2                /  8. RY*(   1) N   1                    4.69   14.99    0.237
   6. LP (   1) N   1                / 17. RY*(   1) N   2                    7.14    1.40    0.089
   7. LP (   1) N   2                /  8. RY*(   1) N   1                    7.14    1.40    0.089


 Natural Bond Orbitals (Summary):

                                                            Principal Delocalizations
           NBO                        Occupancy    Energy   (geminal,vicinal,remote)
 ====================================================================================
 Molecular unit  1  (N2)
     1. BD (   1) N   1 - N   2          2.00000    -1.23617  8(g),17(g)
     2. BD (   2) N   1 - N   2          2.00000    -0.45834   
     3. BD (   3) N   1 - N   2          2.00000    -0.45834   
     4. CR (   1) N   1                  1.99970   -14.21895  17(v)
     5. CR (   1) N   2                  1.99970   -14.21895  8(v)
     6. LP (   1) N   1                  1.99432    -0.63123  17(v)
     7. LP (   1) N   2                  1.99432    -0.63123  8(v)
     8. RY*(   1) N   1                  0.00595     0.77277   
     9. RY*(   2) N   1                  0.00003     1.88469   
    10. RY*(   3) N   1                  0.00000     0.70651   
    11. RY*(   4) N   1                  0.00000     0.70651   
    12. RY*(   5) N   1                  0.00000     1.73239   
    13. RY*(   6) N   1                  0.00000     2.09001   
    14. RY*(   7) N   1                  0.00000     2.09001   
    15. RY*(   8) N   1                  0.00000     1.73239   
    16. RY*(   9) N   1                  0.00000     1.59504   
    17. RY*(   1) N   2                  0.00595     0.77277   
    18. RY*(   2) N   2                  0.00003     1.88469   
    19. RY*(   3) N   2                  0.00000     0.70651   
    20. RY*(   4) N   2                  0.00000     0.70651   
    21. RY*(   5) N   2                  0.00000     1.73239   
    22. RY*(   6) N   2                  0.00000     2.09001   
    23. RY*(   7) N   2                  0.00000     2.09001   
    24. RY*(   8) N   2                  0.00000     1.73239   
    25. RY*(   9) N   2                  0.00000     1.59504   
    26. BD*(   1) N   1 - N   2          0.00000     0.92368   
    27. BD*(   2) N   1 - N   2          0.00000     0.02939   
    28. BD*(   3) N   1 - N   2          0.00000     0.02939   
       -------------------------------
              Total Lewis   13.98803  ( 99.9145%)
        Valence non-Lewis    0.00000  (  0.0000%)
        Rydberg non-Lewis    0.01197  (  0.0855%)
       -------------------------------
            Total unit  1   14.00000  (100.0000%)
           Charge unit  1    0.00000
 Unable to Open any file for archive entry.
 1\1\GINC-LOCALHOST\FOpt\RB3LYP\CC-pVDZ\N2\USER\21-Mar-2026\0\\# opt fr
 eq b3lyp/cc-pvdz pop=nbo geom=connectivity\\N2-opt-B3LYP-cc-pvdz\\0,1\
 N,0.0675177311,2.1699674888,0.\N,1.1717984489,2.1890068112,0.\\Version
 =ES64L-G16RevC.02\State=1-SGG\HF=-109.5333754\RMSD=7.696e-09\RMSF=2.66
 1e-08\Dipole=0.,0.,0.\Quadrupole=-0.8217196,0.4106766,0.4110431,-0.021
 2545,0.,0.\PG=D*H [C*(N1.N1)]\\@
 The archive entry for this job was punched.


 It takes a long time to grow an old friend.
                            -- John Leonard
 Job cpu time:       0 days  0 hours  0 minutes 59.1 seconds.
 Elapsed time:       0 days  0 hours  0 minutes  4.2 seconds.
 File lengths (MBytes):  RWF=      6 Int=      0 D2E=      0 Chk=      1 Scr=      1
 Normal termination of Gaussian 16 at Sat Mar 21 10:15:59 2026.
 Link1:  Proceeding to internal job step number  2.
 -------------------------------------------------------------------
 #N Geom=AllCheck Guess=TCheck SCRF=Check GenChk RB3LYP/CC-pVDZ Freq
 -------------------------------------------------------------------
 1/10=4,29=7,30=1,38=1,40=1/1,3;
 2/12=2,40=1/2;
 3/5=16,11=2,14=-4,25=1,30=1,70=2,71=2,74=-5,116=1,140=1/1,2,3;
 4/5=101/1;
 5/5=2,38=6,98=1/2;
 8/6=4,10=90,11=11/1;
 11/6=1,8=1,9=11,15=111,16=1/1,2,10;
 10/6=1/2;
 6/7=2,8=2,9=2,10=2,28=1,40=1/1,7;
 7/8=1,10=1,25=1/1,2,3,16;
 1/10=4,30=1/3;
 99//99;
 Structure from the checkpoint file:  "N2-B3LYP-ccpvdz.chk"
 --------------------
 N2-opt-B3LYP-cc-pvdz
 --------------------
 Charge =  0 Multiplicity = 1
 Redundant internal coordinates found in file.  (old form).
 N,0,0.0675177311,2.1699674888,0.
 N,0,1.1717984489,2.1890068112,0.
 Recover connectivity data from disk.

 GradGradGradGradGradGradGradGradGradGradGradGradGradGradGradGradGradGrad
 Berny optimization.
 Initialization pass.
                           ----------------------------
                           !    Initial Parameters    !
                           ! (Angstroms and Degrees)  !
 --------------------------                            --------------------------
 ! Name  Definition              Value          Derivative Info.                !
 --------------------------------------------------------------------------------
 ! R1    R(1,2)                  1.1044         calculate D2E/DX2 analytically  !
 --------------------------------------------------------------------------------
 Trust Radius=3.00D-01 FncErr=1.00D-07 GrdErr=1.00D-07 EigMax=2.50D+02 EigMin=1.00D-04
 Number of steps in this run=      2 maximum allowed number of steps=      2.
 GradGradGradGradGradGradGradGradGradGradGradGradGradGradGradGradGradGrad

                          Input orientation:                          
 ---------------------------------------------------------------------
 Center     Atomic      Atomic             Coordinates (Angstroms)
 Number     Number       Type             X           Y           Z
 ---------------------------------------------------------------------
      1          7           0        0.067518    2.169967    0.000000
      2          7           0        1.171798    2.189007    0.000000
 ---------------------------------------------------------------------
 Stoichiometry    N2
 Framework group  D*H[C*(N.N)]
 Deg. of freedom     1
 Full point group                 D*H     NOp   8
 Largest Abelian subgroup         D2H     NOp   8
 Largest concise Abelian subgroup C2      NOp   2
                         Standard orientation:                         
 ---------------------------------------------------------------------
 Center     Atomic      Atomic             Coordinates (Angstroms)
 Number     Number       Type             X           Y           Z
 ---------------------------------------------------------------------
      1          7           0        0.000000   -0.000000    0.552222
      2          7           0        0.000000   -0.000000   -0.552222
 ---------------------------------------------------------------------
 Rotational constants (GHZ):           0.0000000          59.1746574          59.1746574
 Standard basis: CC-pVDZ (5D, 7F)
 There are     8 symmetry adapted cartesian basis functions of AG  symmetry.
 There are     1 symmetry adapted cartesian basis functions of B1G symmetry.
 There are     3 symmetry adapted cartesian basis functions of B2G symmetry.
 There are     3 symmetry adapted cartesian basis functions of B3G symmetry.
 There are     1 symmetry adapted cartesian basis functions of AU  symmetry.
 There are     8 symmetry adapted cartesian basis functions of B1U symmetry.
 There are     3 symmetry adapted cartesian basis functions of B2U symmetry.
 There are     3 symmetry adapted cartesian basis functions of B3U symmetry.
 There are     7 symmetry adapted basis functions of AG  symmetry.
 There are     1 symmetry adapted basis functions of B1G symmetry.
 There are     3 symmetry adapted basis functions of B2G symmetry.
 There are     3 symmetry adapted basis functions of B3G symmetry.
 There are     1 symmetry adapted basis functions of AU  symmetry.
 There are     7 symmetry adapted basis functions of B1U symmetry.
 There are     3 symmetry adapted basis functions of B2U symmetry.
 There are     3 symmetry adapted basis functions of B3U symmetry.
    28 basis functions,    66 primitive gaussians,    30 cartesian basis functions
     7 alpha electrons        7 beta electrons
       nuclear repulsion energy        23.4775721242 Hartrees.
 NAtoms=    2 NActive=    2 NUniq=    1 SFac= 4.00D+00 NAtFMM=   60 NAOKFM=F Big=F
 Integral buffers will be    131072 words long.
 Raffenetti 2 integral format.
 Two-electron integral symmetry is turned on.
 One-electron integrals computed using PRISM.
 NBasis=    28 RedAO= T EigKep=  6.31D-03  NBF=     7     1     3     3     1     7     3     3
 NBsUse=    28 1.00D-06 EigRej= -1.00D+00 NBFU=     7     1     3     3     1     7     3     3
 Initial guess from the checkpoint file:  "N2-B3LYP-ccpvdz.chk"
 B after Tr=    -0.000000   -0.000000   -0.000000
         Rot=    1.000000    0.000000    0.000000    0.000000 Ang=   0.00 deg.
 Initial guess orbital symmetries:
       Occupied  (SGG) (SGU) (SGG) (SGU) (PIU) (PIU) (SGG)
       Virtual   (PIG) (PIG) (SGU) (SGG) (PIU) (PIU) (SGG) (PIG)
                 (PIG) (SGU) (SGU) (DLTG) (DLTG) (PIU) (PIU) (DLTU)
                 (DLTU) (SGG) (PIG) (PIG) (SGU)
 Keep R1 ints in memory in symmetry-blocked form, NReq=20812887.
 Requested convergence on RMS density matrix=1.00D-08 within 128 cycles.
 Requested convergence on MAX density matrix=1.00D-06.
 Requested convergence on             energy=1.00D-06.
 No special actions if energy rises.
 SCF Done:  E(RB3LYP) =  -109.533375419     A.U. after    1 cycles
            NFock=  1  Conv=0.84D-09     -V/T= 2.0060
 DoSCS=F DFT=T ScalE2(SS,OS)=  1.000000  1.000000
 Range of M.O.s used for correlation:     1    28
 NBasis=    28 NAE=     7 NBE=     7 NFC=     0 NFV=     0
 NROrb=     28 NOA=     7 NOB=     7 NVA=    21 NVB=    21
 Symmetrizing basis deriv contribution to polar:
 IMax=3 JMax=2 DiffMx= 0.00D+00
 G2DrvN: will do     3 centers at a time, making    1 passes.
 Calling FoFCou, ICntrl=  3107 FMM=F I1Cent=   0 AccDes= 0.00D+00.
 End of G2Drv F.D. properties file   721 does not exist.
 End of G2Drv F.D. properties file   722 does not exist.
 End of G2Drv F.D. properties file   788 does not exist.
          IDoAtm=11
          Differentiating once with respect to electric field.
                with respect to dipole field.
          Differentiating once with respect to nuclear coordinates.
 Keep R1 ints in memory in symmetry-blocked form, NReq=20730700.
          There are     6 degrees of freedom in the 1st order CPHF.  IDoFFX=4 NUNeed=     6.
      6 vectors produced by pass  0 Test12= 2.45D-15 1.67D-08 XBig12= 1.37D+01 2.48D+00.
 AX will form     6 AO Fock derivatives at one time.
      6 vectors produced by pass  1 Test12= 2.45D-15 1.67D-08 XBig12= 8.51D+00 1.61D+00.
      6 vectors produced by pass  2 Test12= 2.45D-15 1.67D-08 XBig12= 2.78D-02 7.60D-02.
      6 vectors produced by pass  3 Test12= 2.45D-15 1.67D-08 XBig12= 1.51D-04 5.65D-03.
      6 vectors produced by pass  4 Test12= 2.45D-15 1.67D-08 XBig12= 1.20D-07 1.52D-04.
      4 vectors produced by pass  5 Test12= 2.45D-15 1.67D-08 XBig12= 3.78D-11 3.15D-06.
      1 vectors produced by pass  6 Test12= 2.45D-15 1.67D-08 XBig12= 6.18D-14 1.18D-07.
 InvSVY:  IOpt=1 It=  1 EMax= 2.22D-16
 Solved reduced A of dimension    35 with     6 vectors.
 Isotropic polarizability for W=    0.000000        8.22 Bohr**3.
 End of Minotr F.D. properties file   721 does not exist.
 End of Minotr F.D. properties file   722 does not exist.
 End of Minotr F.D. properties file   788 does not exist.

 **********************************************************************

            Population analysis using the SCF Density.

 **********************************************************************

 Orbital symmetries:
       Occupied  (SGG) (SGU) (SGG) (SGU) (PIU) (PIU) (SGG)
       Virtual   (PIG) (PIG) (SGU) (SGG) (PIU) (PIU) (SGG) (PIG)
                 (PIG) (SGU) (SGU) (DLTG) (DLTG) (PIU) (PIU) (DLTU)
                 (DLTU) (SGG) (PIG) (PIG) (SGU)
 The electronic state is 1-SGG.
 Alpha  occ. eigenvalues --  -14.43182 -14.43031  -1.12072  -0.54826  -0.45834
 Alpha  occ. eigenvalues --   -0.45834  -0.42102
 Alpha virt. eigenvalues --   -0.01835  -0.01835   0.42143   0.62632   0.63650
 Alpha virt. eigenvalues --    0.63650   0.77216   0.78317   0.78317   0.83322
 Alpha virt. eigenvalues --    1.38801   1.48740   1.48740   1.57624   1.57624
 Alpha virt. eigenvalues --    1.97738   1.97738   2.52938   2.64488   2.64488
 Alpha virt. eigenvalues --    2.87375
          Condensed to atoms (all electrons):
               1          2
     1  N    6.271325   0.728675
     2  N    0.728675   6.271325
 Mulliken charges:
               1
     1  N   -0.000000
     2  N   -0.000000
 Sum of Mulliken charges =  -0.00000
 Mulliken charges with hydrogens summed into heavy atoms:
               1
     1  N   -0.000000
     2  N   -0.000000
 APT charges:
               1
     1  N    0.000000
     2  N    0.000000
 Sum of APT charges =   0.00000
 APT charges with hydrogens summed into heavy atoms:
               1
     1  N    0.000000
     2  N    0.000000
 Electronic spatial extent (au):  <R**2>=             38.5771
 Charge=              0.0000 electrons
 Dipole moment (field-independent basis, Debye):
    X=             -0.0000    Y=              0.0000    Z=              0.0000  Tot=              0.0000
 Quadrupole moment (field-independent basis, Debye-Ang):
   XX=             -9.9076   YY=             -9.9076   ZZ=            -11.5662
   XY=              0.0000   XZ=              0.0000   YZ=             -0.0000
 Traceless Quadrupole moment (field-independent basis, Debye-Ang):
   XX=              0.5529   YY=              0.5529   ZZ=             -1.1057
   XY=              0.0000   XZ=              0.0000   YZ=             -0.0000
 Octapole moment (field-independent basis, Debye-Ang**2):
  XXX=             -0.0000  YYY=              0.0000  ZZZ=              0.0000  XYY=             -0.0000
  XXY=              0.0000  XXZ=              0.0000  XZZ=             -0.0000  YZZ=              0.0000
  YYZ=              0.0000  XYZ=             -0.0000
 Hexadecapole moment (field-independent basis, Debye-Ang**3):
 XXXX=             -7.6718 YYYY=             -7.6718 ZZZZ=            -30.1712 XXXY=              0.0000
 XXXZ=              0.0000 YYYX=              0.0000 YYYZ=             -0.0000 ZZZX=              0.0000
 ZZZY=             -0.0000 XXYY=             -2.5573 XXZZ=             -5.8951 YYZZ=             -5.8951
 XXYZ=             -0.0000 YYXZ=              0.0000 ZZXY=              0.0000
 N-N= 2.347757212422D+01 E-N=-3.031874560197D+02  KE= 1.088765026339D+02
 Symmetry AG   KE= 5.328694896629D+01
 Symmetry B1G  KE= 3.430292548533D-34
 Symmetry B2G  KE= 9.375490285743D-32
 Symmetry B3G  KE= 5.241951925063D-32
 Symmetry AU   KE= 6.738164519955D-34
 Symmetry B1U  KE= 4.878364615906D+01
 Symmetry B2U  KE= 3.402953754291D+00
 Symmetry B3U  KE= 3.402953754291D+00
  Exact polarizability:       5.767      -0.000       5.767      -0.000       0.000      13.119
 Approx polarizability:       7.988      -0.000       7.988      -0.000       0.000      27.077
 ******************************Gaussian NBO Version 3.1******************************
             N A T U R A L   A T O M I C   O R B I T A L   A N D
          N A T U R A L   B O N D   O R B I T A L   A N A L Y S I S
 ******************************Gaussian NBO Version 3.1******************************
       /RESON  / : Allow strongly delocalized NBO set

 Analyzing the SCF density

 Job title: N2-opt-B3LYP-cc-pvdz                                            

 Storage needed:      2518 in NPA,      3238 in NBO (1342177252 available)
 GSVD:  LWork=         504 too small for GESVD, short by         266 words or         266 for optimal perf.
 GSVD:  LWork=          -8 too small for GESVD, short by        1538 words or        1538 for optimal perf.


 NATURAL POPULATIONS:  Natural atomic orbital occupancies 
                                                          
   NAO  Atom  No  lang   Type(AO)    Occupancy      Energy
 ----------------------------------------------------------
     1    N    1  S      Cor( 1S)     1.99970     -14.21821
     2    N    1  S      Val( 2S)     1.62285      -0.65383
     3    N    1  S      Ryd( 3S)     0.01979       1.04696
     4    N    1  px     Val( 2p)     0.99542      -0.21705
     5    N    1  px     Ryd( 3p)     0.00006       0.70530
     6    N    1  py     Val( 2p)     0.99542      -0.21705
     7    N    1  py     Ryd( 3p)     0.00006       0.70530
     8    N    1  pz     Val( 2p)     1.34570      -0.17916
     9    N    1  pz     Ryd( 3p)     0.00658       0.64593
    10    N    1  dxy    Ryd( 3d)     0.00000       1.73239
    11    N    1  dxz    Ryd( 3d)     0.00452       2.09379
    12    N    1  dyz    Ryd( 3d)     0.00452       2.09379
    13    N    1  dx2y2  Ryd( 3d)     0.00000       1.73239
    14    N    1  dz2    Ryd( 3d)     0.00539       2.60437
 
    15    N    2  S      Cor( 1S)     1.99970     -14.21821
    16    N    2  S      Val( 2S)     1.62285      -0.65383
    17    N    2  S      Ryd( 3S)     0.01979       1.04696
    18    N    2  px     Val( 2p)     0.99542      -0.21705
    19    N    2  px     Ryd( 3p)     0.00006       0.70530
    20    N    2  py     Val( 2p)     0.99542      -0.21705
    21    N    2  py     Ryd( 3p)     0.00006       0.70530
    22    N    2  pz     Val( 2p)     1.34570      -0.17916
    23    N    2  pz     Ryd( 3p)     0.00658       0.64593
    24    N    2  dxy    Ryd( 3d)     0.00000       1.73239
    25    N    2  dxz    Ryd( 3d)     0.00452       2.09379
    26    N    2  dyz    Ryd( 3d)     0.00452       2.09379
    27    N    2  dx2y2  Ryd( 3d)     0.00000       1.73239
    28    N    2  dz2    Ryd( 3d)     0.00539       2.60437


 Summary of Natural Population Analysis:                  
                                                          
                                       Natural Population 
                Natural  -----------------------------------------------
    Atom  No    Charge         Core      Valence    Rydberg      Total
 -----------------------------------------------------------------------
      N    1    0.00000      1.99970     4.95939    0.04091     7.00000
      N    2   -0.00000      1.99970     4.95939    0.04091     7.00000
 =======================================================================
   * Total *    0.00000      3.99939     9.91878    0.08183    14.00000

                                 Natural Population      
 --------------------------------------------------------
   Core                       3.99939 ( 99.9849% of   4)
   Valence                    9.91878 ( 99.1878% of  10)
   Natural Minimal Basis     13.91817 ( 99.4155% of  14)
   Natural Rydberg Basis      0.08183 (  0.5845% of  14)
 --------------------------------------------------------

    Atom  No          Natural Electron Configuration
 ----------------------------------------------------------------------------
      N    1      [core]2S( 1.62)2p( 3.34)3S( 0.02)3p( 0.01)3d( 0.01)
      N    2      [core]2S( 1.62)2p( 3.34)3S( 0.02)3p( 0.01)3d( 0.01)


 NATURAL BOND ORBITAL ANALYSIS:

                       Occupancies       Lewis Structure    Low   High
           Occ.    -------------------  -----------------   occ   occ
  Cycle   Thresh.   Lewis   Non-Lewis     CR  BD  3C  LP    (L)   (NL)   Dev
 =============================================================================
   1(1)    1.90    13.98803   0.01197      2   3   0   2     0      0    0.02
 -----------------------------------------------------------------------------

 Structure accepted: No low occupancy Lewis orbitals

 --------------------------------------------------------
   Core                      3.99939 ( 99.985% of   4)
   Valence Lewis             9.98864 ( 99.886% of  10)
  ==================       ============================
   Total Lewis              13.98803 ( 99.915% of  14)
  -----------------------------------------------------
   Valence non-Lewis         0.00000 (  0.000% of  14)
   Rydberg non-Lewis         0.01197 (  0.085% of  14)
  ==================       ============================
   Total non-Lewis           0.01197 (  0.085% of  14)
 --------------------------------------------------------


       (Occupancy)   Bond orbital/ Coefficients/ Hybrids
 ---------------------------------------------------------------------------------
     1. (2.00000) BD ( 1) N   1 - N   2  
                ( 50.00%)   0.7071* N   1 s( 37.90%)p 1.63( 61.69%)d 0.01(  0.40%)
                                            0.0000 -0.6048 -0.1151  0.0000  0.0000
                                            0.0000  0.0000  0.7837  0.0516  0.0000
                                            0.0000  0.0000  0.0000 -0.0636
                ( 50.00%)   0.7071* N   2 s( 37.90%)p 1.63( 61.69%)d 0.01(  0.40%)
                                           -0.0000 -0.6048 -0.1151  0.0000  0.0000
                                            0.0000  0.0000 -0.7837 -0.0516  0.0000
                                            0.0000  0.0000  0.0000 -0.0636
     2. (2.00000) BD ( 2) N   1 - N   2  
                ( 50.00%)   0.7071* N   1 s(  0.00%)p 1.00( 99.55%)d 0.00(  0.45%)
                                            0.0000  0.0000  0.0000  0.9977 -0.0075
                                            0.0000  0.0000  0.0000  0.0000  0.0000
                                           -0.0672  0.0000  0.0000  0.0000
                ( 50.00%)   0.7071* N   2 s(  0.00%)p 1.00( 99.55%)d 0.00(  0.45%)
                                            0.0000  0.0000  0.0000  0.9977 -0.0075
                                            0.0000  0.0000  0.0000  0.0000  0.0000
                                            0.0672  0.0000  0.0000  0.0000
     3. (2.00000) BD ( 3) N   1 - N   2  
                ( 50.00%)   0.7071* N   1 s(  0.00%)p 1.00( 99.55%)d 0.00(  0.45%)
                                            0.0000  0.0000  0.0000  0.0000  0.0000
                                            0.9977 -0.0075  0.0000  0.0000  0.0000
                                            0.0000 -0.0672  0.0000  0.0000
                ( 50.00%)   0.7071* N   2 s(  0.00%)p 1.00( 99.55%)d 0.00(  0.45%)
                                            0.0000  0.0000  0.0000  0.0000  0.0000
                                            0.9977 -0.0075  0.0000  0.0000  0.0000
                                            0.0000  0.0672  0.0000  0.0000
     4. (1.99970) CR ( 1) N   1           s(100.00%)p 0.00(  0.00%)
                                            1.0000  0.0002 -0.0000  0.0000  0.0000
                                            0.0000  0.0000  0.0002 -0.0000  0.0000
                                            0.0000  0.0000  0.0000 -0.0000
     5. (1.99970) CR ( 1) N   2           s(100.00%)p 0.00(  0.00%)
                                            1.0000  0.0002 -0.0000  0.0000  0.0000
                                            0.0000  0.0000 -0.0002  0.0000  0.0000
                                            0.0000  0.0000  0.0000 -0.0000
     6. (1.99432) LP ( 1) N   1           s( 63.22%)p 0.58( 36.72%)d 0.00(  0.06%)
                                           -0.0003  0.7939 -0.0438  0.0000  0.0000
                                            0.0000  0.0000  0.6056 -0.0207  0.0000
                                            0.0000  0.0000  0.0000 -0.0247
     7. (1.99432) LP ( 1) N   2           s( 63.22%)p 0.58( 36.72%)d 0.00(  0.06%)
                                           -0.0003  0.7939 -0.0438  0.0000  0.0000
                                            0.0000  0.0000 -0.6056  0.0207  0.0000
                                            0.0000  0.0000  0.0000 -0.0247
     8. (0.00595) RY*( 1) N   1           s( 45.48%)p 1.15( 52.53%)d 0.04(  1.99%)
                                            0.0000 -0.0612  0.6716 -0.0000 -0.0000
                                           -0.0000 -0.0000  0.1101 -0.7163 -0.0000
                                           -0.0000 -0.0000 -0.0000  0.1410
     9. (0.00003) RY*( 2) N   1           s( 34.87%)p 0.50( 17.54%)d 1.36( 47.58%)
    10. (0.00000) RY*( 3) N   1           s(  0.00%)p 1.00(100.00%)d 0.00(  0.00%)
    11. (0.00000) RY*( 4) N   1           s(  0.00%)p 1.00(100.00%)d 0.00(  0.00%)
    12. (0.00000) RY*( 5) N   1           s(  0.00%)p 0.00(  0.00%)d 1.00(100.00%)
    13. (0.00000) RY*( 6) N   1           s(  0.00%)p 1.00(  0.45%)d99.99( 99.55%)
    14. (0.00000) RY*( 7) N   1           s(  0.00%)p 1.00(  0.45%)d99.99( 99.55%)
    15. (0.00000) RY*( 8) N   1           s(  0.00%)p 0.00(  0.00%)d 1.00(100.00%)
    16. (0.00000) RY*( 9) N   1           s( 18.52%)p 1.70( 31.52%)d 2.70( 49.96%)
    17. (0.00595) RY*( 1) N   2           s( 45.48%)p 1.15( 52.53%)d 0.04(  1.99%)
                                           -0.0000 -0.0612  0.6716  0.0000  0.0000
                                            0.0000  0.0000 -0.1101  0.7163  0.0000
                                            0.0000  0.0000  0.0000  0.1410
    18. (0.00003) RY*( 2) N   2           s( 34.87%)p 0.50( 17.54%)d 1.36( 47.58%)
    19. (0.00000) RY*( 3) N   2           s(  0.00%)p 1.00(100.00%)d 0.00(  0.00%)
    20. (0.00000) RY*( 4) N   2           s(  0.00%)p 1.00(100.00%)d 0.00(  0.00%)
    21. (0.00000) RY*( 5) N   2           s(  0.00%)p 0.00(  0.00%)d 1.00(100.00%)
    22. (0.00000) RY*( 6) N   2           s(  0.00%)p 1.00(  0.45%)d99.99( 99.55%)
    23. (0.00000) RY*( 7) N   2           s(  0.00%)p 1.00(  0.45%)d99.99( 99.55%)
    24. (0.00000) RY*( 8) N   2           s(  0.00%)p 0.00(  0.00%)d 1.00(100.00%)
    25. (0.00000) RY*( 9) N   2           s( 18.52%)p 1.70( 31.52%)d 2.70( 49.96%)
    26. (0.00000) BD*( 1) N   1 - N   2  
                ( 50.00%)   0.7071* N   1 s( 37.90%)p 1.63( 61.69%)d 0.01(  0.40%)
                ( 50.00%)  -0.7071* N   2 s( 37.90%)p 1.63( 61.69%)d 0.01(  0.40%)
    27. (0.00000) BD*( 2) N   1 - N   2  
                ( 50.00%)   0.7071* N   1 s(  0.00%)p 1.00( 99.55%)d 0.00(  0.45%)
                ( 50.00%)  -0.7071* N   2 s(  0.00%)p 1.00( 99.55%)d 0.00(  0.45%)
    28. (0.00000) BD*( 3) N   1 - N   2  
                ( 50.00%)   0.7071* N   1 s(  0.00%)p 1.00( 99.55%)d 0.00(  0.45%)
                ( 50.00%)  -0.7071* N   2 s(  0.00%)p 1.00( 99.55%)d 0.00(  0.45%)


 NHO Directionality and "Bond Bending" (deviations from line of nuclear centers)

         [Thresholds for printing:  angular deviation  >  1.0 degree]
                                    hybrid p-character > 25.0%
                                    orbital occupancy  >  0.10e

                                Line of Centers        Hybrid 1              Hybrid 2
                                ---------------  -------------------   ------------------
                NBO               Theta   Phi    Theta   Phi    Dev    Theta   Phi    Dev
 ========================================================================================
     2. BD (   2) N   1 - N   2   180.0    0.0    90.0    0.0  90.0     90.0    0.0  90.0
     3. BD (   3) N   1 - N   2   180.0    0.0    90.0   90.0  90.0     90.0   90.0  90.0
     6. LP (   1) N   1             --     --      0.0    0.0   --       --     --    --
     7. LP (   1) N   2             --     --    180.0    0.0   --       --     --    --


 Second Order Perturbation Theory Analysis of Fock Matrix in NBO Basis

     Threshold for printing:   0.50 kcal/mol
                                                                              E(2)  E(j)-E(i) F(i,j)
         Donor NBO (i)                     Acceptor NBO (j)                 kcal/mol   a.u.    a.u. 
 ===================================================================================================

 within unit  1
   1. BD (   1) N   1 - N   2        /  8. RY*(   1) N   1                    0.51    2.01    0.028
   1. BD (   1) N   1 - N   2        / 17. RY*(   1) N   2                    0.51    2.01    0.028
   4. CR (   1) N   1                / 17. RY*(   1) N   2                    4.69   14.99    0.237
   5. CR (   1) N   2                /  8. RY*(   1) N   1                    4.69   14.99    0.237
   6. LP (   1) N   1                / 17. RY*(   1) N   2                    7.14    1.40    0.089
   7. LP (   1) N   2                /  8. RY*(   1) N   1                    7.14    1.40    0.089


 Natural Bond Orbitals (Summary):

                                                            Principal Delocalizations
           NBO                        Occupancy    Energy   (geminal,vicinal,remote)
 ====================================================================================
 Molecular unit  1  (N2)
     1. BD (   1) N   1 - N   2          2.00000    -1.23617  8(g),17(g)
     2. BD (   2) N   1 - N   2          2.00000    -0.45834   
     3. BD (   3) N   1 - N   2          2.00000    -0.45834   
     4. CR (   1) N   1                  1.99970   -14.21895  17(v)
     5. CR (   1) N   2                  1.99970   -14.21895  8(v)
     6. LP (   1) N   1                  1.99432    -0.63123  17(v)
     7. LP (   1) N   2                  1.99432    -0.63123  8(v)
     8. RY*(   1) N   1                  0.00595     0.77277   
     9. RY*(   2) N   1                  0.00003     1.88469   
    10. RY*(   3) N   1                  0.00000     0.70651   
    11. RY*(   4) N   1                  0.00000     0.70651   
    12. RY*(   5) N   1                  0.00000     1.73239   
    13. RY*(   6) N   1                  0.00000     2.09001   
    14. RY*(   7) N   1                  0.00000     2.09001   
    15. RY*(   8) N   1                  0.00000     1.73239   
    16. RY*(   9) N   1                  0.00000     1.59504   
    17. RY*(   1) N   2                  0.00595     0.77277   
    18. RY*(   2) N   2                  0.00003     1.88469   
    19. RY*(   3) N   2                  0.00000     0.70651   
    20. RY*(   4) N   2                  0.00000     0.70651   
    21. RY*(   5) N   2                  0.00000     1.73239   
    22. RY*(   6) N   2                  0.00000     2.09001   
    23. RY*(   7) N   2                  0.00000     2.09001   
    24. RY*(   8) N   2                  0.00000     1.73239   
    25. RY*(   9) N   2                  0.00000     1.59504   
    26. BD*(   1) N   1 - N   2          0.00000     0.92368   
    27. BD*(   2) N   1 - N   2          0.00000     0.02939   
    28. BD*(   3) N   1 - N   2          0.00000     0.02939   
       -------------------------------
              Total Lewis   13.98803  ( 99.9145%)
        Valence non-Lewis    0.00000  (  0.0000%)
        Rydberg non-Lewis    0.01197  (  0.0855%)
       -------------------------------
            Total unit  1   14.00000  (100.0000%)
           Charge unit  1    0.00000
 Calling FoFJK, ICntrl=    100127 FMM=F ISym2X=1 I1Cent= 0 IOpClX= 0 NMat=1 NMatS=1 NMatT=0.
 Full mass-weighted force constant matrix:
 Low frequencies ---   -0.0011   -0.0011    0.0004    4.6240    4.6240 2454.1067
 Diagonal vibrational polarizability:
        0.0000000       0.0000000       0.0000000
 Harmonic frequencies (cm**-1), IR intensities (KM/Mole), Raman scattering
 activities (A**4/AMU), depolarization ratios for plane and unpolarized
 incident light, reduced masses (AMU), force constants (mDyne/A),
 and normal coordinates:
                      1
                     SGG
 Frequencies --   2454.1067
 Red. masses --     14.0031
 Frc consts  --     49.6890
 IR Inten    --      0.0000
  Atom  AN      X      Y      Z
     1   7    -0.00   0.00   0.71
     2   7     0.00  -0.00  -0.71

 -------------------
 - Thermochemistry -
 -------------------
 Temperature   298.150 Kelvin.  Pressure   1.00000 Atm.
 Atom     1 has atomic number  7 and mass  14.00307
 Atom     2 has atomic number  7 and mass  14.00307
 Molecular mass:    28.00615 amu.
 Principal axes and moments of inertia in atomic units:
                           1         2         3
     Eigenvalues --     0.00000  30.49855  30.49855
           X           -0.00000   0.82433  -0.56611
           Y            0.00000   0.56611   0.82433
           Z            1.00000   0.00000  -0.00000
 This molecule is a prolate symmetric top.
 Rotational symmetry number  2.
 Rotational temperature (Kelvin)      2.83994
 Rotational constant (GHZ):          59.174657
 Zero-point vibrational energy      14678.8 (Joules/Mol)
                                    3.50832 (Kcal/Mol)
 Vibrational temperatures:   3530.91
          (Kelvin)
 
 Zero-point correction=                           0.005591 (Hartree/Particle)
 Thermal correction to Energy=                    0.007951
 Thermal correction to Enthalpy=                  0.008896
 Thermal correction to Gibbs Free Energy=        -0.012857
 Sum of electronic and zero-point Energies=           -109.527785
 Sum of electronic and thermal Energies=              -109.525424
 Sum of electronic and thermal Enthalpies=            -109.524480
 Sum of electronic and thermal Free Energies=         -109.546232
 
                     E (Thermal)             CV                S
                      KCal/Mol        Cal/Mol-Kelvin    Cal/Mol-Kelvin
 Total                    4.990              4.970             45.782
 Electronic               0.000              0.000              0.000
 Translational            0.889              2.981             35.924
 Rotational               0.592              1.987              9.858
 Vibrational              3.508              0.002              0.000
                       Q            Log10(Q)             Ln(Q)
 Total Bot       0.820003D+06          5.913816         13.617064
 Total V=0       0.305797D+09          8.485433         19.538432
 Vib (Bot)       0.268155D-02         -2.571615         -5.921361
 Vib (V=0)       0.100001D+01          0.000003          0.000007
 Electronic      0.100000D+01          0.000000          0.000000
 Translational   0.582551D+07          6.765334         15.577757
 Rotational      0.524924D+02          1.720096          3.960668
 ***** Axes restored to original set *****
 -------------------------------------------------------------------
 Center     Atomic                   Forces (Hartrees/Bohr)
 Number     Number              X              Y              Z
 -------------------------------------------------------------------
      1        7          -0.000000032   -0.000000001    0.000000000
      2        7           0.000000032    0.000000001   -0.000000000
 -------------------------------------------------------------------
 Cartesian Forces:  Max     0.000000032 RMS     0.000000018
 FormGI is forming the generalized inverse of G from B-inverse, IUseBI=4.

 GradGradGradGradGradGradGradGradGradGradGradGradGradGradGradGradGradGrad
 Berny optimization.
 Internal  Forces:  Max     0.000000032 RMS     0.000000032
 Search for a local minimum.
 Step number   1 out of a maximum of    2
 All quantities printed in internal units (Hartrees-Bohrs-Radians)
 Second derivative matrix not updated -- analytic derivatives used.
 The second derivative matrix:
                          R1
           R1           1.59578
 ITU=  0
     Eigenvalues ---    1.59578
 Angle between quadratic step and forces=  90.00 degrees.
 Linear search not attempted -- first point.
 Iteration  1 RMS(Cart)=  0.00000001 RMS(Int)=  0.00000000
 ClnCor:  largest displacement from symmetrization is 4.44D-16 for atom     2.
 Variable       Old X    -DE/DX   Delta X   Delta X   Delta X     New X
                                 (Linear)    (Quad)   (Total)
    R1        2.08710   0.00000   0.00000   0.00000   0.00000   2.08710
         Item               Value     Threshold  Converged?
 Maximum Force            0.000000     0.000450     YES
 RMS     Force            0.000000     0.000300     YES
 Maximum Displacement     0.000000     0.001800     YES
 RMS     Displacement     0.000000     0.001200     YES
 Predicted change in Energy=-3.136599D-16
 Optimization completed.
    -- Stationary point found.
                           ----------------------------
                           !   Optimized Parameters   !
                           ! (Angstroms and Degrees)  !
 --------------------------                            --------------------------
 ! Name  Definition              Value          Derivative Info.                !
 --------------------------------------------------------------------------------
 ! R1    R(1,2)                  1.1044         -DE/DX =    0.0                 !
 --------------------------------------------------------------------------------
 GradGradGradGradGradGradGradGradGradGradGradGradGradGradGradGradGradGrad

 Dipole is zero, so no output in dipole orientation.

 ----------------------------------------------------------------------

 Electric dipole moment (input orientation):
 (Debye = 10**-18 statcoulomb cm , SI units = C m)
                  (au)            (Debye)         (10**-30 SI)
   Tot        0.000000D+00      0.000000D+00      0.000000D+00
   x          0.000000D+00      0.000000D+00      0.000000D+00
   y          0.000000D+00      0.000000D+00      0.000000D+00
   z          0.000000D+00      0.000000D+00      0.000000D+00

 Dipole polarizability, Alpha (input orientation).
 (esu units = cm**3 , SI units = C**2 m**2 J**-1)
 Alpha(0;0):
               (au)            (10**-24 esu)      (10**-40 SI)
   iso        0.821742D+01      0.121770D+01      0.135487D+01
   aniso      0.735169D+01      0.108941D+01      0.121213D+01
   xx         0.131164D+02      0.194364D+01      0.216260D+01
   yx         0.126716D+00      0.187773D-01      0.208926D-01
   yy         0.576905D+01      0.854885D+00      0.951187D+00
   zx         0.000000D+00      0.000000D+00      0.000000D+00
   zy         0.000000D+00      0.000000D+00      0.000000D+00
   zz         0.576686D+01      0.854561D+00      0.950827D+00

 ----------------------------------------------------------------------
 Unable to Open any file for archive entry.
 1\1\GINC-LOCALHOST\Freq\RB3LYP\CC-pVDZ\N2\USER\21-Mar-2026\0\\#N Geom=
 AllCheck Guess=TCheck SCRF=Check GenChk RB3LYP/CC-pVDZ Freq\\N2-opt-B3
 LYP-cc-pvdz\\0,1\N,0.0675177311,2.1699674888,0.\N,1.1717984489,2.18900
 68112,0.\\Version=ES64L-G16RevC.02\State=1-SGG\HF=-109.5333754\RMSD=8.
 384e-10\RMSF=1.827e-08\ZeroPoint=0.0055909\Thermal=0.0079514\ETot=-109
 .525424\HTot=-109.5244798\GTot=-109.5462324\Dipole=0.,0.,0.\DipoleDeri
 v=0.,0.,0.,0.,0.,0.,0.,0.,0.,0.,0.,0.,0.,0.,0.,0.,0.,0.\Polar=13.11636
 43,0.1267156,5.7690468,0.,0.,5.7668621\Quadrupole=-0.8217197,0.4106766
 ,0.4110431,-0.0212545,0.,0.\PG=D*H [C*(N1.N1)]\NImag=0\\1.59530094,0.0
 2750509,0.00047989,0.,0.,0.00000567,-1.59530094,-0.02750509,0.,1.59530
 094,-0.02750509,-0.00047989,0.,0.02750509,0.00047989,0.,0.,-0.00000567
 ,0.,0.,0.00000567\\0.00000003,0.,0.,-0.00000003,0.,0.\\\@
 The archive entry for this job was punched.


 THERE IS AN OLD, OLD RECIPE IN MAINE FOR STEWING COOT. PLACE THE
 BIRD IN A KETTLE OF WATER WITH A RED BUILDING BRICK FREE OF MORTAR AND
 BLEMISHES. PARBOIL THE COOT AND BRICK TOGETHER FOR THREE HOURS.
 POUR OFF THE WATER, REFILL THE KETTLE, AND AGAIN PARBOIL FOR THREE HOURS.
 ONCE AGAIN POUR OFF THE WATER, FOR THE LAST TIME ADD FRESH WATER,
 AND LET THE COOT AND BRICK SIMMER TOGETHER OVERNIGHT. IN THE MORNING,
 THROW AWAY THE COOT AND EAT THE BRICK.
 Job cpu time:       0 days  0 hours  0 minutes 32.2 seconds.
 Elapsed time:       0 days  0 hours  0 minutes  2.1 seconds.
 File lengths (MBytes):  RWF=      6 Int=      0 D2E=      0 Chk=      1 Scr=      1
 Normal termination of Gaussian 16 at Sat Mar 21 10:16:02 2026.
