 Entering Gaussian System, Link 0=g16
 Input=N2-B3LYP-6-31G(d).gjf
 Output=N2-B3LYP-6-31G(d).log
 Initial command:
 /home/user/gaussian16_I/g16/l1.exe "/home/user/gaussian16_I/temp/Gau-3540980.inp" -scrdir="/home/user/gaussian16_I/temp/"
 Entering Link 1 = /home/user/gaussian16_I/g16/l1.exe PID=   3540981.
  
 Copyright (c) 1988-2021, Gaussian, Inc.  All Rights Reserved.
  
 This is part of the Gaussian(R) 16 program.  It is based on
 the Gaussian(R) 09 system (copyright 2009, Gaussian, Inc.),
 the Gaussian(R) 03 system (copyright 2003, Gaussian, Inc.),
 the Gaussian(R) 98 system (copyright 1998, Gaussian, Inc.),
 the Gaussian(R) 94 system (copyright 1995, Gaussian, Inc.),
 the Gaussian 92(TM) system (copyright 1992, Gaussian, Inc.),
 the Gaussian 90(TM) system (copyright 1990, Gaussian, Inc.),
 the Gaussian 88(TM) system (copyright 1988, Gaussian, Inc.),
 the Gaussian 86(TM) system (copyright 1986, Carnegie Mellon
 University), and the Gaussian 82(TM) system (copyright 1983,
 Carnegie Mellon University). Gaussian is a federally registered
 trademark of Gaussian, Inc.
  
 This software contains proprietary and confidential information,
 including trade secrets, belonging to Gaussian, Inc.
  
 This software is provided under written license and may be
 used, copied, transmitted, or stored only in accord with that
 written license.
  
 The following legend is applicable only to US Government
 contracts under FAR:
  
                    RESTRICTED RIGHTS LEGEND
  
 Use, reproduction and disclosure by the US Government is
 subject to restrictions as set forth in subparagraphs (a)
 and (c) of the Commercial Computer Software - Restricted
 Rights clause in FAR 52.227-19.
  
 Gaussian, Inc.
 340 Quinnipiac St., Bldg. 40, Wallingford CT 06492
  
  
 ---------------------------------------------------------------
 Warning -- This program may not be used in any manner that
 competes with the business of Gaussian, Inc. or will provide
 assistance to any competitor of Gaussian, Inc.  The licensee
 of this program is prohibited from giving any competitor of
 Gaussian, Inc. access to this program.  By using this program,
 the user acknowledges that Gaussian, Inc. is engaged in the
 business of creating and licensing software in the field of
 computational chemistry and represents and warrants to the
 licensee that it is not a competitor of Gaussian, Inc. and that
 it will not use this program in any manner prohibited above.
 ---------------------------------------------------------------
  

 Cite this work as:
 Gaussian 16, Revision C.02,
 M. J. Frisch, G. W. Trucks, H. B. Schlegel, G. E. Scuseria, 
 M. A. Robb, J. R. Cheeseman, G. Scalmani, V. Barone, 
 G. A. Petersson, H. Nakatsuji, X. Li, M. Caricato, A. V. Marenich, 
 J. Bloino, B. G. Janesko, R. Gomperts, B. Mennucci, H. P. Hratchian, 
 J. V. Ortiz, A. F. Izmaylov, J. L. Sonnenberg, D. Williams-Young, 
 F. Ding, F. Lipparini, F. Egidi, J. Goings, B. Peng, A. Petrone, 
 T. Henderson, D. Ranasinghe, V. G. Zakrzewski, J. Gao, N. Rega, 
 G. Zheng, W. Liang, M. Hada, M. Ehara, K. Toyota, R. Fukuda, 
 J. Hasegawa, M. Ishida, T. Nakajima, Y. Honda, O. Kitao, H. Nakai, 
 T. Vreven, K. Throssell, J. A. Montgomery, Jr., J. E. Peralta, 
 F. Ogliaro, M. J. Bearpark, J. J. Heyd, E. N. Brothers, K. N. Kudin, 
 V. N. Staroverov, T. A. Keith, R. Kobayashi, J. Normand, 
 K. Raghavachari, A. P. Rendell, J. C. Burant, S. S. Iyengar, 
 J. Tomasi, M. Cossi, J. M. Millam, M. Klene, C. Adamo, R. Cammi, 
 J. W. Ochterski, R. L. Martin, K. Morokuma, O. Farkas, 
 J. B. Foresman, and D. J. Fox, Gaussian, Inc., Wallingford CT, 2019.
 
 ******************************************
 Gaussian 16:  ES64L-G16RevC.02  7-Dec-2021
                21-Mar-2026 
 ******************************************
 %mem=10GB
 %cpu=0-23
 SetSPE:  set environment variable "OMP_PROC_BIND" = "true"
 SetSPE:  set environment variable "OMP_PLACES" = "{0},{1},{2},{3},{4},{5},{6},{7},{8},{9},{10},{11},{12},{13},{14},{15},{16},{17},{18},{19},{20},{21},{22},{23}"
 Will use up to   24 processors via shared memory.
 %chk=N2-B3LYP-6-31G(d).chk
 ---------------------------------------------------
 # opt freq b3lyp/6-31g(d) pop=nbo geom=connectivity
 ---------------------------------------------------
 1/18=20,19=15,26=3,38=1,57=2/1,3;
 2/9=110,12=2,17=6,18=5,40=1/2;
 3/5=1,6=6,7=1,11=2,25=1,30=1,71=1,74=-5/1,2,3;
 4//1;
 5/5=2,38=5/2;
 6/7=2,8=2,9=2,10=2,28=1,40=1/1,7;
 7//1,2,3,16;
 1/18=20,19=15,26=3/3(2);
 2/9=110/2;
 99//99;
 2/9=110/2;
 3/5=1,6=6,7=1,11=2,25=1,30=1,71=1,74=-5/1,2,3;
 4/5=5,16=3,69=1/1;
 5/5=2,38=5/2;
 7//1,2,3,16;
 1/18=20,19=15,26=3/3(-5);
 2/9=110/2;
 6/7=2,8=2,9=2,10=2,19=2,28=1,40=1/1,7;
 99/9=1/99;
 ---------------------
 N2-opt-B3LYP-6-31g(d)
 ---------------------
 Symbolic Z-matrix:
 Charge =  0 Multiplicity = 1
 N                     0.        2.1688    0. 
 N                     1.23932   2.19017   0. 
 

 GradGradGradGradGradGradGradGradGradGradGradGradGradGradGradGradGradGrad
 Berny optimization.
 Initialization pass.
                           ----------------------------
                           !    Initial Parameters    !
                           ! (Angstroms and Degrees)  !
 --------------------------                            --------------------------
 ! Name  Definition              Value          Derivative Info.                !
 --------------------------------------------------------------------------------
 ! R1    R(1,2)                  1.2395         estimate D2E/DX2                !
 --------------------------------------------------------------------------------
 Trust Radius=3.00D-01 FncErr=1.00D-07 GrdErr=1.00D-06 EigMax=2.50D+02 EigMin=1.00D-04
 Number of steps in this run=     20 maximum allowed number of steps=    100.
 GradGradGradGradGradGradGradGradGradGradGradGradGradGradGradGradGradGrad

                          Input orientation:                          
 ---------------------------------------------------------------------
 Center     Atomic      Atomic             Coordinates (Angstroms)
 Number     Number       Type             X           Y           Z
 ---------------------------------------------------------------------
      1          7           0        0.000000    2.168803    0.000000
      2          7           0        1.239316    2.190171    0.000000
 ---------------------------------------------------------------------
 Stoichiometry    N2
 Framework group  D*H[C*(N.N)]
 Deg. of freedom     1
 Full point group                 D*H     NOp   8
 Largest Abelian subgroup         D2H     NOp   8
 Largest concise Abelian subgroup C2      NOp   2
                         Standard orientation:                         
 ---------------------------------------------------------------------
 Center     Atomic      Atomic             Coordinates (Angstroms)
 Number     Number       Type             X           Y           Z
 ---------------------------------------------------------------------
      1          7           0        0.000000   -0.000000    0.619750
      2          7           0        0.000000   -0.000000   -0.619750
 ---------------------------------------------------------------------
 Rotational constants (GHZ):           0.0000000          46.9818907          46.9818907
 Standard basis: 6-31G(d) (6D, 7F)
 There are     8 symmetry adapted cartesian basis functions of AG  symmetry.
 There are     1 symmetry adapted cartesian basis functions of B1G symmetry.
 There are     3 symmetry adapted cartesian basis functions of B2G symmetry.
 There are     3 symmetry adapted cartesian basis functions of B3G symmetry.
 There are     1 symmetry adapted cartesian basis functions of AU  symmetry.
 There are     8 symmetry adapted cartesian basis functions of B1U symmetry.
 There are     3 symmetry adapted cartesian basis functions of B2U symmetry.
 There are     3 symmetry adapted cartesian basis functions of B3U symmetry.
 There are     8 symmetry adapted basis functions of AG  symmetry.
 There are     1 symmetry adapted basis functions of B1G symmetry.
 There are     3 symmetry adapted basis functions of B2G symmetry.
 There are     3 symmetry adapted basis functions of B3G symmetry.
 There are     1 symmetry adapted basis functions of AU  symmetry.
 There are     8 symmetry adapted basis functions of B1U symmetry.
 There are     3 symmetry adapted basis functions of B2U symmetry.
 There are     3 symmetry adapted basis functions of B3U symmetry.
    30 basis functions,    56 primitive gaussians,    30 cartesian basis functions
     7 alpha electrons        7 beta electrons
       nuclear repulsion energy        20.9194639890 Hartrees.
 NAtoms=    2 NActive=    2 NUniq=    1 SFac= 4.00D+00 NAtFMM=   60 NAOKFM=F Big=F
 Integral buffers will be    131072 words long.
 Raffenetti 2 integral format.
 Two-electron integral symmetry is turned on.
 One-electron integrals computed using PRISM.
 NBasis=    30 RedAO= T EigKep=  7.58D-03  NBF=     8     1     3     3     1     8     3     3
 NBsUse=    30 1.00D-06 EigRej= -1.00D+00 NBFU=     8     1     3     3     1     8     3     3
 ExpMin= 2.12D-01 ExpMax= 4.17D+03 ExpMxC= 6.27D+02 IAcc=3 IRadAn=         5 AccDes= 0.00D+00
 Harris functional with IExCor=  402 and IRadAn=       5 diagonalized for initial guess.
 HarFok:  IExCor=  402 AccDes= 0.00D+00 IRadAn=         5 IDoV= 1 UseB2=F ITyADJ=14
 ICtDFT=  3500011 ScaDFX=  1.000000  1.000000  1.000000  1.000000
 FoFCou: FMM=F IPFlag=           0 FMFlag=      100000 FMFlg1=           0
         NFxFlg=           0 DoJE=T BraDBF=F KetDBF=T FulRan=T
         wScrn=  0.000000 ICntrl=       500 IOpCl=  0 I1Cent=   200000004 NGrid=           0
         NMat0=    1 NMatS0=      1 NMatT0=    0 NMatD0=    1 NMtDS0=    0 NMtDT0=    0
 Petite list used in FoFCou.
 Initial guess orbital symmetries:
       Occupied  (SGG) (SGU) (SGG) (SGU) (PIU) (PIU) (SGG)
       Virtual   (PIG) (PIG) (SGU) (PIU) (PIU) (SGG) (SGG) (SGU)
                 (PIG) (PIG) (SGU) (PIU) (PIU) (DLTG) (DLTG) (DLTU)
                 (DLTU) (SGG) (PIG) (PIG) (SGU) (SGG) (SGU)
 The electronic state of the initial guess is 1-SGG.
 Keep R1 ints in memory in symmetry-blocked form, NReq=20837663.
 Requested convergence on RMS density matrix=1.00D-08 within 128 cycles.
 Requested convergence on MAX density matrix=1.00D-06.
 Requested convergence on             energy=1.00D-06.
 No special actions if energy rises.
 Integral accuracy reduced to 1.0D-05 until final iterations.
 Initial convergence to 1.0D-05 achieved.  Increase integral accuracy.
 SCF Done:  E(RB3LYP) =  -109.486464071     A.U. after    8 cycles
            NFock=  8  Conv=0.94D-08     -V/T= 2.0147

 **********************************************************************

            Population analysis using the SCF Density.

 **********************************************************************

 Orbital symmetries:
       Occupied  (SGG) (SGU) (SGG) (SGU) (PIU) (PIU) (SGG)
       Virtual   (PIG) (PIG) (SGU) (SGG) (PIU) (PIU) (SGG) (SGU)
                 (PIG) (PIG) (SGU) (PIU) (PIU) (DLTG) (DLTG) (DLTU)
                 (DLTU) (SGG) (PIG) (PIG) (SGU) (SGG) (SGU)
 The electronic state is 1-SGG.
 Alpha  occ. eigenvalues --  -14.47539 -14.47479  -1.04692  -0.58834  -0.42511
 Alpha  occ. eigenvalues --   -0.42511  -0.42122
 Alpha virt. eigenvalues --   -0.08001  -0.08001   0.32435   0.62186   0.62548
 Alpha virt. eigenvalues --    0.62548   0.64108   0.65770   0.73335   0.73335
 Alpha virt. eigenvalues --    1.13786   1.45392   1.45392   1.49503   1.49503
 Alpha virt. eigenvalues --    1.86437   1.86437   2.25153   2.45669   2.45669
 Alpha virt. eigenvalues --    2.66658   3.24784   3.51587
          Condensed to atoms (all electrons):
               1          2
     1  N    6.534625   0.465375
     2  N    0.465375   6.534625
 Mulliken charges:
               1
     1  N    0.000000
     2  N    0.000000
 Sum of Mulliken charges =   0.00000
 Mulliken charges with hydrogens summed into heavy atoms:
               1
     1  N    0.000000
     2  N    0.000000
 Electronic spatial extent (au):  <R**2>=             43.3443
 Charge=              0.0000 electrons
 Dipole moment (field-independent basis, Debye):
    X=              0.0000    Y=             -0.0000    Z=             -0.0000  Tot=              0.0000
 Quadrupole moment (field-independent basis, Debye-Ang):
   XX=            -10.4071   YY=            -10.4071   ZZ=            -11.6573
   XY=              0.0000   XZ=              0.0000   YZ=             -0.0000
 Traceless Quadrupole moment (field-independent basis, Debye-Ang):
   XX=              0.4167   YY=              0.4167   ZZ=             -0.8335
   XY=              0.0000   XZ=              0.0000   YZ=             -0.0000
 Octapole moment (field-independent basis, Debye-Ang**2):
  XXX=             -0.0000  YYY=              0.0000  ZZZ=              0.0000  XYY=             -0.0000
  XXY=              0.0000  XXZ=              0.0000  XZZ=             -0.0000  YZZ=              0.0000
  YYZ=              0.0000  XYZ=             -0.0000
 Hexadecapole moment (field-independent basis, Debye-Ang**3):
 XXXX=             -8.5594 YYYY=             -8.5594 ZZZZ=            -35.8621 XXXY=              0.0000
 XXXZ=              0.0000 YYYX=              0.0000 YYYZ=             -0.0000 ZZZX=              0.0000
 ZZZY=             -0.0000 XXYY=             -2.8531 XXZZ=             -7.0238 YYZZ=             -7.0238
 XXYZ=             -0.0000 YYXZ=              0.0000 ZZXY=              0.0000
 N-N= 2.091946398900D+01 E-N=-2.971187103550D+02  KE= 1.078998076226D+02
 Symmetry AG   KE= 5.253290055876D+01
 Symmetry B1G  KE= 5.426789586678D-34
 Symmetry B2G  KE= 1.064685112047D-32
 Symmetry B3G  KE= 1.073547946147D-32
 Symmetry AU   KE= 7.658604475604D-34
 Symmetry B1U  KE= 4.877286429861D+01
 Symmetry B2U  KE= 3.297021382609D+00
 Symmetry B3U  KE= 3.297021382609D+00
 ******************************Gaussian NBO Version 3.1******************************
             N A T U R A L   A T O M I C   O R B I T A L   A N D
          N A T U R A L   B O N D   O R B I T A L   A N A L Y S I S
 ******************************Gaussian NBO Version 3.1******************************
       /RESON  / : Allow strongly delocalized NBO set

 Analyzing the SCF density

 Job title: N2-opt-B3LYP-6-31g(d)                                           

 Storage needed:      2904 in NPA,      3709 in NBO (1342177252 available)
 GSVD:  LWork=         620 too small for GESVD, short by         150 words or         150 for optimal perf.
 GSVD:  LWork=         516 too small for GESVD, short by         432 words or         432 for optimal perf.


 NATURAL POPULATIONS:  Natural atomic orbital occupancies 
                                                          
   NAO  Atom  No  lang   Type(AO)    Occupancy      Energy
 ----------------------------------------------------------
     1    N    1  S      Cor( 1S)     1.99983     -14.31923
     2    N    1  S      Val( 2S)     1.71077      -0.71845
     3    N    1  S      Ryd( 3S)     0.01623       0.86231
     4    N    1  S      Ryd( 4S)     0.00000       3.33591
     5    N    1  px     Val( 2p)     0.99656      -0.24090
     6    N    1  px     Ryd( 3p)     0.00018       0.67670
     7    N    1  py     Val( 2p)     0.99656      -0.24090
     8    N    1  py     Ryd( 3p)     0.00018       0.67670
     9    N    1  pz     Val( 2p)     1.26705      -0.20928
    10    N    1  pz     Ryd( 3p)     0.00451       0.65015
    11    N    1  dxy    Ryd( 3d)     0.00000       1.67970
    12    N    1  dxz    Ryd( 3d)     0.00325       1.94636
    13    N    1  dyz    Ryd( 3d)     0.00325       1.94636
    14    N    1  dx2y2  Ryd( 3d)     0.00000       1.67970
    15    N    1  dz2    Ryd( 3d)     0.00160       2.42759
 
    16    N    2  S      Cor( 1S)     1.99983     -14.31923
    17    N    2  S      Val( 2S)     1.71077      -0.71845
    18    N    2  S      Ryd( 3S)     0.01623       0.86231
    19    N    2  S      Ryd( 4S)     0.00000       3.33591
    20    N    2  px     Val( 2p)     0.99656      -0.24090
    21    N    2  px     Ryd( 3p)     0.00018       0.67670
    22    N    2  py     Val( 2p)     0.99656      -0.24090
    23    N    2  py     Ryd( 3p)     0.00018       0.67670
    24    N    2  pz     Val( 2p)     1.26705      -0.20928
    25    N    2  pz     Ryd( 3p)     0.00451       0.65015
    26    N    2  dxy    Ryd( 3d)     0.00000       1.67970
    27    N    2  dxz    Ryd( 3d)     0.00325       1.94636
    28    N    2  dyz    Ryd( 3d)     0.00325       1.94636
    29    N    2  dx2y2  Ryd( 3d)     0.00000       1.67970
    30    N    2  dz2    Ryd( 3d)     0.00160       2.42759


 Summary of Natural Population Analysis:                  
                                                          
                                       Natural Population 
                Natural  -----------------------------------------------
    Atom  No    Charge         Core      Valence    Rydberg      Total
 -----------------------------------------------------------------------
      N    1   -0.00000      1.99983     4.97095    0.02922     7.00000
      N    2   -0.00000      1.99983     4.97095    0.02922     7.00000
 =======================================================================
   * Total *   -0.00000      3.99967     9.94189    0.05844    14.00000

                                 Natural Population      
 --------------------------------------------------------
   Core                       3.99967 ( 99.9917% of   4)
   Valence                    9.94189 ( 99.4189% of  10)
   Natural Minimal Basis     13.94156 ( 99.5826% of  14)
   Natural Rydberg Basis      0.05844 (  0.4174% of  14)
 --------------------------------------------------------

    Atom  No          Natural Electron Configuration
 ----------------------------------------------------------------------------
      N    1      [core]2S( 1.71)2p( 3.26)3S( 0.02)3d( 0.01)
      N    2      [core]2S( 1.71)2p( 3.26)3S( 0.02)3d( 0.01)


 NATURAL BOND ORBITAL ANALYSIS:

                       Occupancies       Lewis Structure    Low   High
           Occ.    -------------------  -----------------   occ   occ
  Cycle   Thresh.   Lewis   Non-Lewis     CR  BD  3C  LP    (L)   (NL)   Dev
 =============================================================================
   1(1)    1.90    13.99427   0.00573      2   3   0   2     0      0    0.01
 -----------------------------------------------------------------------------

 Structure accepted: No low occupancy Lewis orbitals

 --------------------------------------------------------
   Core                      3.99967 ( 99.992% of   4)
   Valence Lewis             9.99461 ( 99.946% of  10)
  ==================       ============================
   Total Lewis              13.99427 ( 99.959% of  14)
  -----------------------------------------------------
   Valence non-Lewis         0.00000 (  0.000% of  14)
   Rydberg non-Lewis         0.00572 (  0.041% of  14)
  ==================       ============================
   Total non-Lewis           0.00573 (  0.041% of  14)
 --------------------------------------------------------


       (Occupancy)   Bond orbital/ Coefficients/ Hybrids
 ---------------------------------------------------------------------------------
     1. (2.00000) BD ( 1) N   1 - N   2  
                ( 50.00%)   0.7071* N   1 s( 29.57%)p 2.38( 70.30%)d 0.00(  0.13%)
                                            0.0000 -0.5318  0.1134 -0.0001  0.0000
                                            0.0000  0.0000  0.0000  0.8371  0.0473
                                            0.0000  0.0000  0.0000  0.0000 -0.0362
                ( 50.00%)   0.7071* N   2 s( 29.57%)p 2.38( 70.30%)d 0.00(  0.13%)
                                            0.0000 -0.5318  0.1134 -0.0001  0.0000
                                            0.0000  0.0000  0.0000 -0.8371 -0.0473
                                            0.0000  0.0000  0.0000  0.0000 -0.0362
     2. (2.00000) BD ( 2) N   1 - N   2  
                ( 50.00%)   0.7071* N   1 s(  0.00%)p 1.00( 99.67%)d 0.00(  0.33%)
                                            0.0000  0.0000  0.0000  0.0000  0.9983
                                           -0.0135  0.0000  0.0000  0.0000  0.0000
                                            0.0000 -0.0570  0.0000  0.0000  0.0000
                ( 50.00%)   0.7071* N   2 s(  0.00%)p 1.00( 99.67%)d 0.00(  0.33%)
                                            0.0000  0.0000  0.0000  0.0000  0.9983
                                           -0.0135  0.0000  0.0000  0.0000  0.0000
                                            0.0000  0.0570  0.0000  0.0000  0.0000
     3. (2.00000) BD ( 3) N   1 - N   2  
                ( 50.00%)   0.7071* N   1 s(  0.00%)p 1.00( 99.67%)d 0.00(  0.33%)
                                            0.0000  0.0000  0.0000  0.0000  0.0000
                                            0.0000  0.9983 -0.0135  0.0000  0.0000
                                            0.0000  0.0000 -0.0570  0.0000  0.0000
                ( 50.00%)   0.7071* N   2 s(  0.00%)p 1.00( 99.67%)d 0.00(  0.33%)
                                            0.0000  0.0000  0.0000  0.0000  0.0000
                                            0.0000  0.9983 -0.0135  0.0000  0.0000
                                            0.0000  0.0000  0.0570  0.0000  0.0000
     4. (1.99983) CR ( 1) N   1           s(100.00%)
                                            1.0000  0.0001  0.0000 -0.0000  0.0000
                                            0.0000  0.0000  0.0000  0.0001 -0.0000
                                            0.0000  0.0000  0.0000  0.0000 -0.0000
     5. (1.99983) CR ( 1) N   2           s(100.00%)
                                            1.0000  0.0001  0.0000 -0.0000  0.0000
                                            0.0000  0.0000  0.0000 -0.0001  0.0000
                                            0.0000  0.0000  0.0000  0.0000 -0.0000
     6. (1.99730) LP ( 1) N   1           s( 71.62%)p 0.40( 28.36%)d 0.00(  0.01%)
                                           -0.0002  0.8455  0.0357 -0.0000  0.0000
                                            0.0000  0.0000  0.0000  0.5324 -0.0117
                                            0.0000  0.0000  0.0000  0.0000 -0.0118
     7. (1.99730) LP ( 1) N   2           s( 71.62%)p 0.40( 28.36%)d 0.00(  0.01%)
                                           -0.0002  0.8455  0.0357 -0.0000  0.0000
                                            0.0000  0.0000  0.0000 -0.5324  0.0117
                                            0.0000  0.0000  0.0000  0.0000 -0.0118
     8. (0.00285) RY*( 1) N   1           s( 29.04%)p 2.44( 70.93%)d 0.00(  0.04%)
                                           -0.0000  0.0460  0.5368  0.0115  0.0000
                                            0.0000  0.0000  0.0000 -0.0901  0.8374
                                            0.0000  0.0000  0.0000  0.0000  0.0188
     9. (0.00001) RY*( 2) N   1           s(  1.12%)p 0.14(  0.16%)d88.14( 98.72%)
    10. (0.00000) RY*( 3) N   1           s(  0.00%)p 1.00(100.00%)d 0.00(  0.00%)
    11. (0.00000) RY*( 4) N   1           s(  0.00%)p 1.00(100.00%)d 0.00(  0.00%)
    12. (0.00000) RY*( 5) N   1           s( 69.77%)p 0.43( 30.23%)d 0.00(  0.00%)
    13. (0.00000) RY*( 6) N   1           s(  0.00%)p 0.00(  0.00%)d 1.00(100.00%)
    14. (0.00000) RY*( 7) N   1           s(  0.00%)p 1.00(  0.33%)d99.99( 99.67%)
    15. (0.00000) RY*( 8) N   1           s(  0.00%)p 1.00(  0.33%)d99.99( 99.67%)
    16. (0.00000) RY*( 9) N   1           s(  0.00%)p 0.00(  0.00%)d 1.00(100.00%)
    17. (0.00000) RY*(10) N   1           s( 98.88%)p 0.00(  0.02%)d 0.01(  1.10%)
    18. (0.00285) RY*( 1) N   2           s( 29.04%)p 2.44( 70.93%)d 0.00(  0.04%)
                                           -0.0000  0.0460  0.5368  0.0115 -0.0000
                                           -0.0000 -0.0000 -0.0000  0.0901 -0.8374
                                           -0.0000 -0.0000 -0.0000 -0.0000  0.0188
    19. (0.00001) RY*( 2) N   2           s(  1.12%)p 0.14(  0.16%)d88.14( 98.72%)
    20. (0.00000) RY*( 3) N   2           s(  0.00%)p 1.00(100.00%)d 0.00(  0.00%)
    21. (0.00000) RY*( 4) N   2           s(  0.00%)p 1.00(100.00%)d 0.00(  0.00%)
    22. (0.00000) RY*( 5) N   2           s( 69.77%)p 0.43( 30.23%)d 0.00(  0.00%)
    23. (0.00000) RY*( 6) N   2           s(  0.00%)p 0.00(  0.00%)d 1.00(100.00%)
    24. (0.00000) RY*( 7) N   2           s(  0.00%)p 1.00(  0.33%)d99.99( 99.67%)
    25. (0.00000) RY*( 8) N   2           s(  0.00%)p 1.00(  0.33%)d99.99( 99.67%)
    26. (0.00000) RY*( 9) N   2           s(  0.00%)p 0.00(  0.00%)d 1.00(100.00%)
    27. (0.00000) RY*(10) N   2           s( 98.88%)p 0.00(  0.02%)d 0.01(  1.10%)
    28. (0.00000) BD*( 1) N   1 - N   2  
                ( 50.00%)   0.7071* N   1 s( 29.57%)p 2.38( 70.30%)d 0.00(  0.13%)
                ( 50.00%)  -0.7071* N   2 s( 29.57%)p 2.38( 70.30%)d 0.00(  0.13%)
    29. (0.00000) BD*( 2) N   1 - N   2  
                ( 50.00%)   0.7071* N   1 s(  0.00%)p 1.00( 99.67%)d 0.00(  0.33%)
                ( 50.00%)  -0.7071* N   2 s(  0.00%)p 1.00( 99.67%)d 0.00(  0.33%)
    30. (0.00000) BD*( 3) N   1 - N   2  
                ( 50.00%)   0.7071* N   1 s(  0.00%)p 1.00( 99.67%)d 0.00(  0.33%)
                ( 50.00%)  -0.7071* N   2 s(  0.00%)p 1.00( 99.67%)d 0.00(  0.33%)


 NHO Directionality and "Bond Bending" (deviations from line of nuclear centers)

         [Thresholds for printing:  angular deviation  >  1.0 degree]
                                    hybrid p-character > 25.0%
                                    orbital occupancy  >  0.10e

                                Line of Centers        Hybrid 1              Hybrid 2
                                ---------------  -------------------   ------------------
                NBO               Theta   Phi    Theta   Phi    Dev    Theta   Phi    Dev
 ========================================================================================
     2. BD (   2) N   1 - N   2   180.0    0.0    90.0    0.0  90.0     90.0    0.0  90.0
     3. BD (   3) N   1 - N   2   180.0    0.0    90.0   90.0  90.0     90.0   90.0  90.0
     6. LP (   1) N   1             --     --      0.0    0.0   --       --     --    --
     7. LP (   1) N   2             --     --    180.0    0.0   --       --     --    --


 Second Order Perturbation Theory Analysis of Fock Matrix in NBO Basis

     Threshold for printing:   0.50 kcal/mol
                                                                              E(2)  E(j)-E(i) F(i,j)
         Donor NBO (i)                     Acceptor NBO (j)                 kcal/mol   a.u.    a.u. 
 ===================================================================================================

 within unit  1
   4. CR (   1) N   1                / 18. RY*(   1) N   2                    2.43   15.04    0.171
   5. CR (   1) N   2                /  8. RY*(   1) N   1                    2.43   15.04    0.171
   6. LP (   1) N   1                / 18. RY*(   1) N   2                    3.35    1.38    0.061
   7. LP (   1) N   2                /  8. RY*(   1) N   1                    3.35    1.38    0.061


 Natural Bond Orbitals (Summary):

                                                            Principal Delocalizations
           NBO                        Occupancy    Energy   (geminal,vicinal,remote)
 ====================================================================================
 Molecular unit  1  (N2)
     1. BD (   1) N   1 - N   2          2.00000    -1.02435   
     2. BD (   2) N   1 - N   2          2.00000    -0.42511   
     3. BD (   3) N   1 - N   2          2.00000    -0.42511   
     4. CR (   1) N   1                  1.99983   -14.31959  18(v)
     5. CR (   1) N   2                  1.99983   -14.31959  8(v)
     6. LP (   1) N   1                  1.99730    -0.66774  18(v)
     7. LP (   1) N   2                  1.99730    -0.66774  8(v)
     8. RY*(   1) N   1                  0.00285     0.71723   
     9. RY*(   2) N   1                  0.00001     2.42980   
    10. RY*(   3) N   1                  0.00000     0.67829   
    11. RY*(   4) N   1                  0.00000     0.67829   
    12. RY*(   5) N   1                  0.00000     0.77078   
    13. RY*(   6) N   1                  0.00000     1.67970   
    14. RY*(   7) N   1                  0.00000     1.94349   
    15. RY*(   8) N   1                  0.00000     1.94349   
    16. RY*(   9) N   1                  0.00000     1.67970   
    17. RY*(  10) N   1                  0.00000     3.32854   
    18. RY*(   1) N   2                  0.00285     0.71723   
    19. RY*(   2) N   2                  0.00001     2.42980   
    20. RY*(   3) N   2                  0.00000     0.67829   
    21. RY*(   4) N   2                  0.00000     0.67829   
    22. RY*(   5) N   2                  0.00000     0.77078   
    23. RY*(   6) N   2                  0.00000     1.67970   
    24. RY*(   7) N   2                  0.00000     1.94349   
    25. RY*(   8) N   2                  0.00000     1.94349   
    26. RY*(   9) N   2                  0.00000     1.67970   
    27. RY*(  10) N   2                  0.00000     3.32854   
    28. BD*(   1) N   1 - N   2          0.00000     0.56431   
    29. BD*(   2) N   1 - N   2          0.00000    -0.05412   
    30. BD*(   3) N   1 - N   2          0.00000    -0.05412   
       -------------------------------
              Total Lewis   13.99427  ( 99.9591%)
        Valence non-Lewis    0.00000  (  0.0000%)
        Rydberg non-Lewis    0.00572  (  0.0409%)
       -------------------------------
            Total unit  1   14.00000  (100.0000%)
           Charge unit  1    0.00000
 Calling FoFJK, ICntrl=      2127 FMM=F ISym2X=1 I1Cent= 0 IOpClX= 0 NMat=1 NMatS=1 NMatT=0.
 ***** Axes restored to original set *****
 -------------------------------------------------------------------
 Center     Atomic                   Forces (Hartrees/Bohr)
 Number     Number              X              Y              Z
 -------------------------------------------------------------------
      1        7           0.253195136    0.004365433    0.000000000
      2        7          -0.253195136   -0.004365433   -0.000000000
 -------------------------------------------------------------------
 Cartesian Forces:  Max     0.253195136 RMS     0.146204006

 GradGradGradGradGradGradGradGradGradGradGradGradGradGradGradGradGradGrad
 Berny optimization.
 FormGI is forming the generalized inverse of G from B-inverse, IUseBI=4.
 Internal  Forces:  Max     0.253232766 RMS     0.253232766
 Search for a local minimum.
 Step number   1 out of a maximum of   20
 All quantities printed in internal units (Hartrees-Bohrs-Radians)
 Mixed Optimization -- RFO/linear search
 Second derivative matrix not updated -- first step.
 The second derivative matrix:
                          R1
           R1           0.87240
 ITU=  0
     Eigenvalues ---    0.87240
 RFO step:  Lambda=-6.81781232D-02 EMin= 8.72399744D-01
 Linear search not attempted -- first point.
 Iteration  1 RMS(Cart)=  0.14142136 RMS(Int)=  0.06923105
 Iteration  2 RMS(Cart)=  0.04895374 RMS(Int)=  0.00000000
 Iteration  3 RMS(Cart)=  0.00000000 RMS(Int)=  0.00000000
 ClnCor:  largest displacement from symmetrization is 1.02D-15 for atom     1.
 Variable       Old X    -DE/DX   Delta X   Delta X   Delta X     New X
                                 (Linear)    (Quad)   (Total)
    R1        2.34232  -0.25323   0.00000  -0.26923  -0.26923   2.07309
         Item               Value     Threshold  Converged?
 Maximum Force            0.253233     0.000450     NO 
 RMS     Force            0.253233     0.000300     NO 
 Maximum Displacement     0.134596     0.001800     NO 
 RMS     Displacement     0.190375     0.001200     NO 
 Predicted change in Energy=-3.656002D-02
 GradGradGradGradGradGradGradGradGradGradGradGradGradGradGradGradGradGrad

                          Input orientation:                          
 ---------------------------------------------------------------------
 Center     Atomic      Atomic             Coordinates (Angstroms)
 Number     Number       Type             X           Y           Z
 ---------------------------------------------------------------------
      1          7           0        0.071225    2.170031    0.000000
      2          7           0        1.168091    2.188943    0.000000
 ---------------------------------------------------------------------
 Stoichiometry    N2
 Framework group  D*H[C*(N.N)]
 Deg. of freedom     1
 Full point group                 D*H     NOp   8
 Largest Abelian subgroup         D2H     NOp   8
 Largest concise Abelian subgroup C2      NOp   2
                         Standard orientation:                         
 ---------------------------------------------------------------------
 Center     Atomic      Atomic             Coordinates (Angstroms)
 Number     Number       Type             X           Y           Z
 ---------------------------------------------------------------------
      1          7           0        0.000000   -0.000000    0.548515
      2          7           0        0.000000   -0.000000   -0.548515
 ---------------------------------------------------------------------
 Rotational constants (GHZ):           0.0000000          59.9773470          59.9773470
 Standard basis: 6-31G(d) (6D, 7F)
 There are     8 symmetry adapted cartesian basis functions of AG  symmetry.
 There are     1 symmetry adapted cartesian basis functions of B1G symmetry.
 There are     3 symmetry adapted cartesian basis functions of B2G symmetry.
 There are     3 symmetry adapted cartesian basis functions of B3G symmetry.
 There are     1 symmetry adapted cartesian basis functions of AU  symmetry.
 There are     8 symmetry adapted cartesian basis functions of B1U symmetry.
 There are     3 symmetry adapted cartesian basis functions of B2U symmetry.
 There are     3 symmetry adapted cartesian basis functions of B3U symmetry.
 There are     8 symmetry adapted basis functions of AG  symmetry.
 There are     1 symmetry adapted basis functions of B1G symmetry.
 There are     3 symmetry adapted basis functions of B2G symmetry.
 There are     3 symmetry adapted basis functions of B3G symmetry.
 There are     1 symmetry adapted basis functions of AU  symmetry.
 There are     8 symmetry adapted basis functions of B1U symmetry.
 There are     3 symmetry adapted basis functions of B2U symmetry.
 There are     3 symmetry adapted basis functions of B3U symmetry.
    30 basis functions,    56 primitive gaussians,    30 cartesian basis functions
     7 alpha electrons        7 beta electrons
       nuclear repulsion energy        23.6362694971 Hartrees.
 NAtoms=    2 NActive=    2 NUniq=    1 SFac= 4.00D+00 NAtFMM=   60 NAOKFM=F Big=F
 Integral buffers will be    131072 words long.
 Raffenetti 2 integral format.
 Two-electron integral symmetry is turned on.
 One-electron integrals computed using PRISM.
 NBasis=    30 RedAO= T EigKep=  4.32D-03  NBF=     8     1     3     3     1     8     3     3
 NBsUse=    30 1.00D-06 EigRej= -1.00D+00 NBFU=     8     1     3     3     1     8     3     3
 Initial guess from the checkpoint file:  "N2-B3LYP-6-31G(d).chk"
 B after Tr=    -0.000000   -0.000000   -0.000000
         Rot=    1.000000   -0.000000    0.000000    0.000000 Ang=   0.00 deg.
 Initial guess orbital symmetries:
       Occupied  (SGG) (SGU) (SGG) (SGU) (PIU) (PIU) (SGG)
       Virtual   (PIG) (PIG) (SGU) (SGG) (PIU) (PIU) (SGG) (SGU)
                 (PIG) (PIG) (SGU) (PIU) (PIU) (DLTG) (DLTG) (DLTU)
                 (DLTU) (SGG) (PIG) (PIG) (SGU) (SGG) (SGU)
 ExpMin= 2.12D-01 ExpMax= 4.17D+03 ExpMxC= 6.27D+02 IAcc=3 IRadAn=         5 AccDes= 0.00D+00
 Harris functional with IExCor=  402 and IRadAn=       5 diagonalized for initial guess.
 HarFok:  IExCor=  402 AccDes= 0.00D+00 IRadAn=         5 IDoV= 1 UseB2=F ITyADJ=14
 ICtDFT=  3500011 ScaDFX=  1.000000  1.000000  1.000000  1.000000
 FoFCou: FMM=F IPFlag=           0 FMFlag=      100000 FMFlg1=           0
         NFxFlg=           0 DoJE=T BraDBF=F KetDBF=T FulRan=T
         wScrn=  0.000000 ICntrl=       500 IOpCl=  0 I1Cent=   200000004 NGrid=           0
         NMat0=    1 NMatS0=      1 NMatT0=    0 NMatD0=    1 NMtDS0=    0 NMtDT0=    0
 Petite list used in FoFCou.
 Keep R1 ints in memory in symmetry-blocked form, NReq=20837663.
 Requested convergence on RMS density matrix=1.00D-08 within 128 cycles.
 Requested convergence on MAX density matrix=1.00D-06.
 Requested convergence on             energy=1.00D-06.
 No special actions if energy rises.
 Integral accuracy reduced to 1.0D-05 until final iterations.
 Initial convergence to 1.0D-05 achieved.  Increase integral accuracy.
 SCF Done:  E(RB3LYP) =  -109.523919629     A.U. after    9 cycles
            NFock=  9  Conv=0.20D-08     -V/T= 2.0092
 Calling FoFJK, ICntrl=      2127 FMM=F ISym2X=1 I1Cent= 0 IOpClX= 0 NMat=1 NMatS=1 NMatT=0.
 ***** Axes restored to original set *****
 -------------------------------------------------------------------
 Center     Atomic                   Forces (Hartrees/Bohr)
 Number     Number              X              Y              Z
 -------------------------------------------------------------------
      1        7          -0.026388628   -0.000454976    0.000000000
      2        7           0.026388628    0.000454976   -0.000000000
 -------------------------------------------------------------------
 Cartesian Forces:  Max     0.026388628 RMS     0.015237746

 GradGradGradGradGradGradGradGradGradGradGradGradGradGradGradGradGradGrad
 Berny optimization.
 Using GEDIIS/GDIIS optimizer.
 Internal  Forces:  Max     0.026392550 RMS     0.026392550
 Search for a local minimum.
 Step number   2 out of a maximum of   20
 All quantities printed in internal units (Hartrees-Bohrs-Radians)
 Mixed Optimization -- RFO/linear search
 Update second derivatives using D2CorX and points    1    2
 DE= -3.75D-02 DEPred=-3.66D-02 R= 1.02D+00
 TightC=F SS=  1.41D+00  RLast= 2.69D-01 DXNew= 5.0454D-01 8.0769D-01
 Trust test= 1.02D+00 RLast= 2.69D-01 DXMaxT set to 5.05D-01
 The second derivative matrix:
                          R1
           R1           1.03861
 ITU=  1  0
 Use linear search instead of GDIIS.
     Eigenvalues ---    1.03861
 RFO step:  Lambda= 0.00000000D+00 EMin= 1.03860723D+00
 Quartic linear search produced a step of -0.06046.
 Iteration  1 RMS(Cart)=  0.01151024 RMS(Int)=  0.00000000
 Iteration  2 RMS(Cart)=  0.00000000 RMS(Int)=  0.00000000
 ClnCor:  largest displacement from symmetrization is 8.33D-17 for atom     1.
 Variable       Old X    -DE/DX   Delta X   Delta X   Delta X     New X
                                 (Linear)    (Quad)   (Total)
    R1        2.07309   0.02639   0.01628  -0.00000   0.01628   2.08936
         Item               Value     Threshold  Converged?
 Maximum Force            0.026393     0.000450     NO 
 RMS     Force            0.026393     0.000300     NO 
 Maximum Displacement     0.008138     0.001800     NO 
 RMS     Displacement     0.011510     0.001200     NO 
 Predicted change in Energy=-2.920158D-04
 GradGradGradGradGradGradGradGradGradGradGradGradGradGradGradGradGradGrad

                          Input orientation:                          
 ---------------------------------------------------------------------
 Center     Atomic      Atomic             Coordinates (Angstroms)
 Number     Number       Type             X           Y           Z
 ---------------------------------------------------------------------
      1          7           0        0.066919    2.169957   -0.000000
      2          7           0        1.172398    2.189017    0.000000
 ---------------------------------------------------------------------
 Stoichiometry    N2
 Framework group  D*H[C*(N.N)]
 Deg. of freedom     1
 Full point group                 D*H     NOp   8
 Largest Abelian subgroup         D2H     NOp   8
 Largest concise Abelian subgroup C2      NOp   2
                         Standard orientation:                         
 ---------------------------------------------------------------------
 Center     Atomic      Atomic             Coordinates (Angstroms)
 Number     Number       Type             X           Y           Z
 ---------------------------------------------------------------------
      1          7           0        0.000000    0.000000    0.552822
      2          7           0        0.000000   -0.000000   -0.552822
 ---------------------------------------------------------------------
 Rotational constants (GHZ):           0.0000000          59.0464368          59.0464368
 Standard basis: 6-31G(d) (6D, 7F)
 There are     8 symmetry adapted cartesian basis functions of AG  symmetry.
 There are     1 symmetry adapted cartesian basis functions of B1G symmetry.
 There are     3 symmetry adapted cartesian basis functions of B2G symmetry.
 There are     3 symmetry adapted cartesian basis functions of B3G symmetry.
 There are     1 symmetry adapted cartesian basis functions of AU  symmetry.
 There are     8 symmetry adapted cartesian basis functions of B1U symmetry.
 There are     3 symmetry adapted cartesian basis functions of B2U symmetry.
 There are     3 symmetry adapted cartesian basis functions of B3U symmetry.
 There are     8 symmetry adapted basis functions of AG  symmetry.
 There are     1 symmetry adapted basis functions of B1G symmetry.
 There are     3 symmetry adapted basis functions of B2G symmetry.
 There are     3 symmetry adapted basis functions of B3G symmetry.
 There are     1 symmetry adapted basis functions of AU  symmetry.
 There are     8 symmetry adapted basis functions of B1U symmetry.
 There are     3 symmetry adapted basis functions of B2U symmetry.
 There are     3 symmetry adapted basis functions of B3U symmetry.
    30 basis functions,    56 primitive gaussians,    30 cartesian basis functions
     7 alpha electrons        7 beta electrons
       nuclear repulsion energy        23.4521225455 Hartrees.
 NAtoms=    2 NActive=    2 NUniq=    1 SFac= 4.00D+00 NAtFMM=   60 NAOKFM=F Big=F
 Integral buffers will be    131072 words long.
 Raffenetti 2 integral format.
 Two-electron integral symmetry is turned on.
 One-electron integrals computed using PRISM.
 NBasis=    30 RedAO= T EigKep=  4.49D-03  NBF=     8     1     3     3     1     8     3     3
 NBsUse=    30 1.00D-06 EigRej= -1.00D+00 NBFU=     8     1     3     3     1     8     3     3
 Initial guess from the checkpoint file:  "N2-B3LYP-6-31G(d).chk"
 B after Tr=     0.000000    0.000000    0.000000
         Rot=    1.000000    0.000000    0.000000    0.000000 Ang=   0.00 deg.
 Initial guess orbital symmetries:
       Occupied  (SGG) (SGU) (SGG) (SGU) (PIU) (PIU) (SGG)
       Virtual   (PIG) (PIG) (SGU) (SGG) (PIU) (PIU) (SGG) (PIG)
                 (PIG) (SGU) (SGU) (DLTG) (DLTG) (PIU) (PIU) (DLTU)
                 (DLTU) (SGG) (PIG) (PIG) (SGU) (SGG) (SGU)
 Keep R1 ints in memory in symmetry-blocked form, NReq=20837663.
 Requested convergence on RMS density matrix=1.00D-08 within 128 cycles.
 Requested convergence on MAX density matrix=1.00D-06.
 Requested convergence on             energy=1.00D-06.
 No special actions if energy rises.
 SCF Done:  E(RB3LYP) =  -109.524128615     A.U. after    6 cycles
            NFock=  6  Conv=0.30D-08     -V/T= 2.0097
 Calling FoFJK, ICntrl=      2127 FMM=F ISym2X=1 I1Cent= 0 IOpClX= 0 NMat=1 NMatS=1 NMatT=0.
 ***** Axes restored to original set *****
 -------------------------------------------------------------------
 Center     Atomic                   Forces (Hartrees/Bohr)
 Number     Number              X              Y              Z
 -------------------------------------------------------------------
      1        7           0.000440849    0.000007601    0.000000000
      2        7          -0.000440849   -0.000007601   -0.000000000
 -------------------------------------------------------------------
 Cartesian Forces:  Max     0.000440849 RMS     0.000254562

 GradGradGradGradGradGradGradGradGradGradGradGradGradGradGradGradGradGrad
 Berny optimization.
 Using GEDIIS/GDIIS optimizer.
 Internal  Forces:  Max     0.000440915 RMS     0.000440915
 Search for a local minimum.
 Step number   3 out of a maximum of   20
 All quantities printed in internal units (Hartrees-Bohrs-Radians)
 Mixed Optimization -- En-DIIS/RFO-DIIS
 Update second derivatives using D2CorX and points    2    3
 DE= -2.09D-04 DEPred=-2.92D-04 R= 7.16D-01
 TightC=F SS=  1.41D+00  RLast= 1.63D-02 DXNew= 8.4853D-01 4.8834D-02
 Trust test= 7.16D-01 RLast= 1.63D-02 DXMaxT set to 5.05D-01
 The second derivative matrix:
                          R1
           R1           1.64846
 ITU=  1  1
 Use linear search instead of GDIIS.
     Eigenvalues ---    1.64846
 RFO step:  Lambda= 0.00000000D+00 EMin= 1.64845546D+00
 Quartic linear search produced a step of -0.01694.
 Iteration  1 RMS(Cart)=  0.00019498 RMS(Int)=  0.00000000
 Iteration  2 RMS(Cart)=  0.00000000 RMS(Int)=  0.00000000
 ClnCor:  largest displacement from symmetrization is 3.05D-16 for atom     1.
 Variable       Old X    -DE/DX   Delta X   Delta X   Delta X     New X
                                 (Linear)    (Quad)   (Total)
    R1        2.08936  -0.00044  -0.00028  -0.00000  -0.00028   2.08909
         Item               Value     Threshold  Converged?
 Maximum Force            0.000441     0.000450     YES
 RMS     Force            0.000441     0.000300     NO 
 Maximum Displacement     0.000138     0.001800     YES
 RMS     Displacement     0.000195     0.001200     YES
 Predicted change in Energy=-5.890957D-08
 GradGradGradGradGradGradGradGradGradGradGradGradGradGradGradGradGradGrad

                          Input orientation:                          
 ---------------------------------------------------------------------
 Center     Atomic      Atomic             Coordinates (Angstroms)
 Number     Number       Type             X           Y           Z
 ---------------------------------------------------------------------
      1          7           0        0.066992    2.169958   -0.000000
      2          7           0        1.172325    2.189016    0.000000
 ---------------------------------------------------------------------
 Stoichiometry    N2
 Framework group  D*H[C*(N.N)]
 Deg. of freedom     1
 Full point group                 D*H     NOp   8
 Largest Abelian subgroup         D2H     NOp   8
 Largest concise Abelian subgroup C2      NOp   2
                         Standard orientation:                         
 ---------------------------------------------------------------------
 Center     Atomic      Atomic             Coordinates (Angstroms)
 Number     Number       Type             X           Y           Z
 ---------------------------------------------------------------------
      1          7           0        0.000000   -0.000000    0.552749
      2          7           0        0.000000   -0.000000   -0.552749
 ---------------------------------------------------------------------
 Rotational constants (GHZ):           0.0000000          59.0620254          59.0620254
 Standard basis: 6-31G(d) (6D, 7F)
 There are     8 symmetry adapted cartesian basis functions of AG  symmetry.
 There are     1 symmetry adapted cartesian basis functions of B1G symmetry.
 There are     3 symmetry adapted cartesian basis functions of B2G symmetry.
 There are     3 symmetry adapted cartesian basis functions of B3G symmetry.
 There are     1 symmetry adapted cartesian basis functions of AU  symmetry.
 There are     8 symmetry adapted cartesian basis functions of B1U symmetry.
 There are     3 symmetry adapted cartesian basis functions of B2U symmetry.
 There are     3 symmetry adapted cartesian basis functions of B3U symmetry.
 There are     8 symmetry adapted basis functions of AG  symmetry.
 There are     1 symmetry adapted basis functions of B1G symmetry.
 There are     3 symmetry adapted basis functions of B2G symmetry.
 There are     3 symmetry adapted basis functions of B3G symmetry.
 There are     1 symmetry adapted basis functions of AU  symmetry.
 There are     8 symmetry adapted basis functions of B1U symmetry.
 There are     3 symmetry adapted basis functions of B2U symmetry.
 There are     3 symmetry adapted basis functions of B3U symmetry.
    30 basis functions,    56 primitive gaussians,    30 cartesian basis functions
     7 alpha electrons        7 beta electrons
       nuclear repulsion energy        23.4552180879 Hartrees.
 NAtoms=    2 NActive=    2 NUniq=    1 SFac= 4.00D+00 NAtFMM=   60 NAOKFM=F Big=F
 Integral buffers will be    131072 words long.
 Raffenetti 2 integral format.
 Two-electron integral symmetry is turned on.
 One-electron integrals computed using PRISM.
 NBasis=    30 RedAO= T EigKep=  4.49D-03  NBF=     8     1     3     3     1     8     3     3
 NBsUse=    30 1.00D-06 EigRej= -1.00D+00 NBFU=     8     1     3     3     1     8     3     3
 Initial guess from the checkpoint file:  "N2-B3LYP-6-31G(d).chk"
 B after Tr=    -0.000000   -0.000000   -0.000000
         Rot=    1.000000    0.000000    0.000000   -0.000000 Ang=   0.00 deg.
 Initial guess orbital symmetries:
       Occupied  (SGG) (SGU) (SGG) (SGU) (PIU) (PIU) (SGG)
       Virtual   (PIG) (PIG) (SGU) (SGG) (PIU) (PIU) (SGG) (PIG)
                 (PIG) (SGU) (SGU) (DLTG) (DLTG) (PIU) (PIU) (DLTU)
                 (DLTU) (SGG) (PIG) (PIG) (SGU) (SGG) (SGU)
 Keep R1 ints in memory in symmetry-blocked form, NReq=20837663.
 Requested convergence on RMS density matrix=1.00D-08 within 128 cycles.
 Requested convergence on MAX density matrix=1.00D-06.
 Requested convergence on             energy=1.00D-06.
 No special actions if energy rises.
 SCF Done:  E(RB3LYP) =  -109.524128676     A.U. after    5 cycles
            NFock=  5  Conv=0.17D-08     -V/T= 2.0097
 Calling FoFJK, ICntrl=      2127 FMM=F ISym2X=1 I1Cent= 0 IOpClX= 0 NMat=1 NMatS=1 NMatT=0.
 ***** Axes restored to original set *****
 -------------------------------------------------------------------
 Center     Atomic                   Forces (Hartrees/Bohr)
 Number     Number              X              Y              Z
 -------------------------------------------------------------------
      1        7          -0.000000041   -0.000000001    0.000000000
      2        7           0.000000041    0.000000001   -0.000000000
 -------------------------------------------------------------------
 Cartesian Forces:  Max     0.000000041 RMS     0.000000023

 GradGradGradGradGradGradGradGradGradGradGradGradGradGradGradGradGradGrad
 Berny optimization.
 Using GEDIIS/GDIIS optimizer.
 Internal  Forces:  Max     0.000000041 RMS     0.000000041
 Search for a local minimum.
 Step number   4 out of a maximum of   20
 All quantities printed in internal units (Hartrees-Bohrs-Radians)
 Mixed Optimization -- En-DIIS/RFO-DIIS
 Swapping is turned off.
 Update second derivatives using D2CorX and points    4
 DE= -6.08D-08 DEPred=-5.89D-08 R= 1.03D+00
 Trust test= 1.03D+00 RLast= 2.76D-04 DXMaxT set to 5.05D-01
 The second derivative matrix:
                          R1
           R1           1.64846
 ITU=  0  1
     Eigenvalues ---    1.64846
 En-DIIS/RFO-DIIS/Sim-DIIS IScMMF=       -3 using points:     4    3
 RFO step:  Lambda=-9.99200722D-16.
 DIIS inversion failure, remove point   2.
 Use linear search instead of GDIIS.
 RFO step:  Lambda= 0.00000000D+00 EMin= 1.64845546D+00
 Quartic linear search produced a step of -0.00009.
 Iteration  1 RMS(Cart)=  0.00000002 RMS(Int)=  0.00000000
 ClnCor:  largest displacement from symmetrization is 4.72D-16 for atom     1.
 Variable       Old X    -DE/DX   Delta X   Delta X   Delta X     New X
                                 (Linear)    (Quad)   (Total)
    R1        2.08909   0.00000   0.00000  -0.00000   0.00000   2.08909
         Item               Value     Threshold  Converged?
 Maximum Force            0.000000     0.000450     YES
 RMS     Force            0.000000     0.000300     YES
 Maximum Displacement     0.000000     0.001800     YES
 RMS     Displacement     0.000000     0.001200     YES
 Predicted change in Energy=-5.007196D-16
 Optimization completed.
    -- Stationary point found.
                           ----------------------------
                           !   Optimized Parameters   !
                           ! (Angstroms and Degrees)  !
 --------------------------                            --------------------------
 ! Name  Definition              Value          Derivative Info.                !
 --------------------------------------------------------------------------------
 ! R1    R(1,2)                  1.1055         -DE/DX =    0.0                 !
 --------------------------------------------------------------------------------
 GradGradGradGradGradGradGradGradGradGradGradGradGradGradGradGradGradGrad

                          Input orientation:                          
 ---------------------------------------------------------------------
 Center     Atomic      Atomic             Coordinates (Angstroms)
 Number     Number       Type             X           Y           Z
 ---------------------------------------------------------------------
      1          7           0        0.066992    2.169958    0.000000
      2          7           0        1.172325    2.189016    0.000000
 ---------------------------------------------------------------------
 Stoichiometry    N2
 Framework group  D*H[C*(N.N)]
 Deg. of freedom     1
 Full point group                 D*H     NOp   8
 Largest Abelian subgroup         D2H     NOp   8
 Largest concise Abelian subgroup C2      NOp   2
                         Standard orientation:                         
 ---------------------------------------------------------------------
 Center     Atomic      Atomic             Coordinates (Angstroms)
 Number     Number       Type             X           Y           Z
 ---------------------------------------------------------------------
      1          7           0       -0.000000   -0.000000    0.552749
      2          7           0        0.000000   -0.000000   -0.552749
 ---------------------------------------------------------------------
 Rotational constants (GHZ):           0.0000000          59.0620254          59.0620254

 **********************************************************************

            Population analysis using the SCF Density.

 **********************************************************************

 Orbital symmetries:
       Occupied  (SGG) (SGU) (SGG) (SGU) (PIU) (PIU) (SGG)
       Virtual   (PIG) (PIG) (SGU) (SGG) (PIU) (PIU) (SGG) (PIG)
                 (PIG) (SGU) (SGU) (DLTG) (DLTG) (PIU) (PIU) (DLTU)
                 (DLTU) (SGG) (PIG) (PIG) (SGU) (SGG) (SGU)
 The electronic state is 1-SGG.
 Alpha  occ. eigenvalues --  -14.44676 -14.44512  -1.12384  -0.55342  -0.46240
 Alpha  occ. eigenvalues --   -0.46240  -0.42688
 Alpha virt. eigenvalues --   -0.02412  -0.02412   0.41366   0.59105   0.60590
 Alpha virt. eigenvalues --    0.60590   0.64005   0.75115   0.75115   0.78521
 Alpha virt. eigenvalues --    1.23891   1.44991   1.44991   1.54800   1.54800
 Alpha virt. eigenvalues --    1.93901   1.93901   2.40434   2.59370   2.59370
 Alpha virt. eigenvalues --    2.81673   3.28940   3.58818
          Condensed to atoms (all electrons):
               1          2
     1  N    6.450381   0.549619
     2  N    0.549619   6.450381
 Mulliken charges:
               1
     1  N   -0.000000
     2  N    0.000000
 Sum of Mulliken charges =  -0.00000
 Mulliken charges with hydrogens summed into heavy atoms:
               1
     1  N   -0.000000
     2  N    0.000000
 Electronic spatial extent (au):  <R**2>=             38.8468
 Charge=              0.0000 electrons
 Dipole moment (field-independent basis, Debye):
    X=              0.0000    Y=              0.0000    Z=              0.0000  Tot=              0.0000
 Quadrupole moment (field-independent basis, Debye-Ang):
   XX=            -10.0489   YY=            -10.0489   ZZ=            -11.6070
   XY=              0.0000   XZ=              0.0000   YZ=             -0.0000
 Traceless Quadrupole moment (field-independent basis, Debye-Ang):
   XX=              0.5194   YY=              0.5194   ZZ=             -1.0387
   XY=              0.0000   XZ=              0.0000   YZ=             -0.0000
 Octapole moment (field-independent basis, Debye-Ang**2):
  XXX=             -0.0000  YYY=              0.0000  ZZZ=              0.0000  XYY=             -0.0000
  XXY=              0.0000  XXZ=              0.0000  XZZ=             -0.0000  YZZ=              0.0000
  YYZ=              0.0000  XYZ=             -0.0000
 Hexadecapole moment (field-independent basis, Debye-Ang**3):
 XXXX=             -8.0062 YYYY=             -8.0062 ZZZZ=            -30.5670 XXXY=              0.0000
 XXXZ=              0.0000 YYYX=              0.0000 YYYZ=             -0.0000 ZZZX=              0.0000
 ZZZY=             -0.0000 XXYY=             -2.6687 XXZZ=             -6.0687 YYZZ=             -6.0687
 XXYZ=             -0.0000 YYXZ=              0.0000 ZZXY=              0.0000
 N-N= 2.345521808794D+01 E-N=-3.026346828226D+02  KE= 1.084740736280D+02
 Symmetry AG   KE= 5.302688057736D+01
 Symmetry B1G  KE= 1.463804493631D-34
 Symmetry B2G  KE= 1.730353797449D-32
 Symmetry B3G  KE= 5.633680602988D-32
 Symmetry AU   KE= 3.759894009861D-34
 Symmetry B1U  KE= 4.865763864180D+01
 Symmetry B2U  KE= 3.394777204430D+00
 Symmetry B3U  KE= 3.394777204430D+00
 ******************************Gaussian NBO Version 3.1******************************
             N A T U R A L   A T O M I C   O R B I T A L   A N D
          N A T U R A L   B O N D   O R B I T A L   A N A L Y S I S
 ******************************Gaussian NBO Version 3.1******************************
       /RESON  / : Allow strongly delocalized NBO set

 Analyzing the SCF density

 Job title: N2-opt-B3LYP-6-31g(d)                                           

 Storage needed:      2904 in NPA,      3709 in NBO (1342177252 available)
 GSVD:  LWork=         620 too small for GESVD, short by         150 words or         150 for optimal perf.
 GSVD:  LWork=         108 too small for GESVD, short by        1422 words or        1422 for optimal perf.


 NATURAL POPULATIONS:  Natural atomic orbital occupancies 
                                                          
   NAO  Atom  No  lang   Type(AO)    Occupancy      Energy
 ----------------------------------------------------------
     1    N    1  S      Cor( 1S)     1.99975     -14.23055
     2    N    1  S      Val( 2S)     1.62481      -0.66455
     3    N    1  S      Ryd( 3S)     0.02193       0.91131
     4    N    1  S      Ryd( 4S)     0.00002       3.37467
     5    N    1  px     Val( 2p)     0.99541      -0.22154
     6    N    1  px     Ryd( 3p)     0.00004       0.67327
     7    N    1  py     Val( 2p)     0.99541      -0.22154
     8    N    1  py     Ryd( 3p)     0.00004       0.67327
     9    N    1  pz     Val( 2p)     1.34167      -0.18558
    10    N    1  pz     Ryd( 3p)     0.00667       0.62727
    11    N    1  dxy    Ryd( 3d)     0.00000       1.69446
    12    N    1  dxz    Ryd( 3d)     0.00455       2.05438
    13    N    1  dyz    Ryd( 3d)     0.00455       2.05438
    14    N    1  dx2y2  Ryd( 3d)     0.00000       1.69446
    15    N    1  dz2    Ryd( 3d)     0.00514       2.55319
 
    16    N    2  S      Cor( 1S)     1.99975     -14.23055
    17    N    2  S      Val( 2S)     1.62481      -0.66455
    18    N    2  S      Ryd( 3S)     0.02193       0.91131
    19    N    2  S      Ryd( 4S)     0.00002       3.37467
    20    N    2  px     Val( 2p)     0.99541      -0.22154
    21    N    2  px     Ryd( 3p)     0.00004       0.67327
    22    N    2  py     Val( 2p)     0.99541      -0.22154
    23    N    2  py     Ryd( 3p)     0.00004       0.67327
    24    N    2  pz     Val( 2p)     1.34167      -0.18558
    25    N    2  pz     Ryd( 3p)     0.00667       0.62727
    26    N    2  dxy    Ryd( 3d)     0.00000       1.69446
    27    N    2  dxz    Ryd( 3d)     0.00455       2.05438
    28    N    2  dyz    Ryd( 3d)     0.00455       2.05438
    29    N    2  dx2y2  Ryd( 3d)     0.00000       1.69446
    30    N    2  dz2    Ryd( 3d)     0.00514       2.55319


 Summary of Natural Population Analysis:                  
                                                          
                                       Natural Population 
                Natural  -----------------------------------------------
    Atom  No    Charge         Core      Valence    Rydberg      Total
 -----------------------------------------------------------------------
      N    1   -0.00000      1.99975     4.95730    0.04294     7.00000
      N    2   -0.00000      1.99975     4.95730    0.04294     7.00000
 =======================================================================
   * Total *   -0.00000      3.99951     9.91461    0.08589    14.00000

                                 Natural Population      
 --------------------------------------------------------
   Core                       3.99951 ( 99.9876% of   4)
   Valence                    9.91461 ( 99.1461% of  10)
   Natural Minimal Basis     13.91411 ( 99.3865% of  14)
   Natural Rydberg Basis      0.08589 (  0.6135% of  14)
 --------------------------------------------------------

    Atom  No          Natural Electron Configuration
 ----------------------------------------------------------------------------
      N    1      [core]2S( 1.62)2p( 3.33)3S( 0.02)3p( 0.01)3d( 0.01)
      N    2      [core]2S( 1.62)2p( 3.33)3S( 0.02)3p( 0.01)3d( 0.01)


 NATURAL BOND ORBITAL ANALYSIS:

                       Occupancies       Lewis Structure    Low   High
           Occ.    -------------------  -----------------   occ   occ
  Cycle   Thresh.   Lewis   Non-Lewis     CR  BD  3C  LP    (L)   (NL)   Dev
 =============================================================================
   1(1)    1.90    13.98685   0.01315      2   3   0   2     0      0    0.03
 -----------------------------------------------------------------------------

 Structure accepted: No low occupancy Lewis orbitals

 --------------------------------------------------------
   Core                      3.99950 ( 99.988% of   4)
   Valence Lewis             9.98735 ( 99.873% of  10)
  ==================       ============================
   Total Lewis              13.98685 ( 99.906% of  14)
  -----------------------------------------------------
   Valence non-Lewis         0.00000 (  0.000% of  14)
   Rydberg non-Lewis         0.01314 (  0.094% of  14)
  ==================       ============================
   Total non-Lewis           0.01315 (  0.094% of  14)
 --------------------------------------------------------


       (Occupancy)   Bond orbital/ Coefficients/ Hybrids
 ---------------------------------------------------------------------------------
     1. (2.00000) BD ( 1) N   1 - N   2  
                ( 50.00%)   0.7071* N   1 s( 37.78%)p 1.64( 61.82%)d 0.01(  0.39%)
                                            0.0000 -0.6026  0.1212 -0.0015  0.0000
                                            0.0000  0.0000  0.0000  0.7847  0.0499
                                            0.0000  0.0000  0.0000  0.0000 -0.0628
                ( 50.00%)   0.7071* N   2 s( 37.78%)p 1.64( 61.82%)d 0.01(  0.39%)
                                           -0.0000 -0.6026  0.1212 -0.0015  0.0000
                                            0.0000  0.0000  0.0000 -0.7847 -0.0499
                                            0.0000  0.0000  0.0000  0.0000 -0.0628
     2. (2.00000) BD ( 2) N   1 - N   2  
                ( 50.00%)   0.7071* N   1 s(  0.00%)p 1.00( 99.55%)d 0.00(  0.45%)
                                            0.0000  0.0000  0.0000  0.0000  0.9977
                                           -0.0062  0.0000  0.0000  0.0000  0.0000
                                            0.0000 -0.0675  0.0000  0.0000  0.0000
                ( 50.00%)   0.7071* N   2 s(  0.00%)p 1.00( 99.55%)d 0.00(  0.45%)
                                            0.0000  0.0000  0.0000  0.0000  0.9977
                                           -0.0062  0.0000  0.0000  0.0000  0.0000
                                            0.0000  0.0675  0.0000  0.0000  0.0000
     3. (2.00000) BD ( 3) N   1 - N   2  
                ( 50.00%)   0.7071* N   1 s(  0.00%)p 1.00( 99.55%)d 0.00(  0.45%)
                                            0.0000  0.0000  0.0000  0.0000  0.0000
                                            0.0000  0.9977 -0.0062  0.0000  0.0000
                                            0.0000  0.0000 -0.0675  0.0000  0.0000
                ( 50.00%)   0.7071* N   2 s(  0.00%)p 1.00( 99.55%)d 0.00(  0.45%)
                                            0.0000  0.0000  0.0000  0.0000  0.0000
                                            0.0000  0.9977 -0.0062  0.0000  0.0000
                                            0.0000  0.0000  0.0675  0.0000  0.0000
     4. (1.99975) CR ( 1) N   1           s(100.00%)p 0.00(  0.00%)
                                            1.0000  0.0002  0.0000 -0.0000  0.0000
                                            0.0000  0.0000  0.0000  0.0002 -0.0000
                                            0.0000  0.0000  0.0000  0.0000 -0.0000
     5. (1.99975) CR ( 1) N   2           s(100.00%)p 0.00(  0.00%)
                                            1.0000  0.0002  0.0000 -0.0000  0.0000
                                            0.0000  0.0000  0.0000 -0.0002  0.0000
                                            0.0000  0.0000  0.0000  0.0000 -0.0000
     6. (1.99367) LP ( 1) N   1           s( 63.49%)p 0.57( 36.46%)d 0.00(  0.05%)
                                           -0.0003  0.7955  0.0459 -0.0006  0.0000
                                            0.0000  0.0000  0.0000  0.6034 -0.0218
                                            0.0000  0.0000  0.0000  0.0000 -0.0228
     7. (1.99367) LP ( 1) N   2           s( 63.49%)p 0.57( 36.46%)d 0.00(  0.05%)
                                           -0.0003  0.7955  0.0459 -0.0006  0.0000
                                            0.0000  0.0000  0.0000 -0.6034  0.0218
                                            0.0000  0.0000  0.0000  0.0000 -0.0228
     8. (0.00653) RY*( 1) N   1           s( 46.94%)p 1.08( 50.69%)d 0.05(  2.37%)
                                           -0.0000  0.0622  0.6802  0.0530  0.0000
                                            0.0000  0.0000  0.0000 -0.1142  0.7028
                                            0.0000  0.0000  0.0000  0.0000 -0.1539
     9. (0.00004) RY*( 2) N   1           s( 43.70%)p 0.65( 28.23%)d 0.64( 28.06%)
    10. (0.00000) RY*( 3) N   1           s(  0.00%)p 1.00(100.00%)d 0.00(  0.00%)
    11. (0.00000) RY*( 4) N   1           s(  0.00%)p 1.00(100.00%)d 0.00(  0.00%)
    12. (0.00000) RY*( 5) N   1           s( 99.92%)p 0.00(  0.04%)d 0.00(  0.04%)
    13. (0.00000) RY*( 6) N   1           s(  0.00%)p 0.00(  0.00%)d 1.00(100.00%)
    14. (0.00000) RY*( 7) N   1           s(  0.00%)p 1.00(  0.45%)d99.99( 99.55%)
    15. (0.00000) RY*( 8) N   1           s(  0.00%)p 1.00(  0.45%)d99.99( 99.55%)
    16. (0.00000) RY*( 9) N   1           s(  0.00%)p 0.00(  0.00%)d 1.00(100.00%)
    17. (0.00000) RY*(10) N   1           s(  8.16%)p 2.79( 22.76%)d 8.46( 69.08%)
    18. (0.00653) RY*( 1) N   2           s( 46.94%)p 1.08( 50.69%)d 0.05(  2.37%)
                                            0.0000  0.0622  0.6802  0.0530 -0.0000
                                           -0.0000 -0.0000 -0.0000  0.1142 -0.7028
                                           -0.0000 -0.0000 -0.0000 -0.0000 -0.1539
    19. (0.00004) RY*( 2) N   2           s( 43.70%)p 0.65( 28.23%)d 0.64( 28.06%)
    20. (0.00000) RY*( 3) N   2           s(  0.00%)p 1.00(100.00%)d 0.00(  0.00%)
    21. (0.00000) RY*( 4) N   2           s(  0.00%)p 1.00(100.00%)d 0.00(  0.00%)
    22. (0.00000) RY*( 5) N   2           s( 99.92%)p 0.00(  0.04%)d 0.00(  0.04%)
    23. (0.00000) RY*( 6) N   2           s(  0.00%)p 0.00(  0.00%)d 1.00(100.00%)
    24. (0.00000) RY*( 7) N   2           s(  0.00%)p 1.00(  0.45%)d99.99( 99.55%)
    25. (0.00000) RY*( 8) N   2           s(  0.00%)p 1.00(  0.45%)d99.99( 99.55%)
    26. (0.00000) RY*( 9) N   2           s(  0.00%)p 0.00(  0.00%)d 1.00(100.00%)
    27. (0.00000) RY*(10) N   2           s(  8.16%)p 2.79( 22.76%)d 8.46( 69.08%)
    28. (0.00000) BD*( 1) N   1 - N   2  
                ( 50.00%)   0.7071* N   1 s( 37.78%)p 1.64( 61.82%)d 0.01(  0.39%)
                ( 50.00%)  -0.7071* N   2 s( 37.78%)p 1.64( 61.82%)d 0.01(  0.39%)
    29. (0.00000) BD*( 2) N   1 - N   2  
                ( 50.00%)   0.7071* N   1 s(  0.00%)p 1.00( 99.55%)d 0.00(  0.45%)
                ( 50.00%)  -0.7071* N   2 s(  0.00%)p 1.00( 99.55%)d 0.00(  0.45%)
    30. (0.00000) BD*( 3) N   1 - N   2  
                ( 50.00%)   0.7071* N   1 s(  0.00%)p 1.00( 99.55%)d 0.00(  0.45%)
                ( 50.00%)  -0.7071* N   2 s(  0.00%)p 1.00( 99.55%)d 0.00(  0.45%)


 NHO Directionality and "Bond Bending" (deviations from line of nuclear centers)

         [Thresholds for printing:  angular deviation  >  1.0 degree]
                                    hybrid p-character > 25.0%
                                    orbital occupancy  >  0.10e

                                Line of Centers        Hybrid 1              Hybrid 2
                                ---------------  -------------------   ------------------
                NBO               Theta   Phi    Theta   Phi    Dev    Theta   Phi    Dev
 ========================================================================================
     2. BD (   2) N   1 - N   2   180.0    0.0    90.0    0.0  90.0     90.0    0.0  90.0
     3. BD (   3) N   1 - N   2   180.0    0.0    90.0   90.0  90.0     90.0   90.0  90.0
     6. LP (   1) N   1             --     --      0.0    0.0   --       --     --    --
     7. LP (   1) N   2             --     --    180.0    0.0   --       --     --    --


 Second Order Perturbation Theory Analysis of Fock Matrix in NBO Basis

     Threshold for printing:   0.50 kcal/mol
                                                                              E(2)  E(j)-E(i) F(i,j)
         Donor NBO (i)                     Acceptor NBO (j)                 kcal/mol   a.u.    a.u. 
 ===================================================================================================

 within unit  1
   1. BD (   1) N   1 - N   2        /  8. RY*(   1) N   1                    0.51    1.97    0.028
   1. BD (   1) N   1 - N   2        / 18. RY*(   1) N   2                    0.51    1.97    0.028
   4. CR (   1) N   1                / 18. RY*(   1) N   2                    3.99   14.96    0.218
   5. CR (   1) N   2                /  8. RY*(   1) N   1                    3.99   14.96    0.218
   6. LP (   1) N   1                / 18. RY*(   1) N   2                    7.39    1.37    0.090
   7. LP (   1) N   2                /  8. RY*(   1) N   1                    7.39    1.37    0.090


 Natural Bond Orbitals (Summary):

                                                            Principal Delocalizations
           NBO                        Occupancy    Energy   (geminal,vicinal,remote)
 ====================================================================================
 Molecular unit  1  (N2)
     1. BD (   1) N   1 - N   2          2.00000    -1.24061  8(g),18(g)
     2. BD (   2) N   1 - N   2          2.00000    -0.46240   
     3. BD (   3) N   1 - N   2          2.00000    -0.46240   
     4. CR (   1) N   1                  1.99975   -14.23124  18(v)
     5. CR (   1) N   2                  1.99975   -14.23124  8(v)
     6. LP (   1) N   1                  1.99367    -0.63887  18(v)
     7. LP (   1) N   2                  1.99367    -0.63887  8(v)
     8. RY*(   1) N   1                  0.00653     0.73202   
     9. RY*(   2) N   1                  0.00004     1.44194   
    10. RY*(   3) N   1                  0.00000     0.67427   
    11. RY*(   4) N   1                  0.00000     0.67427   
    12. RY*(   5) N   1                  0.00000     3.33419   
    13. RY*(   6) N   1                  0.00000     1.69446   
    14. RY*(   7) N   1                  0.00000     2.05054   
    15. RY*(   8) N   1                  0.00000     2.05054   
    16. RY*(   9) N   1                  0.00000     1.69446   
    17. RY*(  10) N   1                  0.00000     1.91884   
    18. RY*(   1) N   2                  0.00653     0.73202   
    19. RY*(   2) N   2                  0.00004     1.44194   
    20. RY*(   3) N   2                  0.00000     0.67427   
    21. RY*(   4) N   2                  0.00000     0.67427   
    22. RY*(   5) N   2                  0.00000     3.33419   
    23. RY*(   6) N   2                  0.00000     1.69446   
    24. RY*(   7) N   2                  0.00000     2.05054   
    25. RY*(   8) N   2                  0.00000     2.05054   
    26. RY*(   9) N   2                  0.00000     1.69446   
    27. RY*(  10) N   2                  0.00000     1.91884   
    28. BD*(   1) N   1 - N   2          0.00000     0.89835   
    29. BD*(   2) N   1 - N   2          0.00000     0.02502   
    30. BD*(   3) N   1 - N   2          0.00000     0.02502   
       -------------------------------
              Total Lewis   13.98685  ( 99.9061%)
        Valence non-Lewis    0.00000  (  0.0000%)
        Rydberg non-Lewis    0.01314  (  0.0939%)
       -------------------------------
            Total unit  1   14.00000  (100.0000%)
           Charge unit  1    0.00000
 Unable to Open any file for archive entry.
 1\1\GINC-LOCALHOST\FOpt\RB3LYP\6-31G(d)\N2\USER\21-Mar-2026\0\\# opt f
 req b3lyp/6-31g(d) pop=nbo geom=connectivity\\N2-opt-B3LYP-6-31g(d)\\0
 ,1\N,0.0669915128,2.1699584161,0.\N,1.1723246672,2.1890158839,0.\\Vers
 ion=ES64L-G16RevC.02\State=1-SGG\HF=-109.5241287\RMSD=1.734e-09\RMSF=2
 .347e-08\Dipole=0.,0.,0.\Quadrupole=-0.7719299,0.3857928,0.3861371,-0.
 0199667,0.,0.\PG=D*H [C*(N1.N1)]\\@
 The archive entry for this job was punched.


 CONFIDENCE: THAT QUIET ASSURED FEELING YOU HAVE
 JUST BEFORE YOU FALL FLAT ON YOUR FACE.
 Job cpu time:       0 days  0 hours  1 minutes  1.1 seconds.
 Elapsed time:       0 days  0 hours  0 minutes  4.3 seconds.
 File lengths (MBytes):  RWF=      6 Int=      0 D2E=      0 Chk=      1 Scr=      1
 Normal termination of Gaussian 16 at Sat Mar 21 10:15:52 2026.
 Link1:  Proceeding to internal job step number  2.
 --------------------------------------------------------------------
 #N Geom=AllCheck Guess=TCheck SCRF=Check GenChk RB3LYP/6-31G(d) Freq
 --------------------------------------------------------------------
 1/10=4,29=7,30=1,38=1,40=1/1,3;
 2/12=2,40=1/2;
 3/5=1,6=6,7=1,11=2,14=-4,25=1,30=1,70=2,71=2,74=-5,116=1,140=1/1,2,3;
 4/5=101/1;
 5/5=2,38=6,98=1/2;
 8/6=4,10=90,11=11/1;
 11/6=1,8=1,9=11,15=111,16=1/1,2,10;
 10/6=1/2;
 6/7=2,8=2,9=2,10=2,28=1,40=1/1,7;
 7/8=1,10=1,25=1/1,2,3,16;
 1/10=4,30=1/3;
 99//99;
 Structure from the checkpoint file:  "N2-B3LYP-6-31G(d).chk"
 ---------------------
 N2-opt-B3LYP-6-31g(d)
 ---------------------
 Charge =  0 Multiplicity = 1
 Redundant internal coordinates found in file.  (old form).
 N,0,0.0669915128,2.1699584161,0.
 N,0,1.1723246672,2.1890158839,0.
 Recover connectivity data from disk.

 GradGradGradGradGradGradGradGradGradGradGradGradGradGradGradGradGradGrad
 Berny optimization.
 Initialization pass.
                           ----------------------------
                           !    Initial Parameters    !
                           ! (Angstroms and Degrees)  !
 --------------------------                            --------------------------
 ! Name  Definition              Value          Derivative Info.                !
 --------------------------------------------------------------------------------
 ! R1    R(1,2)                  1.1055         calculate D2E/DX2 analytically  !
 --------------------------------------------------------------------------------
 Trust Radius=3.00D-01 FncErr=1.00D-07 GrdErr=1.00D-07 EigMax=2.50D+02 EigMin=1.00D-04
 Number of steps in this run=      2 maximum allowed number of steps=      2.
 GradGradGradGradGradGradGradGradGradGradGradGradGradGradGradGradGradGrad

                          Input orientation:                          
 ---------------------------------------------------------------------
 Center     Atomic      Atomic             Coordinates (Angstroms)
 Number     Number       Type             X           Y           Z
 ---------------------------------------------------------------------
      1          7           0        0.066992    2.169958    0.000000
      2          7           0        1.172325    2.189016    0.000000
 ---------------------------------------------------------------------
 Stoichiometry    N2
 Framework group  D*H[C*(N.N)]
 Deg. of freedom     1
 Full point group                 D*H     NOp   8
 Largest Abelian subgroup         D2H     NOp   8
 Largest concise Abelian subgroup C2      NOp   2
                         Standard orientation:                         
 ---------------------------------------------------------------------
 Center     Atomic      Atomic             Coordinates (Angstroms)
 Number     Number       Type             X           Y           Z
 ---------------------------------------------------------------------
      1          7           0       -0.000000   -0.000000    0.552749
      2          7           0        0.000000   -0.000000   -0.552749
 ---------------------------------------------------------------------
 Rotational constants (GHZ):           0.0000000          59.0620254          59.0620254
 Standard basis: 6-31G(d) (6D, 7F)
 There are     8 symmetry adapted cartesian basis functions of AG  symmetry.
 There are     1 symmetry adapted cartesian basis functions of B1G symmetry.
 There are     3 symmetry adapted cartesian basis functions of B2G symmetry.
 There are     3 symmetry adapted cartesian basis functions of B3G symmetry.
 There are     1 symmetry adapted cartesian basis functions of AU  symmetry.
 There are     8 symmetry adapted cartesian basis functions of B1U symmetry.
 There are     3 symmetry adapted cartesian basis functions of B2U symmetry.
 There are     3 symmetry adapted cartesian basis functions of B3U symmetry.
 There are     8 symmetry adapted basis functions of AG  symmetry.
 There are     1 symmetry adapted basis functions of B1G symmetry.
 There are     3 symmetry adapted basis functions of B2G symmetry.
 There are     3 symmetry adapted basis functions of B3G symmetry.
 There are     1 symmetry adapted basis functions of AU  symmetry.
 There are     8 symmetry adapted basis functions of B1U symmetry.
 There are     3 symmetry adapted basis functions of B2U symmetry.
 There are     3 symmetry adapted basis functions of B3U symmetry.
    30 basis functions,    56 primitive gaussians,    30 cartesian basis functions
     7 alpha electrons        7 beta electrons
       nuclear repulsion energy        23.4552180879 Hartrees.
 NAtoms=    2 NActive=    2 NUniq=    1 SFac= 4.00D+00 NAtFMM=   60 NAOKFM=F Big=F
 Integral buffers will be    131072 words long.
 Raffenetti 2 integral format.
 Two-electron integral symmetry is turned on.
 One-electron integrals computed using PRISM.
 NBasis=    30 RedAO= T EigKep=  4.49D-03  NBF=     8     1     3     3     1     8     3     3
 NBsUse=    30 1.00D-06 EigRej= -1.00D+00 NBFU=     8     1     3     3     1     8     3     3
 Initial guess from the checkpoint file:  "N2-B3LYP-6-31G(d).chk"
 B after Tr=     0.000000    0.000000    0.000000
         Rot=    1.000000   -0.000000   -0.000000    0.000000 Ang=   0.00 deg.
 Initial guess orbital symmetries:
       Occupied  (SGG) (SGU) (SGG) (SGU) (PIU) (PIU) (SGG)
       Virtual   (PIG) (PIG) (SGU) (SGG) (PIU) (PIU) (SGG) (PIG)
                 (PIG) (SGU) (SGU) (DLTG) (DLTG) (PIU) (PIU) (DLTU)
                 (DLTU) (SGG) (PIG) (PIG) (SGU) (SGG) (SGU)
 Keep R1 ints in memory in symmetry-blocked form, NReq=20837663.
 Requested convergence on RMS density matrix=1.00D-08 within 128 cycles.
 Requested convergence on MAX density matrix=1.00D-06.
 Requested convergence on             energy=1.00D-06.
 No special actions if energy rises.
 Skip diagonalization as Alpha Fock matrix is already diagonal.
 SCF Done:  E(RB3LYP) =  -109.524128676     A.U. after    1 cycles
            NFock=  1  Conv=0.00D+00     -V/T= 2.0097
 DoSCS=F DFT=T ScalE2(SS,OS)=  1.000000  1.000000
 Range of M.O.s used for correlation:     1    30
 NBasis=    30 NAE=     7 NBE=     7 NFC=     0 NFV=     0
 NROrb=     30 NOA=     7 NOB=     7 NVA=    23 NVB=    23
 Symmetrizing basis deriv contribution to polar:
 IMax=3 JMax=2 DiffMx= 0.00D+00
 G2DrvN: will do     3 centers at a time, making    1 passes.
 Calling FoFCou, ICntrl=  3107 FMM=F I1Cent=   0 AccDes= 0.00D+00.
 End of G2Drv F.D. properties file   721 does not exist.
 End of G2Drv F.D. properties file   722 does not exist.
 End of G2Drv F.D. properties file   788 does not exist.
          IDoAtm=11
          Differentiating once with respect to electric field.
                with respect to dipole field.
          Differentiating once with respect to nuclear coordinates.
 Keep R1 ints in memory in symmetry-blocked form, NReq=20755482.
          There are     6 degrees of freedom in the 1st order CPHF.  IDoFFX=4 NUNeed=     6.
      6 vectors produced by pass  0 Test12= 2.68D-15 1.67D-08 XBig12= 1.39D+01 2.49D+00.
 AX will form     6 AO Fock derivatives at one time.
      6 vectors produced by pass  1 Test12= 2.68D-15 1.67D-08 XBig12= 8.93D+00 1.64D+00.
      6 vectors produced by pass  2 Test12= 2.68D-15 1.67D-08 XBig12= 3.81D-02 8.14D-02.
      6 vectors produced by pass  3 Test12= 2.68D-15 1.67D-08 XBig12= 1.59D-04 5.35D-03.
      6 vectors produced by pass  4 Test12= 2.68D-15 1.67D-08 XBig12= 2.55D-07 2.03D-04.
      4 vectors produced by pass  5 Test12= 2.68D-15 1.67D-08 XBig12= 1.85D-10 6.60D-06.
      1 vectors produced by pass  6 Test12= 2.68D-15 1.67D-08 XBig12= 5.37D-13 3.13D-07.
 InvSVY:  IOpt=1 It=  1 EMax= 4.44D-16
 Solved reduced A of dimension    35 with     6 vectors.
 Isotropic polarizability for W=    0.000000        8.54 Bohr**3.
 End of Minotr F.D. properties file   721 does not exist.
 End of Minotr F.D. properties file   722 does not exist.
 End of Minotr F.D. properties file   788 does not exist.

 **********************************************************************

            Population analysis using the SCF Density.

 **********************************************************************

 Orbital symmetries:
       Occupied  (SGG) (SGU) (SGG) (SGU) (PIU) (PIU) (SGG)
       Virtual   (PIG) (PIG) (SGU) (SGG) (PIU) (PIU) (SGG) (PIG)
                 (PIG) (SGU) (SGU) (DLTG) (DLTG) (PIU) (PIU) (DLTU)
                 (DLTU) (SGG) (PIG) (PIG) (SGU) (SGG) (SGU)
 The electronic state is 1-SGG.
 Alpha  occ. eigenvalues --  -14.44676 -14.44512  -1.12384  -0.55342  -0.46240
 Alpha  occ. eigenvalues --   -0.46240  -0.42688
 Alpha virt. eigenvalues --   -0.02412  -0.02412   0.41366   0.59105   0.60590
 Alpha virt. eigenvalues --    0.60590   0.64005   0.75115   0.75115   0.78521
 Alpha virt. eigenvalues --    1.23891   1.44991   1.44991   1.54800   1.54800
 Alpha virt. eigenvalues --    1.93901   1.93901   2.40434   2.59370   2.59370
 Alpha virt. eigenvalues --    2.81673   3.28940   3.58818
          Condensed to atoms (all electrons):
               1          2
     1  N    6.450381   0.549619
     2  N    0.549619   6.450381
 Mulliken charges:
               1
     1  N   -0.000000
     2  N   -0.000000
 Sum of Mulliken charges =  -0.00000
 Mulliken charges with hydrogens summed into heavy atoms:
               1
     1  N   -0.000000
     2  N   -0.000000
 APT charges:
               1
     1  N    0.000000
     2  N    0.000000
 Sum of APT charges =   0.00000
 APT charges with hydrogens summed into heavy atoms:
               1
     1  N    0.000000
     2  N    0.000000
 Electronic spatial extent (au):  <R**2>=             38.8468
 Charge=             -0.0000 electrons
 Dipole moment (field-independent basis, Debye):
    X=             -0.0000    Y=             -0.0000    Z=              0.0000  Tot=              0.0000
 Quadrupole moment (field-independent basis, Debye-Ang):
   XX=            -10.0489   YY=            -10.0489   ZZ=            -11.6070
   XY=             -0.0000   XZ=              0.0000   YZ=              0.0000
 Traceless Quadrupole moment (field-independent basis, Debye-Ang):
   XX=              0.5194   YY=              0.5194   ZZ=             -1.0387
   XY=             -0.0000   XZ=              0.0000   YZ=              0.0000
 Octapole moment (field-independent basis, Debye-Ang**2):
  XXX=             -0.0000  YYY=              0.0000  ZZZ=              0.0000  XYY=             -0.0000
  XXY=              0.0000  XXZ=              0.0000  XZZ=             -0.0000  YZZ=              0.0000
  YYZ=              0.0000  XYZ=              0.0000
 Hexadecapole moment (field-independent basis, Debye-Ang**3):
 XXXX=             -8.0062 YYYY=             -8.0062 ZZZZ=            -30.5670 XXXY=             -0.0000
 XXXZ=              0.0000 YYYX=             -0.0000 YYYZ=              0.0000 ZZZX=              0.0000
 ZZZY=              0.0000 XXYY=             -2.6687 XXZZ=             -6.0687 YYZZ=             -6.0687
 XXYZ=              0.0000 YYXZ=              0.0000 ZZXY=             -0.0000
 N-N= 2.345521808794D+01 E-N=-3.026346828226D+02  KE= 1.084740736280D+02
 Symmetry AG   KE= 5.302688057736D+01
 Symmetry B1G  KE= 1.637186838535D-34
 Symmetry B2G  KE= 3.443571331374D-32
 Symmetry B3G  KE= 5.047798563852D-33
 Symmetry AU   KE= 3.463810013913D-34
 Symmetry B1U  KE= 4.865763864180D+01
 Symmetry B2U  KE= 3.394777204430D+00
 Symmetry B3U  KE= 3.394777204430D+00
  Exact polarizability:       6.138       0.000       6.138      -0.000      -0.000      13.334
 Approx polarizability:       8.399       0.000       8.399      -0.000      -0.000      27.340
 ******************************Gaussian NBO Version 3.1******************************
             N A T U R A L   A T O M I C   O R B I T A L   A N D
          N A T U R A L   B O N D   O R B I T A L   A N A L Y S I S
 ******************************Gaussian NBO Version 3.1******************************
       /RESON  / : Allow strongly delocalized NBO set

 Analyzing the SCF density

 Job title: N2-opt-B3LYP-6-31g(d)                                           

 Storage needed:      2904 in NPA,      3709 in NBO (1342177252 available)
 GSVD:  LWork=         620 too small for GESVD, short by         150 words or         150 for optimal perf.
 GSVD:  LWork=         108 too small for GESVD, short by        1422 words or        1422 for optimal perf.


 NATURAL POPULATIONS:  Natural atomic orbital occupancies 
                                                          
   NAO  Atom  No  lang   Type(AO)    Occupancy      Energy
 ----------------------------------------------------------
     1    N    1  S      Cor( 1S)     1.99975     -14.23055
     2    N    1  S      Val( 2S)     1.62481      -0.66455
     3    N    1  S      Ryd( 3S)     0.02193       0.91131
     4    N    1  S      Ryd( 4S)     0.00002       3.37467
     5    N    1  px     Val( 2p)     0.99541      -0.22154
     6    N    1  px     Ryd( 3p)     0.00004       0.67327
     7    N    1  py     Val( 2p)     0.99541      -0.22154
     8    N    1  py     Ryd( 3p)     0.00004       0.67327
     9    N    1  pz     Val( 2p)     1.34167      -0.18558
    10    N    1  pz     Ryd( 3p)     0.00667       0.62727
    11    N    1  dxy    Ryd( 3d)     0.00000       1.69446
    12    N    1  dxz    Ryd( 3d)     0.00455       2.05438
    13    N    1  dyz    Ryd( 3d)     0.00455       2.05438
    14    N    1  dx2y2  Ryd( 3d)     0.00000       1.69446
    15    N    1  dz2    Ryd( 3d)     0.00514       2.55319
 
    16    N    2  S      Cor( 1S)     1.99975     -14.23055
    17    N    2  S      Val( 2S)     1.62481      -0.66455
    18    N    2  S      Ryd( 3S)     0.02193       0.91131
    19    N    2  S      Ryd( 4S)     0.00002       3.37467
    20    N    2  px     Val( 2p)     0.99541      -0.22154
    21    N    2  px     Ryd( 3p)     0.00004       0.67327
    22    N    2  py     Val( 2p)     0.99541      -0.22154
    23    N    2  py     Ryd( 3p)     0.00004       0.67327
    24    N    2  pz     Val( 2p)     1.34167      -0.18558
    25    N    2  pz     Ryd( 3p)     0.00667       0.62727
    26    N    2  dxy    Ryd( 3d)     0.00000       1.69446
    27    N    2  dxz    Ryd( 3d)     0.00455       2.05438
    28    N    2  dyz    Ryd( 3d)     0.00455       2.05438
    29    N    2  dx2y2  Ryd( 3d)     0.00000       1.69446
    30    N    2  dz2    Ryd( 3d)     0.00514       2.55319


 Summary of Natural Population Analysis:                  
                                                          
                                       Natural Population 
                Natural  -----------------------------------------------
    Atom  No    Charge         Core      Valence    Rydberg      Total
 -----------------------------------------------------------------------
      N    1    0.00000      1.99975     4.95730    0.04294     7.00000
      N    2    0.00000      1.99975     4.95730    0.04294     7.00000
 =======================================================================
   * Total *    0.00000      3.99951     9.91461    0.08589    14.00000

                                 Natural Population      
 --------------------------------------------------------
   Core                       3.99951 ( 99.9876% of   4)
   Valence                    9.91461 ( 99.1461% of  10)
   Natural Minimal Basis     13.91411 ( 99.3865% of  14)
   Natural Rydberg Basis      0.08589 (  0.6135% of  14)
 --------------------------------------------------------

    Atom  No          Natural Electron Configuration
 ----------------------------------------------------------------------------
      N    1      [core]2S( 1.62)2p( 3.33)3S( 0.02)3p( 0.01)3d( 0.01)
      N    2      [core]2S( 1.62)2p( 3.33)3S( 0.02)3p( 0.01)3d( 0.01)


 NATURAL BOND ORBITAL ANALYSIS:

                       Occupancies       Lewis Structure    Low   High
           Occ.    -------------------  -----------------   occ   occ
  Cycle   Thresh.   Lewis   Non-Lewis     CR  BD  3C  LP    (L)   (NL)   Dev
 =============================================================================
   1(1)    1.90    13.98685   0.01315      2   3   0   2     0      0    0.03
 -----------------------------------------------------------------------------

 Structure accepted: No low occupancy Lewis orbitals

 --------------------------------------------------------
   Core                      3.99950 ( 99.988% of   4)
   Valence Lewis             9.98735 ( 99.873% of  10)
  ==================       ============================
   Total Lewis              13.98685 ( 99.906% of  14)
  -----------------------------------------------------
   Valence non-Lewis         0.00000 (  0.000% of  14)
   Rydberg non-Lewis         0.01314 (  0.094% of  14)
  ==================       ============================
   Total non-Lewis           0.01315 (  0.094% of  14)
 --------------------------------------------------------


       (Occupancy)   Bond orbital/ Coefficients/ Hybrids
 ---------------------------------------------------------------------------------
     1. (2.00000) BD ( 1) N   1 - N   2  
                ( 50.00%)   0.7071* N   1 s( 37.78%)p 1.64( 61.82%)d 0.01(  0.39%)
                                            0.0000 -0.6026  0.1212 -0.0015  0.0000
                                            0.0000  0.0000  0.0000  0.7847  0.0499
                                            0.0000  0.0000  0.0000  0.0000 -0.0628
                ( 50.00%)   0.7071* N   2 s( 37.78%)p 1.64( 61.82%)d 0.01(  0.39%)
                                           -0.0000 -0.6026  0.1212 -0.0015  0.0000
                                            0.0000  0.0000  0.0000 -0.7847 -0.0499
                                            0.0000  0.0000  0.0000  0.0000 -0.0628
     2. (2.00000) BD ( 2) N   1 - N   2  
                ( 50.00%)   0.7071* N   1 s(  0.00%)p 1.00( 99.55%)d 0.00(  0.45%)
                                            0.0000  0.0000  0.0000  0.0000  0.9977
                                           -0.0062  0.0000  0.0000  0.0000  0.0000
                                            0.0000 -0.0675  0.0000  0.0000  0.0000
                ( 50.00%)   0.7071* N   2 s(  0.00%)p 1.00( 99.55%)d 0.00(  0.45%)
                                            0.0000  0.0000  0.0000  0.0000  0.9977
                                           -0.0062  0.0000  0.0000  0.0000  0.0000
                                            0.0000  0.0675  0.0000  0.0000  0.0000
     3. (2.00000) BD ( 3) N   1 - N   2  
                ( 50.00%)   0.7071* N   1 s(  0.00%)p 1.00( 99.55%)d 0.00(  0.45%)
                                            0.0000  0.0000  0.0000  0.0000  0.0000
                                            0.0000  0.9977 -0.0062  0.0000  0.0000
                                            0.0000  0.0000 -0.0675  0.0000  0.0000
                ( 50.00%)   0.7071* N   2 s(  0.00%)p 1.00( 99.55%)d 0.00(  0.45%)
                                            0.0000  0.0000  0.0000  0.0000  0.0000
                                            0.0000  0.9977 -0.0062  0.0000  0.0000
                                            0.0000  0.0000  0.0675  0.0000  0.0000
     4. (1.99975) CR ( 1) N   1           s(100.00%)p 0.00(  0.00%)
                                            1.0000  0.0002  0.0000 -0.0000  0.0000
                                            0.0000  0.0000  0.0000  0.0002 -0.0000
                                            0.0000  0.0000  0.0000  0.0000 -0.0000
     5. (1.99975) CR ( 1) N   2           s(100.00%)p 0.00(  0.00%)
                                            1.0000  0.0002  0.0000 -0.0000  0.0000
                                            0.0000  0.0000  0.0000 -0.0002  0.0000
                                            0.0000  0.0000  0.0000  0.0000 -0.0000
     6. (1.99367) LP ( 1) N   1           s( 63.49%)p 0.57( 36.46%)d 0.00(  0.05%)
                                           -0.0003  0.7955  0.0459 -0.0006  0.0000
                                            0.0000  0.0000  0.0000  0.6034 -0.0218
                                            0.0000  0.0000  0.0000  0.0000 -0.0228
     7. (1.99367) LP ( 1) N   2           s( 63.49%)p 0.57( 36.46%)d 0.00(  0.05%)
                                           -0.0003  0.7955  0.0459 -0.0006  0.0000
                                            0.0000  0.0000  0.0000 -0.6034  0.0218
                                            0.0000  0.0000  0.0000  0.0000 -0.0228
     8. (0.00653) RY*( 1) N   1           s( 46.94%)p 1.08( 50.69%)d 0.05(  2.37%)
                                           -0.0000  0.0622  0.6802  0.0530  0.0000
                                            0.0000  0.0000  0.0000 -0.1142  0.7028
                                            0.0000  0.0000  0.0000  0.0000 -0.1539
     9. (0.00004) RY*( 2) N   1           s( 43.70%)p 0.65( 28.23%)d 0.64( 28.06%)
    10. (0.00000) RY*( 3) N   1           s(  0.00%)p 1.00(100.00%)d 0.00(  0.00%)
    11. (0.00000) RY*( 4) N   1           s(  0.00%)p 1.00(100.00%)d 0.00(  0.00%)
    12. (0.00000) RY*( 5) N   1           s( 99.92%)p 0.00(  0.04%)d 0.00(  0.04%)
    13. (0.00000) RY*( 6) N   1           s(  0.00%)p 0.00(  0.00%)d 1.00(100.00%)
    14. (0.00000) RY*( 7) N   1           s(  0.00%)p 1.00(  0.45%)d99.99( 99.55%)
    15. (0.00000) RY*( 8) N   1           s(  0.00%)p 1.00(  0.45%)d99.99( 99.55%)
    16. (0.00000) RY*( 9) N   1           s(  0.00%)p 0.00(  0.00%)d 1.00(100.00%)
    17. (0.00000) RY*(10) N   1           s(  8.16%)p 2.79( 22.76%)d 8.46( 69.08%)
    18. (0.00653) RY*( 1) N   2           s( 46.94%)p 1.08( 50.69%)d 0.05(  2.37%)
                                            0.0000  0.0622  0.6802  0.0530 -0.0000
                                           -0.0000 -0.0000 -0.0000  0.1142 -0.7028
                                           -0.0000 -0.0000 -0.0000 -0.0000 -0.1539
    19. (0.00004) RY*( 2) N   2           s( 43.70%)p 0.65( 28.23%)d 0.64( 28.06%)
    20. (0.00000) RY*( 3) N   2           s(  0.00%)p 1.00(100.00%)d 0.00(  0.00%)
    21. (0.00000) RY*( 4) N   2           s(  0.00%)p 1.00(100.00%)d 0.00(  0.00%)
    22. (0.00000) RY*( 5) N   2           s( 99.92%)p 0.00(  0.04%)d 0.00(  0.04%)
    23. (0.00000) RY*( 6) N   2           s(  0.00%)p 0.00(  0.00%)d 1.00(100.00%)
    24. (0.00000) RY*( 7) N   2           s(  0.00%)p 1.00(  0.45%)d99.99( 99.55%)
    25. (0.00000) RY*( 8) N   2           s(  0.00%)p 1.00(  0.45%)d99.99( 99.55%)
    26. (0.00000) RY*( 9) N   2           s(  0.00%)p 0.00(  0.00%)d 1.00(100.00%)
    27. (0.00000) RY*(10) N   2           s(  8.16%)p 2.79( 22.76%)d 8.46( 69.08%)
    28. (0.00000) BD*( 1) N   1 - N   2  
                ( 50.00%)   0.7071* N   1 s( 37.78%)p 1.64( 61.82%)d 0.01(  0.39%)
                ( 50.00%)  -0.7071* N   2 s( 37.78%)p 1.64( 61.82%)d 0.01(  0.39%)
    29. (0.00000) BD*( 2) N   1 - N   2  
                ( 50.00%)   0.7071* N   1 s(  0.00%)p 1.00( 99.55%)d 0.00(  0.45%)
                ( 50.00%)  -0.7071* N   2 s(  0.00%)p 1.00( 99.55%)d 0.00(  0.45%)
    30. (0.00000) BD*( 3) N   1 - N   2  
                ( 50.00%)   0.7071* N   1 s(  0.00%)p 1.00( 99.55%)d 0.00(  0.45%)
                ( 50.00%)  -0.7071* N   2 s(  0.00%)p 1.00( 99.55%)d 0.00(  0.45%)


 NHO Directionality and "Bond Bending" (deviations from line of nuclear centers)

         [Thresholds for printing:  angular deviation  >  1.0 degree]
                                    hybrid p-character > 25.0%
                                    orbital occupancy  >  0.10e

                                Line of Centers        Hybrid 1              Hybrid 2
                                ---------------  -------------------   ------------------
                NBO               Theta   Phi    Theta   Phi    Dev    Theta   Phi    Dev
 ========================================================================================
     2. BD (   2) N   1 - N   2   180.0    0.0    90.0    0.0  90.0     90.0    0.0  90.0
     3. BD (   3) N   1 - N   2   180.0    0.0    90.0   90.0  90.0     90.0   90.0  90.0
     6. LP (   1) N   1             --     --      0.0    0.0   --       --     --    --
     7. LP (   1) N   2             --     --    180.0    0.0   --       --     --    --


 Second Order Perturbation Theory Analysis of Fock Matrix in NBO Basis

     Threshold for printing:   0.50 kcal/mol
                                                                              E(2)  E(j)-E(i) F(i,j)
         Donor NBO (i)                     Acceptor NBO (j)                 kcal/mol   a.u.    a.u. 
 ===================================================================================================

 within unit  1
   1. BD (   1) N   1 - N   2        /  8. RY*(   1) N   1                    0.51    1.97    0.028
   1. BD (   1) N   1 - N   2        / 18. RY*(   1) N   2                    0.51    1.97    0.028
   4. CR (   1) N   1                / 18. RY*(   1) N   2                    3.99   14.96    0.218
   5. CR (   1) N   2                /  8. RY*(   1) N   1                    3.99   14.96    0.218
   6. LP (   1) N   1                / 18. RY*(   1) N   2                    7.39    1.37    0.090
   7. LP (   1) N   2                /  8. RY*(   1) N   1                    7.39    1.37    0.090


 Natural Bond Orbitals (Summary):

                                                            Principal Delocalizations
           NBO                        Occupancy    Energy   (geminal,vicinal,remote)
 ====================================================================================
 Molecular unit  1  (N2)
     1. BD (   1) N   1 - N   2          2.00000    -1.24061  8(g),18(g)
     2. BD (   2) N   1 - N   2          2.00000    -0.46240   
     3. BD (   3) N   1 - N   2          2.00000    -0.46240   
     4. CR (   1) N   1                  1.99975   -14.23124  18(v)
     5. CR (   1) N   2                  1.99975   -14.23124  8(v)
     6. LP (   1) N   1                  1.99367    -0.63887  18(v)
     7. LP (   1) N   2                  1.99367    -0.63887  8(v)
     8. RY*(   1) N   1                  0.00653     0.73202   
     9. RY*(   2) N   1                  0.00004     1.44194   
    10. RY*(   3) N   1                  0.00000     0.67427   
    11. RY*(   4) N   1                  0.00000     0.67427   
    12. RY*(   5) N   1                  0.00000     3.33419   
    13. RY*(   6) N   1                  0.00000     1.69446   
    14. RY*(   7) N   1                  0.00000     2.05054   
    15. RY*(   8) N   1                  0.00000     2.05054   
    16. RY*(   9) N   1                  0.00000     1.69446   
    17. RY*(  10) N   1                  0.00000     1.91884   
    18. RY*(   1) N   2                  0.00653     0.73202   
    19. RY*(   2) N   2                  0.00004     1.44194   
    20. RY*(   3) N   2                  0.00000     0.67427   
    21. RY*(   4) N   2                  0.00000     0.67427   
    22. RY*(   5) N   2                  0.00000     3.33419   
    23. RY*(   6) N   2                  0.00000     1.69446   
    24. RY*(   7) N   2                  0.00000     2.05054   
    25. RY*(   8) N   2                  0.00000     2.05054   
    26. RY*(   9) N   2                  0.00000     1.69446   
    27. RY*(  10) N   2                  0.00000     1.91884   
    28. BD*(   1) N   1 - N   2          0.00000     0.89835   
    29. BD*(   2) N   1 - N   2          0.00000     0.02502   
    30. BD*(   3) N   1 - N   2          0.00000     0.02502   
       -------------------------------
              Total Lewis   13.98685  ( 99.9061%)
        Valence non-Lewis    0.00000  (  0.0000%)
        Rydberg non-Lewis    0.01314  (  0.0939%)
       -------------------------------
            Total unit  1   14.00000  (100.0000%)
           Charge unit  1    0.00000
 Calling FoFJK, ICntrl=    100127 FMM=F ISym2X=1 I1Cent= 0 IOpClX= 0 NMat=1 NMatS=1 NMatT=0.
 Full mass-weighted force constant matrix:
 Low frequencies ---   -0.0007   -0.0007    0.0015    4.5408    4.5408 2457.3315
 Diagonal vibrational polarizability:
        0.0000000       0.0000000       0.0000000
 Harmonic frequencies (cm**-1), IR intensities (KM/Mole), Raman scattering
 activities (A**4/AMU), depolarization ratios for plane and unpolarized
 incident light, reduced masses (AMU), force constants (mDyne/A),
 and normal coordinates:
                      1
                     SGG
 Frequencies --   2457.3315
 Red. masses --     14.0031
 Frc consts  --     49.8197
 IR Inten    --      0.0000
  Atom  AN      X      Y      Z
     1   7    -0.00  -0.00   0.71
     2   7     0.00   0.00  -0.71

 -------------------
 - Thermochemistry -
 -------------------
 Temperature   298.150 Kelvin.  Pressure   1.00000 Atm.
 Atom     1 has atomic number  7 and mass  14.00307
 Atom     2 has atomic number  7 and mass  14.00307
 Molecular mass:    28.00615 amu.
 Principal axes and moments of inertia in atomic units:
                           1         2         3
     Eigenvalues --    -0.00000  30.55671  30.55671
           X           -0.00000   0.64539   0.76385
           Y           -0.00000   0.76385  -0.64539
           Z            1.00000   0.00000   0.00000
 This molecule is a prolate symmetric top.
 Rotational symmetry number  2.
 Rotational temperature (Kelvin)      2.83453
 Rotational constant (GHZ):          59.062025
 Zero-point vibrational energy      14698.1 (Joules/Mol)
                                    3.51293 (Kcal/Mol)
 Vibrational temperatures:   3535.55
          (Kelvin)
 
 Zero-point correction=                           0.005598 (Hartree/Particle)
 Thermal correction to Energy=                    0.007959
 Thermal correction to Enthalpy=                  0.008903
 Thermal correction to Gibbs Free Energy=        -0.012851
 Sum of electronic and zero-point Energies=           -109.518530
 Sum of electronic and thermal Energies=              -109.516170
 Sum of electronic and thermal Enthalpies=            -109.515226
 Sum of electronic and thermal Free Energies=         -109.536980
 
                     E (Thermal)             CV                S
                      KCal/Mol        Cal/Mol-Kelvin    Cal/Mol-Kelvin
 Total                    4.994              4.970             45.786
 Electronic               0.000              0.000              0.000
 Translational            0.889              2.981             35.924
 Rotational               0.592              1.987              9.862
 Vibrational              3.513              0.002              0.000
                       Q            Log10(Q)             Ln(Q)
 Total Bot       0.815199D+06          5.911264         13.611188
 Total V=0       0.306380D+09          8.486261         19.540337
 Vib (Bot)       0.266076D-02         -2.574994         -5.929143
 Vib (V=0)       0.100001D+01          0.000003          0.000007
 Electronic      0.100000D+01          0.000000          0.000000
 Translational   0.582551D+07          6.765334         15.577757
 Rotational      0.525925D+02          1.720924          3.962573
 ***** Axes restored to original set *****
 -------------------------------------------------------------------
 Center     Atomic                   Forces (Hartrees/Bohr)
 Number     Number              X              Y              Z
 -------------------------------------------------------------------
      1        7          -0.000000041   -0.000000001    0.000000000
      2        7           0.000000041    0.000000001   -0.000000000
 -------------------------------------------------------------------
 Cartesian Forces:  Max     0.000000041 RMS     0.000000024
 FormGI is forming the generalized inverse of G from B-inverse, IUseBI=4.

 GradGradGradGradGradGradGradGradGradGradGradGradGradGradGradGradGradGrad
 Berny optimization.
 Internal  Forces:  Max     0.000000041 RMS     0.000000041
 Search for a local minimum.
 Step number   1 out of a maximum of    2
 All quantities printed in internal units (Hartrees-Bohrs-Radians)
 Second derivative matrix not updated -- analytic derivatives used.
 The second derivative matrix:
                          R1
           R1           1.59997
 ITU=  0
     Eigenvalues ---    1.59997
 Angle between quadratic step and forces=  90.00 degrees.
 Linear search not attempted -- first point.
 Iteration  1 RMS(Cart)=  0.00000002 RMS(Int)=  0.00000000
 ClnCor:  largest displacement from symmetrization is 4.44D-16 for atom     2.
 Variable       Old X    -DE/DX   Delta X   Delta X   Delta X     New X
                                 (Linear)    (Quad)   (Total)
    R1        2.08909   0.00000   0.00000   0.00000   0.00000   2.08909
         Item               Value     Threshold  Converged?
 Maximum Force            0.000000     0.000450     YES
 RMS     Force            0.000000     0.000300     YES
 Maximum Displacement     0.000000     0.001800     YES
 RMS     Displacement     0.000000     0.001200     YES
 Predicted change in Energy=-5.217851D-16
 Optimization completed.
    -- Stationary point found.
                           ----------------------------
                           !   Optimized Parameters   !
                           ! (Angstroms and Degrees)  !
 --------------------------                            --------------------------
 ! Name  Definition              Value          Derivative Info.                !
 --------------------------------------------------------------------------------
 ! R1    R(1,2)                  1.1055         -DE/DX =    0.0                 !
 --------------------------------------------------------------------------------
 GradGradGradGradGradGradGradGradGradGradGradGradGradGradGradGradGradGrad

 Dipole is zero, so no output in dipole orientation.

 ----------------------------------------------------------------------

 Electric dipole moment (input orientation):
 (Debye = 10**-18 statcoulomb cm , SI units = C m)
                  (au)            (Debye)         (10**-30 SI)
   Tot        0.000000D+00      0.000000D+00      0.000000D+00
   x          0.000000D+00      0.000000D+00      0.000000D+00
   y          0.000000D+00      0.000000D+00      0.000000D+00
   z          0.000000D+00      0.000000D+00      0.000000D+00

 Dipole polarizability, Alpha (input orientation).
 (esu units = cm**3 , SI units = C**2 m**2 J**-1)
 Alpha(0;0):
               (au)            (10**-24 esu)      (10**-40 SI)
   iso        0.853651D+01      0.126498D+01      0.140748D+01
   aniso      0.719588D+01      0.106632D+01      0.118644D+01
   xx         0.133316D+02      0.197554D+01      0.219809D+01
   yx         0.124030D+00      0.183793D-01      0.204498D-01
   yy         0.614003D+01      0.909858D+00      0.101235D+01
   zx         0.000000D+00      0.000000D+00      0.000000D+00
   zy         0.000000D+00      0.000000D+00      0.000000D+00
   zz         0.613789D+01      0.909541D+00      0.101200D+01

 ----------------------------------------------------------------------
 Unable to Open any file for archive entry.
 1\1\GINC-LOCALHOST\Freq\RB3LYP\6-31G(d)\N2\USER\21-Mar-2026\0\\#N Geom
 =AllCheck Guess=TCheck SCRF=Check GenChk RB3LYP/6-31G(d) Freq\\N2-opt-
 B3LYP-6-31g(d)\\0,1\N,0.0669915128,2.1699584161,0.\N,1.1723246672,2.18
 90158839,0.\\Version=ES64L-G16RevC.02\State=1-SGG\HF=-109.5241287\RMSD
 =0.000e+00\RMSF=2.359e-08\ZeroPoint=0.0055982\Thermal=0.0079588\ETot=-
 109.5161699\HTot=-109.5152257\GTot=-109.5369802\Dipole=0.,0.,0.\Dipole
 Deriv=0.,0.,0.,0.,0.,0.,0.,0.,0.,0.,0.,0.,0.,0.,0.,0.,0.,0.\Polar=13.3
 316275,0.12403,6.1400273,0.,0.,6.1378889\Quadrupole=-0.7719299,0.38579
 28,0.3861371,-0.0199667,0.,0.\PG=D*H [C*(N1.N1)]\NImag=0\\1.59949629,0
 .02757743,0.00048094,0.,0.,0.00000546,-1.59949629,-0.02757743,0.,1.599
 49629,-0.02757743,-0.00048094,0.,0.02757743,0.00048094,0.,0.,-0.000005
 46,0.,0.,0.00000546\\0.00000004,0.,0.,-0.00000004,0.,0.\\\@
 The archive entry for this job was punched.


 TIME GOES, YOU SAY?  AH NO!
 ALAS, TIME STAYS, WE GO.
    -- A. DOBSON (1840-1921)
 Job cpu time:       0 days  0 hours  0 minutes 39.3 seconds.
 Elapsed time:       0 days  0 hours  0 minutes  2.4 seconds.
 File lengths (MBytes):  RWF=      6 Int=      0 D2E=      0 Chk=      1 Scr=      1
 Normal termination of Gaussian 16 at Sat Mar 21 10:15:55 2026.
