 Entering Gaussian System, Link 0=g09
 Input=Benzene-b3lyp-ccpvdz.gjf
 Output=Benzene-b3lyp-ccpvdz.log
 Initial command:
 /home/p20190052/g09/l1.exe "/home/p20190052/g09/scratch/Gau-55616.inp" -scrdir="/home/p20190052/g09/scratch/"
 Entering Link 1 = /home/p20190052/g09/l1.exe PID=     55617.
  
 Copyright (c) 1988,1990,1992,1993,1995,1998,2003,2009,2015,
            Gaussian, Inc.  All Rights Reserved.
  
 This is part of the Gaussian(R) 09 program.  It is based on
 the Gaussian(R) 03 system (copyright 2003, Gaussian, Inc.),
 the Gaussian(R) 98 system (copyright 1998, Gaussian, Inc.),
 the Gaussian(R) 94 system (copyright 1995, Gaussian, Inc.),
 the Gaussian 92(TM) system (copyright 1992, Gaussian, Inc.),
 the Gaussian 90(TM) system (copyright 1990, Gaussian, Inc.),
 the Gaussian 88(TM) system (copyright 1988, Gaussian, Inc.),
 the Gaussian 86(TM) system (copyright 1986, Carnegie Mellon
 University), and the Gaussian 82(TM) system (copyright 1983,
 Carnegie Mellon University). Gaussian is a federally registered
 trademark of Gaussian, Inc.
  
 This software contains proprietary and confidential information,
 including trade secrets, belonging to Gaussian, Inc.
  
 This software is provided under written license and may be
 used, copied, transmitted, or stored only in accord with that
 written license.
  
 The following legend is applicable only to US Government
 contracts under FAR:
  
                    RESTRICTED RIGHTS LEGEND
  
 Use, reproduction and disclosure by the US Government is
 subject to restrictions as set forth in subparagraphs (a)
 and (c) of the Commercial Computer Software - Restricted
 Rights clause in FAR 52.227-19.
  
 Gaussian, Inc.
 340 Quinnipiac St., Bldg. 40, Wallingford CT 06492
  
  
 ---------------------------------------------------------------
 Warning -- This program may not be used in any manner that
 competes with the business of Gaussian, Inc. or will provide
 assistance to any competitor of Gaussian, Inc.  The licensee
 of this program is prohibited from giving any competitor of
 Gaussian, Inc. access to this program.  By using this program,
 the user acknowledges that Gaussian, Inc. is engaged in the
 business of creating and licensing software in the field of
 computational chemistry and represents and warrants to the
 licensee that it is not a competitor of Gaussian, Inc. and that
 it will not use this program in any manner prohibited above.
 ---------------------------------------------------------------
  

 Cite this work as:
 Gaussian 09, Revision E.01,
 M. J. Frisch, G. W. Trucks, H. B. Schlegel, G. E. Scuseria, 
 M. A. Robb, J. R. Cheeseman, G. Scalmani, V. Barone, B. Mennucci, 
 G. A. Petersson, H. Nakatsuji, M. Caricato, X. Li, H. P. Hratchian, 
 A. F. Izmaylov, J. Bloino, G. Zheng, J. L. Sonnenberg, M. Hada, 
 M. Ehara, K. Toyota, R. Fukuda, J. Hasegawa, M. Ishida, T. Nakajima, 
 Y. Honda, O. Kitao, H. Nakai, T. Vreven, J. A. Montgomery, Jr., 
 J. E. Peralta, F. Ogliaro, M. Bearpark, J. J. Heyd, E. Brothers, 
 K. N. Kudin, V. N. Staroverov, T. Keith, R. Kobayashi, J. Normand, 
 K. Raghavachari, A. Rendell, J. C. Burant, S. S. Iyengar, J. Tomasi, 
 M. Cossi, N. Rega, J. M. Millam, M. Klene, J. E. Knox, J. B. Cross, 
 V. Bakken, C. Adamo, J. Jaramillo, R. Gomperts, R. E. Stratmann, 
 O. Yazyev, A. J. Austin, R. Cammi, C. Pomelli, J. W. Ochterski, 
 R. L. Martin, K. Morokuma, V. G. Zakrzewski, G. A. Voth, 
 P. Salvador, J. J. Dannenberg, S. Dapprich, A. D. Daniels, 
 O. Farkas, J. B. Foresman, J. V. Ortiz, J. Cioslowski, 
 and D. J. Fox, Gaussian, Inc., Wallingford CT, 2013.
 
 ******************************************
 Gaussian 09:  ES64L-G09RevE.01 30-Nov-2015
                20-Jul-2026 
 ******************************************
 %mem=30GB
 %nprocs=40
 Will use up to   40 processors via shared memory.
 %chk=Benzene_b3lyp_cc-pvdz.chk
 --------------------
 #p opt b3lyp/cc-pvdz
 --------------------
 1/14=-1,18=20,19=15,26=3,38=1/1,3;
 2/9=110,12=2,17=6,18=5,40=1/2;
 3/5=16,11=2,16=1,25=1,30=1,71=1,74=-5/1,2,3;
 4//1;
 5/5=2,38=5/2;
 6/7=2,8=2,9=2,10=2,28=1/1;
 7//1,2,3,16;
 1/14=-1,18=20,19=15,26=3/3(2);
 2/9=110/2;
 99//99;
 2/9=110/2;
 3/5=16,11=2,16=1,25=1,30=1,71=1,74=-5/1,2,3;
 4/5=5,16=3,69=1/1;
 5/5=2,38=5/2;
 7//1,2,3,16;
 1/14=-1,18=20,19=15,26=3/3(-5);
 2/9=110/2;
 6/7=2,8=2,9=2,10=2,19=2,28=1/1;
 99/9=1/99;
 Leave Link    1 at Mon Jul 20 17:06:51 2026, MaxMem=  4026531840 cpu:         1.2
 (Enter /home/p20190052/g09/l101.exe)
 ---------------------
 Benzene b3lyp cc-pvdz
 ---------------------
 Symbolic Z-matrix:
 Charge =  0 Multiplicity = 1
 C                    -2.19224  -0.28626  -3.89398 
 C                    -3.34831  -0.64095  -3.19581 
 C                    -1.03617   0.06843  -3.19581 
 H                    -4.24773  -0.9169   -3.73898 
 H                    -0.13674   0.34438  -3.73898 
 C                    -3.34831  -0.64095  -1.79948 
 C                    -1.03617   0.06843  -1.79948 
 H                    -4.24773  -0.9169   -1.25631 
 H                    -0.13674   0.34438  -1.25631 
 C                    -2.19224  -0.28626  -1.10132 
 H                    -2.19224  -0.28626  -0.01497 
 H                    -2.19224  -0.28626  -4.98032 
 
 NAtoms=     12 NQM=       12 NQMF=       0 NMMI=      0 NMMIF=      0
                NMic=       0 NMicF=      0.
                    Isotopes and Nuclear Properties:
 (Nuclear quadrupole moments (NQMom) in fm**2, nuclear magnetic moments (NMagM)
  in nuclear magnetons)

  Atom         1           2           3           4           5           6           7           8           9          10
 IAtWgt=          12          12          12           1           1          12          12           1           1          12
 AtmWgt=  12.0000000  12.0000000  12.0000000   1.0078250   1.0078250  12.0000000  12.0000000   1.0078250   1.0078250  12.0000000
 NucSpn=           0           0           0           1           1           0           0           1           1           0
 AtZEff=   0.0000000   0.0000000   0.0000000   0.0000000   0.0000000   0.0000000   0.0000000   0.0000000   0.0000000   0.0000000
 NQMom=    0.0000000   0.0000000   0.0000000   0.0000000   0.0000000   0.0000000   0.0000000   0.0000000   0.0000000   0.0000000
 NMagM=    0.0000000   0.0000000   0.0000000   2.7928460   2.7928460   0.0000000   0.0000000   2.7928460   2.7928460   0.0000000
 AtZNuc=   6.0000000   6.0000000   6.0000000   1.0000000   1.0000000   6.0000000   6.0000000   1.0000000   1.0000000   6.0000000

  Atom        11          12
 IAtWgt=           1           1
 AtmWgt=   1.0078250   1.0078250
 NucSpn=           1           1
 AtZEff=   0.0000000   0.0000000
 NQMom=    0.0000000   0.0000000
 NMagM=    2.7928460   2.7928460
 AtZNuc=   1.0000000   1.0000000
 Leave Link  101 at Mon Jul 20 17:06:52 2026, MaxMem=  4026531840 cpu:        12.3
 (Enter /home/p20190052/g09/l103.exe)

 GradGradGradGradGradGradGradGradGradGradGradGradGradGradGradGradGradGrad
 Berny optimization.
 Initialization pass.
                           ----------------------------
                           !    Initial Parameters    !
                           ! (Angstroms and Degrees)  !
 --------------------------                            --------------------------
 ! Name  Definition              Value          Derivative Info.                !
 --------------------------------------------------------------------------------
 ! R1    R(1,2)                  1.3963         estimate D2E/DX2                !
 ! R2    R(1,3)                  1.3963         estimate D2E/DX2                !
 ! R3    R(1,12)                 1.0863         estimate D2E/DX2                !
 ! R4    R(2,4)                  1.0863         estimate D2E/DX2                !
 ! R5    R(2,6)                  1.3963         estimate D2E/DX2                !
 ! R6    R(3,5)                  1.0863         estimate D2E/DX2                !
 ! R7    R(3,7)                  1.3963         estimate D2E/DX2                !
 ! R8    R(6,8)                  1.0863         estimate D2E/DX2                !
 ! R9    R(6,10)                 1.3963         estimate D2E/DX2                !
 ! R10   R(7,9)                  1.0863         estimate D2E/DX2                !
 ! R11   R(7,10)                 1.3963         estimate D2E/DX2                !
 ! R12   R(10,11)                1.0863         estimate D2E/DX2                !
 ! A1    A(2,1,3)              120.0            estimate D2E/DX2                !
 ! A2    A(2,1,12)             120.0            estimate D2E/DX2                !
 ! A3    A(3,1,12)             120.0            estimate D2E/DX2                !
 ! A4    A(1,2,4)              120.0001         estimate D2E/DX2                !
 ! A5    A(1,2,6)              120.0            estimate D2E/DX2                !
 ! A6    A(4,2,6)              120.0            estimate D2E/DX2                !
 ! A7    A(1,3,5)              120.0001         estimate D2E/DX2                !
 ! A8    A(1,3,7)              120.0            estimate D2E/DX2                !
 ! A9    A(5,3,7)              120.0            estimate D2E/DX2                !
 ! A10   A(2,6,8)              120.0            estimate D2E/DX2                !
 ! A11   A(2,6,10)             120.0            estimate D2E/DX2                !
 ! A12   A(8,6,10)             120.0001         estimate D2E/DX2                !
 ! A13   A(3,7,9)              120.0            estimate D2E/DX2                !
 ! A14   A(3,7,10)             120.0            estimate D2E/DX2                !
 ! A15   A(9,7,10)             120.0001         estimate D2E/DX2                !
 ! A16   A(6,10,7)             120.0            estimate D2E/DX2                !
 ! A17   A(6,10,11)            120.0            estimate D2E/DX2                !
 ! A18   A(7,10,11)            120.0            estimate D2E/DX2                !
 ! D1    D(3,1,2,4)            180.0            estimate D2E/DX2                !
 ! D2    D(3,1,2,6)              0.0            estimate D2E/DX2                !
 ! D3    D(12,1,2,4)             0.0            estimate D2E/DX2                !
 ! D4    D(12,1,2,6)           180.0            estimate D2E/DX2                !
 ! D5    D(2,1,3,5)            180.0            estimate D2E/DX2                !
 ! D6    D(2,1,3,7)              0.0            estimate D2E/DX2                !
 ! D7    D(12,1,3,5)             0.0            estimate D2E/DX2                !
 ! D8    D(12,1,3,7)           180.0            estimate D2E/DX2                !
 ! D9    D(1,2,6,8)            180.0            estimate D2E/DX2                !
 ! D10   D(1,2,6,10)             0.0            estimate D2E/DX2                !
 ! D11   D(4,2,6,8)              0.0            estimate D2E/DX2                !
 ! D12   D(4,2,6,10)           180.0            estimate D2E/DX2                !
 ! D13   D(1,3,7,9)            180.0            estimate D2E/DX2                !
 ! D14   D(1,3,7,10)             0.0            estimate D2E/DX2                !
 ! D15   D(5,3,7,9)              0.0            estimate D2E/DX2                !
 ! D16   D(5,3,7,10)          -180.0            estimate D2E/DX2                !
 ! D17   D(2,6,10,7)             0.0            estimate D2E/DX2                !
 ! D18   D(2,6,10,11)          180.0            estimate D2E/DX2                !
 ! D19   D(8,6,10,7)           180.0            estimate D2E/DX2                !
 ! D20   D(8,6,10,11)            0.0            estimate D2E/DX2                !
 ! D21   D(3,7,10,6)             0.0            estimate D2E/DX2                !
 ! D22   D(3,7,10,11)          180.0            estimate D2E/DX2                !
 ! D23   D(9,7,10,6)           180.0            estimate D2E/DX2                !
 ! D24   D(9,7,10,11)            0.0            estimate D2E/DX2                !
 --------------------------------------------------------------------------------
 Trust Radius=3.00D-01 FncErr=1.00D-07 GrdErr=1.00D-06
 Number of steps in this run=     64 maximum allowed number of steps=    100.
 GradGradGradGradGradGradGradGradGradGradGradGradGradGradGradGradGradGrad

 Leave Link  103 at Mon Jul 20 17:06:52 2026, MaxMem=  4026531840 cpu:         0.4
 (Enter /home/p20190052/g09/l202.exe)
                          Input orientation:                          
 ---------------------------------------------------------------------
 Center     Atomic      Atomic             Coordinates (Angstroms)
 Number     Number       Type             X           Y           Z
 ---------------------------------------------------------------------
      1          6           0       -2.192237   -0.286263   -3.893975
      2          6           0       -3.348306   -0.640953   -3.195811
      3          6           0       -1.036169    0.068428   -3.195811
      4          1           0       -4.247731   -0.916903   -3.738984
      5          1           0       -0.136743    0.344378   -3.738984
      6          6           0       -3.348306   -0.640953   -1.799481
      7          6           0       -1.036169    0.068428   -1.799481
      8          1           0       -4.247731   -0.916903   -1.256308
      9          1           0       -0.136743    0.344378   -1.256308
     10          6           0       -2.192237   -0.286263   -1.101317
     11          1           0       -2.192237   -0.286263   -0.014970
     12          1           0       -2.192237   -0.286263   -4.980322
 ---------------------------------------------------------------------
                    Distance matrix (angstroms):
                    1          2          3          4          5
     1  C    0.000000
     2  C    1.396328   0.000000
     3  C    1.396328   2.418512   0.000000
     4  H    2.155640   1.086348   3.402947   0.000000
     5  H    2.155640   3.402947   1.086348   4.300122   0.000000
     6  C    2.418513   1.396330   2.792658   2.155640   3.879005
     7  C    2.418513   2.792658   1.396330   3.879005   2.155640
     8  H    3.402947   2.155640   3.879005   2.482676   4.965353
     9  H    3.402947   3.879005   2.155640   4.965353   2.482676
    10  C    2.792658   2.418513   2.418513   3.402947   3.402947
    11  H    3.879005   3.402947   3.402947   4.300121   4.300121
    12  H    1.086347   2.155639   2.155639   2.482676   2.482676
                    6          7          8          9         10
     6  C    0.000000
     7  C    2.418512   0.000000
     8  H    1.086348   3.402947   0.000000
     9  H    3.402947   1.086348   4.300122   0.000000
    10  C    1.396328   1.396328   2.155640   2.155640   0.000000
    11  H    2.155639   2.155639   2.482676   2.482676   1.086347
    12  H    3.402947   3.402947   4.300121   4.300121   3.879005
                   11         12
    11  H    0.000000
    12  H    4.965352   0.000000
 Stoichiometry    C6H6
 Framework group  C3V[3SGV(C2H2)]
 Deg. of freedom     7
 Full point group                 C3V     NOp   6
 Largest Abelian subgroup         CS      NOp   2
 Largest concise Abelian subgroup CS      NOp   2
                         Standard orientation:                         
 ---------------------------------------------------------------------
 Center     Atomic      Atomic             Coordinates (Angstroms)
 Number     Number       Type             X           Y           Z
 ---------------------------------------------------------------------
      1          6           0       -0.000000    1.396329    0.000000
      2          6           0        1.209256    0.698164    0.000000
      3          6           0       -1.209256    0.698164    0.000000
      4          1           0        2.150061    1.241338    0.000000
      5          1           0       -2.150061    1.241338    0.000000
      6          6           0        1.209256   -0.698165    0.000000
      7          6           0       -1.209256   -0.698164    0.000000
      8          1           0        2.150061   -1.241338    0.000000
      9          1           0       -2.150061   -1.241338    0.000000
     10          6           0       -0.000000   -1.396329    0.000000
     11          1           0       -0.000000   -2.482676    0.000000
     12          1           0        0.000000    2.482676    0.000000
 ---------------------------------------------------------------------
 Rotational constants (GHZ):      5.6895274      5.6895274      2.8447637
 Leave Link  202 at Mon Jul 20 17:06:52 2026, MaxMem=  4026531840 cpu:         0.3
 (Enter /home/p20190052/g09/l301.exe)
 Standard basis: CC-pVDZ (5D, 7F)
 Ernie: Thresh=  0.10000D-02 Tol=  0.10000D-05 Strict=F.
 Ernie:  12 primitive shells out of 162 were deleted.
 There are    70 symmetry adapted cartesian basis functions of A'  symmetry.
 There are    50 symmetry adapted cartesian basis functions of A"  symmetry.
 There are    66 symmetry adapted basis functions of A'  symmetry.
 There are    48 symmetry adapted basis functions of A"  symmetry.
   114 basis functions,   240 primitive gaussians,   120 cartesian basis functions
    21 alpha electrons       21 beta electrons
       nuclear repulsion energy       203.2409254978 Hartrees.
 IExCor=  402 DFT=T Ex+Corr=B3LYP ExCW=0 ScaHFX=  0.200000
 ScaDFX=  0.800000  0.720000  1.000000  0.810000 ScalE2=  1.000000  1.000000
 IRadAn=      0 IRanWt=     -1 IRanGd=            0 ICorTp=0 IEmpDi=  4
 NAtoms=   12 NActive=   12 NUniq=    4 SFac= 4.00D+00 NAtFMM=   60 NAOKFM=F Big=F
 Integral buffers will be    131072 words long.
 Raffenetti 2 integral format.
 Two-electron integral symmetry is turned on.
 Leave Link  301 at Mon Jul 20 17:06:52 2026, MaxMem=  4026531840 cpu:         1.9
 (Enter /home/p20190052/g09/l302.exe)
 NPDir=0 NMtPBC=     1 NCelOv=     1 NCel=       1 NClECP=     1 NCelD=      1
         NCelK=      1 NCelE2=     1 NClLst=     1 CellRange=     0.0.
 One-electron integrals computed using PRISM.
 One-electron integral symmetry used in STVInt
 NBasis=   114 RedAO= T EigKep=  3.10D-04  NBF=    66    48
 NBsUse=   114 1.00D-06 EigRej= -1.00D+00 NBFU=    66    48
 Precomputing XC quadrature grid using
 IXCGrd= 4 IRadAn=           0 IRanWt=          -1 IRanGd=           0 AccXCQ= 0.00D+00.
 Generated NRdTot=       0 NPtTot=           0 NUsed=           0 NTot=          32
 NSgBfM=   120   120   120   120   120 MxSgAt=    12 MxSgA2=    12.
 Leave Link  302 at Mon Jul 20 17:06:52 2026, MaxMem=  4026531840 cpu:        15.8
 (Enter /home/p20190052/g09/l303.exe)
 DipDrv:  MaxL=1.
 Leave Link  303 at Mon Jul 20 17:06:52 2026, MaxMem=  4026531840 cpu:         0.9
 (Enter /home/p20190052/g09/l401.exe)
 ExpMin= 1.22D-01 ExpMax= 6.67D+03 ExpMxC= 2.28D+02 IAcc=1 IRadAn=         1 AccDes= 0.00D+00
 Harris functional with IExCor=  402 and IRadAn=       1 diagonalized for initial guess.
 HarFok:  IExCor=  402 AccDes= 0.00D+00 IRadAn=         1 IDoV= 1 UseB2=F ITyADJ=14
 ICtDFT=  3500011 ScaDFX=  1.000000  1.000000  1.000000  1.000000
 FoFCou: FMM=F IPFlag=           0 FMFlag=      100000 FMFlg1=           0
         NFxFlg=           0 DoJE=T BraDBF=F KetDBF=T FulRan=T
         wScrn=  0.000000 ICntrl=     500 IOpCl=  0 I1Cent=   200000004 NGrid=           0
         NMat0=    1 NMatS0=      1 NMatT0=    0 NMatD0=    1 NMtDS0=    0 NMtDT0=    0
 Petite list used in FoFCou.
 Harris En= -232.278242181350    
 JPrj=0 DoOrth=F DoCkMO=F.
 Initial guess orbital symmetries:
       Occupied  (A1) (E) (E) (E) (E) (A1) (A1) (E) (E) (E) (E)
                 (A1) (A2) (A1) (E) (E) (A1) (E) (E) (E) (E)
       Virtual   (E) (E) (A1) (A1) (E) (E) (E) (E) (A1) (E) (E)
                 (E) (E) (A1) (A2) (A1) (A1) (E) (E) (E) (E) (A2)
                 (A1) (E) (E) (E) (E) (E) (E) (E) (E) (A1) (A1)
                 (A1) (A1) (A2) (E) (E) (A2) (E) (E) (E) (E) (E)
                 (E) (E) (E) (A1) (A1) (E) (E) (A2) (E) (E) (A1)
                 (A1) (E) (E) (E) (E) (A1) (E) (E) (E) (E) (A1)
                 (E) (E) (E) (E) (E) (E) (A2) (A2) (E) (E) (E)
                 (E) (A1) (A2) (A1) (A1) (E) (E) (E) (E) (E) (E)
                 (A1) (A2) (E) (E) (A1)
 The electronic state of the initial guess is 1-A1.
 Leave Link  401 at Mon Jul 20 17:06:53 2026, MaxMem=  4026531840 cpu:        18.8
 (Enter /home/p20190052/g09/l502.exe)
 Closed shell SCF:
 Using DIIS extrapolation, IDIIS=  1040.
 Integral symmetry usage will be decided dynamically.
 Keep R1 ints in memory in symmetry-blocked form, NReq=32326664.
 IVT=       67850 IEndB=       67850 NGot=  4026531840 MDV=  4015692581
 LenX=  4015692581 LenY=  4015677740
 Requested convergence on RMS density matrix=1.00D-08 within 128 cycles.
 Requested convergence on MAX density matrix=1.00D-06.
 Requested convergence on             energy=1.00D-06.
 No special actions if energy rises.
 FoFCou: FMM=F IPFlag=           0 FMFlag=           0 FMFlg1=           0
         NFxFlg=           0 DoJE=F BraDBF=F KetDBF=F FulRan=T
         wScrn=  0.000000 ICntrl=     600 IOpCl=  0 I1Cent=           0 NGrid=           0
         NMat0=    1 NMatS0=   6555 NMatT0=    0 NMatD0=    1 NMtDS0=    0 NMtDT0=    0
 Petite list used in FoFCou.
 Integral accuracy reduced to 1.0D-05 until final iterations.

 Cycle   1  Pass 0  IDiag  1:
 E= -232.115456555067    
 DIIS: error= 3.36D-02 at cycle   1 NSaved=   1.
 NSaved= 1 IEnMin= 1 EnMin= -232.115456555067     IErMin= 1 ErrMin= 3.36D-02
 ErrMax= 3.36D-02  0.00D+00 EMaxC= 1.00D-01 BMatC= 1.16D-01 BMatP= 1.16D-01
 IDIUse=3 WtCom= 6.64D-01 WtEn= 3.36D-01
 Coeff-Com:  0.100D+01
 Coeff-En:   0.100D+01
 Coeff:      0.100D+01
 Gap=     0.247 Goal=   None    Shift=    0.000
 GapD=    0.247 DampG=1.000 DampE=0.500 DampFc=0.5000 IDamp=-1.
 Damping current iteration by 5.00D-01
 RMSDP=7.87D-03 MaxDP=8.84D-02              OVMax= 1.56D-01

 Cycle   2  Pass 0  IDiag  1:
 E= -232.183447444844     Delta-E=       -0.067990889777 Rises=F Damp=T
 DIIS: error= 5.75D-03 at cycle   2 NSaved=   2.
 NSaved= 2 IEnMin= 2 EnMin= -232.183447444844     IErMin= 2 ErrMin= 5.75D-03
 ErrMax= 5.75D-03  0.00D+00 EMaxC= 1.00D-01 BMatC= 4.98D-03 BMatP= 1.16D-01
 IDIUse=3 WtCom= 9.43D-01 WtEn= 5.75D-02
 Coeff-Com:  0.402D-01 0.960D+00
 Coeff-En:   0.460D-01 0.954D+00
 Coeff:      0.405D-01 0.960D+00
 Gap=     0.251 Goal=   None    Shift=    0.000
 RMSDP=1.78D-03 MaxDP=1.79D-02 DE=-6.80D-02 OVMax= 9.01D-02

 Cycle   3  Pass 0  IDiag  1:
 E= -232.261747839982     Delta-E=       -0.078300395138 Rises=F Damp=F
 DIIS: error= 3.35D-03 at cycle   3 NSaved=   3.
 NSaved= 3 IEnMin= 3 EnMin= -232.261747839982     IErMin= 3 ErrMin= 3.35D-03
 ErrMax= 3.35D-03  0.00D+00 EMaxC= 1.00D-01 BMatC= 1.07D-03 BMatP= 4.98D-03
 IDIUse=3 WtCom= 9.66D-01 WtEn= 3.35D-02
 Coeff-Com: -0.229D-01 0.287D+00 0.736D+00
 Coeff-En:   0.000D+00 0.000D+00 0.100D+01
 Coeff:     -0.222D-01 0.278D+00 0.744D+00
 Gap=     0.247 Goal=   None    Shift=    0.000
 RMSDP=2.71D-04 MaxDP=2.47D-03 DE=-7.83D-02 OVMax= 7.20D-03

 Cycle   4  Pass 0  IDiag  1:
 E= -232.262754854985     Delta-E=       -0.001007015003 Rises=F Damp=F
 DIIS: error= 3.78D-04 at cycle   4 NSaved=   4.
 NSaved= 4 IEnMin= 4 EnMin= -232.262754854985     IErMin= 4 ErrMin= 3.78D-04
 ErrMax= 3.78D-04  0.00D+00 EMaxC= 1.00D-01 BMatC= 1.82D-05 BMatP= 1.07D-03
 IDIUse=3 WtCom= 9.96D-01 WtEn= 3.78D-03
 Coeff-Com: -0.708D-02 0.127D-01 0.132D+00 0.862D+00
 Coeff-En:   0.000D+00 0.000D+00 0.000D+00 0.100D+01
 Coeff:     -0.705D-02 0.126D-01 0.131D+00 0.863D+00
 Gap=     0.247 Goal=   None    Shift=    0.000
 RMSDP=4.39D-05 MaxDP=3.96D-04 DE=-1.01D-03 OVMax= 8.21D-04

 Cycle   5  Pass 0  IDiag  1:
 E= -232.262773335761     Delta-E=       -0.000018480777 Rises=F Damp=F
 DIIS: error= 1.34D-05 at cycle   5 NSaved=   5.
 NSaved= 5 IEnMin= 5 EnMin= -232.262773335761     IErMin= 5 ErrMin= 1.34D-05
 ErrMax= 1.34D-05  0.00D+00 EMaxC= 1.00D-01 BMatC= 2.61D-08 BMatP= 1.82D-05
 IDIUse=1 WtCom= 1.00D+00 WtEn= 0.00D+00
 Coeff-Com: -0.347D-03-0.115D-02 0.466D-02 0.628D-01 0.934D+00
 Coeff:     -0.347D-03-0.115D-02 0.466D-02 0.628D-01 0.934D+00
 Gap=     0.247 Goal=   None    Shift=    0.000
 RMSDP=3.40D-06 MaxDP=5.01D-05 DE=-1.85D-05 OVMax= 4.02D-05

 Initial convergence to 1.0D-05 achieved.  Increase integral accuracy.
 Cycle   6  Pass 1  IDiag  1:
 E= -232.262767568073     Delta-E=        0.000005767689 Rises=F Damp=F
 DIIS: error= 3.88D-05 at cycle   1 NSaved=   1.
 NSaved= 1 IEnMin= 1 EnMin= -232.262767568073     IErMin= 1 ErrMin= 3.88D-05
 ErrMax= 3.88D-05  0.00D+00 EMaxC= 1.00D-01 BMatC= 3.25D-08 BMatP= 3.25D-08
 IDIUse=1 WtCom= 1.00D+00 WtEn= 0.00D+00
 Coeff-Com:  0.100D+01
 Coeff:      0.100D+01
 Gap=     0.247 Goal=   None    Shift=    0.000
 RMSDP=3.40D-06 MaxDP=5.01D-05 DE= 5.77D-06 OVMax= 1.01D-04

 Cycle   7  Pass 1  IDiag  1:
 E= -232.262767616702     Delta-E=       -0.000000048630 Rises=F Damp=F
 DIIS: error= 1.45D-06 at cycle   2 NSaved=   2.
 NSaved= 2 IEnMin= 2 EnMin= -232.262767616702     IErMin= 2 ErrMin= 1.45D-06
 ErrMax= 1.45D-06  0.00D+00 EMaxC= 1.00D-01 BMatC= 2.62D-10 BMatP= 3.25D-08
 IDIUse=1 WtCom= 1.00D+00 WtEn= 0.00D+00
 Coeff-Com: -0.344D-01 0.103D+01
 Coeff:     -0.344D-01 0.103D+01
 Gap=     0.247 Goal=   None    Shift=    0.000
 RMSDP=3.04D-07 MaxDP=3.96D-06 DE=-4.86D-08 OVMax= 5.65D-06

 Cycle   8  Pass 1  IDiag  1:
 E= -232.262767616865     Delta-E=       -0.000000000162 Rises=F Damp=F
 DIIS: error= 8.99D-07 at cycle   3 NSaved=   3.
 NSaved= 3 IEnMin= 3 EnMin= -232.262767616865     IErMin= 3 ErrMin= 8.99D-07
 ErrMax= 8.99D-07  0.00D+00 EMaxC= 1.00D-01 BMatC= 1.61D-10 BMatP= 2.62D-10
 IDIUse=1 WtCom= 1.00D+00 WtEn= 0.00D+00
 Coeff-Com: -0.199D-01 0.470D+00 0.550D+00
 Coeff:     -0.199D-01 0.470D+00 0.550D+00
 Gap=     0.247 Goal=   None    Shift=    0.000
 RMSDP=1.11D-07 MaxDP=2.53D-06 DE=-1.62D-10 OVMax= 5.77D-06

 Cycle   9  Pass 1  IDiag  1:
 E= -232.262767617013     Delta-E=       -0.000000000149 Rises=F Damp=F
 DIIS: error= 3.01D-07 at cycle   4 NSaved=   4.
 NSaved= 4 IEnMin= 4 EnMin= -232.262767617013     IErMin= 4 ErrMin= 3.01D-07
 ErrMax= 3.01D-07  0.00D+00 EMaxC= 1.00D-01 BMatC= 1.65D-11 BMatP= 1.61D-10
 IDIUse=1 WtCom= 1.00D+00 WtEn= 0.00D+00
 Coeff-Com: -0.653D-02 0.130D+00 0.278D+00 0.599D+00
 Coeff:     -0.653D-02 0.130D+00 0.278D+00 0.599D+00
 Gap=     0.247 Goal=   None    Shift=    0.000
 RMSDP=2.93D-08 MaxDP=6.78D-07 DE=-1.49D-10 OVMax= 1.25D-06

 Cycle  10  Pass 1  IDiag  1:
 E= -232.262767617026     Delta-E=       -0.000000000013 Rises=F Damp=F
 DIIS: error= 4.27D-08 at cycle   5 NSaved=   5.
 NSaved= 5 IEnMin= 5 EnMin= -232.262767617026     IErMin= 5 ErrMin= 4.27D-08
 ErrMax= 4.27D-08  0.00D+00 EMaxC= 1.00D-01 BMatC= 2.01D-13 BMatP= 1.65D-11
 IDIUse=1 WtCom= 1.00D+00 WtEn= 0.00D+00
 Coeff-Com: -0.791D-03 0.112D-01 0.522D-01 0.145D+00 0.792D+00
 Coeff:     -0.791D-03 0.112D-01 0.522D-01 0.145D+00 0.792D+00
 Gap=     0.247 Goal=   None    Shift=    0.000
 RMSDP=4.42D-09 MaxDP=8.21D-08 DE=-1.31D-11 OVMax= 2.11D-07

 SCF Done:  E(RB3LYP) =  -232.262767617     A.U. after   10 cycles
            NFock= 10  Conv=0.44D-08     -V/T= 2.0072
 KE= 2.305978590578D+02 PE=-9.443189087982D+02 EE= 2.782173566256D+02
 Leave Link  502 at Mon Jul 20 17:06:54 2026, MaxMem=  4026531840 cpu:        22.5
 (Enter /home/p20190052/g09/l601.exe)
 Copying SCF densities to generalized density rwf, IOpCl= 0 IROHF=0.

 **********************************************************************

            Population analysis using the SCF density.

 **********************************************************************

 Orbital symmetries:
       Occupied  (A1) (E) (E) (E) (E) (A1) (A1) (E) (E) (E) (E)
                 (A1) (A1) (A2) (E) (E) (A1) (E) (E) (E) (E)
       Virtual   (E) (E) (A1) (E) (E) (E) (E) (A1) (A1) (E) (E)
                 (E) (E) (A1) (A2) (A1) (A1) (E) (E) (E) (E) (E)
                 (E) (A1) (A2) (E) (E) (E) (E) (E) (E) (A1) (A1)
                 (A1) (A1) (A2) (E) (E) (A2) (E) (E) (E) (E) (E)
                 (E) (A1) (E) (E) (A1) (E) (E) (A2) (E) (E) (A1)
                 (A1) (E) (E) (E) (E) (A1) (E) (E) (E) (E) (A1)
                 (E) (E) (E) (E) (A2) (E) (E) (A2) (E) (E) (E)
                 (E) (A1) (A2) (A1) (A1) (E) (E) (E) (E) (E) (E)
                 (A1) (A2) (E) (E) (A1)
 The electronic state is 1-A1.
 Alpha  occ. eigenvalues --  -10.19041 -10.19019 -10.19019 -10.18970 -10.18970
 Alpha  occ. eigenvalues --  -10.18948  -0.85326  -0.74584  -0.74584  -0.60234
 Alpha  occ. eigenvalues --   -0.60234  -0.52176  -0.46125  -0.44516  -0.42086
 Alpha  occ. eigenvalues --   -0.42086  -0.36639  -0.34380  -0.34380  -0.25336
 Alpha  occ. eigenvalues --   -0.25336
 Alpha virt. eigenvalues --   -0.00597  -0.00597   0.05862   0.09884   0.09884
 Alpha virt. eigenvalues --    0.13371   0.13371   0.15157   0.15339   0.27785
 Alpha virt. eigenvalues --    0.27785   0.29663   0.29663   0.40447   0.40737
 Alpha virt. eigenvalues --    0.46496   0.46526   0.51254   0.51254   0.51686
 Alpha virt. eigenvalues --    0.51686   0.51927   0.51927   0.52654   0.54298
 Alpha virt. eigenvalues --    0.59283   0.59283   0.64654   0.64654   0.64886
 Alpha virt. eigenvalues --    0.64886   0.66810   0.72205   0.78750   0.82714
 Alpha virt. eigenvalues --    0.85943   0.88391   0.88391   0.92514   0.99307
 Alpha virt. eigenvalues --    0.99307   1.00646   1.00646   1.01261   1.01261
 Alpha virt. eigenvalues --    1.05927   1.07277   1.07277   1.21374   1.27922
 Alpha virt. eigenvalues --    1.27922   1.45866   1.47685   1.47685   1.51122
 Alpha virt. eigenvalues --    1.53917   1.60031   1.60031   1.60626   1.60626
 Alpha virt. eigenvalues --    1.63085   1.68080   1.68080   1.69299   1.69299
 Alpha virt. eigenvalues --    1.72788   1.79642   1.79642   1.84126   1.84126
 Alpha virt. eigenvalues --    1.84177   1.84966   1.84966   1.88418   1.97943
 Alpha virt. eigenvalues --    1.97943   1.98664   1.98664   2.01587   2.19467
 Alpha virt. eigenvalues --    2.25948   2.36279   2.42821   2.42821   2.42913
 Alpha virt. eigenvalues --    2.42913   2.64000   2.64000   2.69687   2.79389
 Alpha virt. eigenvalues --    2.91167   2.91167   3.64737
          Condensed to atoms (all electrons):
               1          2          3          4          5          6
     1  C    4.732771   0.497065   0.497065  -0.051136  -0.051136   0.003476
     2  C    0.497065   4.732629   0.003462   0.389428   0.010289   0.497065
     3  C    0.497065   0.003462   4.732629   0.010289   0.389428  -0.073775
     4  H   -0.051136   0.389428   0.010289   0.757833  -0.000316  -0.051136
     5  H   -0.051136   0.010289   0.389428  -0.000316   0.757833  -0.000169
     6  C    0.003476   0.497065  -0.073775  -0.051136  -0.000169   4.732771
     7  C    0.003476  -0.073775   0.497065  -0.000169  -0.051136   0.003476
     8  H    0.010289  -0.051132  -0.000169  -0.016202   0.000071   0.389432
     9  H    0.010289  -0.000169  -0.051132   0.000071  -0.016202   0.010289
    10  C   -0.073775   0.003462   0.003462   0.010289   0.010289   0.497065
    11  H   -0.000169   0.010289   0.010289  -0.000316  -0.000316  -0.051136
    12  H    0.389432  -0.051132  -0.051132  -0.016202  -0.016202   0.010289
               7          8          9         10         11         12
     1  C    0.003476   0.010289   0.010289  -0.073775  -0.000169   0.389432
     2  C   -0.073775  -0.051132  -0.000169   0.003462   0.010289  -0.051132
     3  C    0.497065  -0.000169  -0.051132   0.003462   0.010289  -0.051132
     4  H   -0.000169  -0.016202   0.000071   0.010289  -0.000316  -0.016202
     5  H   -0.051136   0.000071  -0.016202   0.010289  -0.000316  -0.016202
     6  C    0.003476   0.389432   0.010289   0.497065  -0.051136   0.010289
     7  C    4.732771   0.010289   0.389432   0.497065  -0.051136   0.010289
     8  H    0.010289   0.757831  -0.000316  -0.051132  -0.016202  -0.000316
     9  H    0.389432  -0.000316   0.757831  -0.051132  -0.016202  -0.000316
    10  C    0.497065  -0.051132  -0.051132   4.732629   0.389428  -0.000169
    11  H   -0.051136  -0.016202  -0.016202   0.389428   0.757833   0.000071
    12  H    0.010289  -0.000316  -0.000316  -0.000169   0.000071   0.757831
 Mulliken charges:
               1
     1  C    0.032355
     2  C    0.032520
     3  C    0.032520
     4  H   -0.032433
     5  H   -0.032433
     6  C    0.032355
     7  C    0.032355
     8  H   -0.032442
     9  H   -0.032442
    10  C    0.032520
    11  H   -0.032433
    12  H   -0.032442
 Sum of Mulliken charges =  -0.00000
 Mulliken charges with hydrogens summed into heavy atoms:
               1
     1  C   -0.000087
     2  C    0.000087
     3  C    0.000087
     6  C   -0.000087
     7  C   -0.000087
    10  C    0.000087
 Electronic spatial extent (au):  <R**2>=            459.3312
 Charge=              0.0000 electrons
 Dipole moment (field-independent basis, Debye):
    X=              0.0000    Y=             -0.0000    Z=             -0.0000  Tot=              0.0000
 Quadrupole moment (field-independent basis, Debye-Ang):
   XX=            -32.0233   YY=            -32.0233   ZZ=            -38.9981
   XY=              0.0000   XZ=             -0.0000   YZ=             -0.0000
 Traceless Quadrupole moment (field-independent basis, Debye-Ang):
   XX=              2.3249   YY=              2.3249   ZZ=             -4.6498
   XY=              0.0000   XZ=             -0.0000   YZ=             -0.0000
 Octapole moment (field-independent basis, Debye-Ang**2):
  XXX=              0.0000  YYY=             -0.0005  ZZZ=              0.0000  XYY=              0.0000
  XXY=              0.0005  XXZ=              0.0000  XZZ=              0.0000  YZZ=              0.0000
  YYZ=              0.0000  XYZ=             -0.0000
 Hexadecapole moment (field-independent basis, Debye-Ang**3):
 XXXX=           -277.1729 YYYY=           -277.1729 ZZZZ=            -42.7972 XXXY=              0.0000
 XXXZ=             -0.0000 YYYX=              0.0000 YYYZ=             -0.0000 ZZZX=             -0.0000
 ZZZY=             -0.0000 XXYY=            -92.3910 XXZZ=            -61.5414 YYZZ=            -61.5414
 XXYZ=              0.0000 YYXZ=             -0.0000 ZZXY=             -0.0000
 N-N= 2.032409254978D+02 E-N=-9.443189141963D+02  KE= 2.305978590578D+02
 Symmetry A'   KE= 1.503932766234D+02
 Symmetry A"   KE= 8.020458243435D+01
 No NMR shielding tensors so no spin-rotation constants.
 Leave Link  601 at Mon Jul 20 17:06:54 2026, MaxMem=  4026531840 cpu:        19.7
 (Enter /home/p20190052/g09/l701.exe)
 Compute integral first derivatives.
 ... and contract with generalized density number  0.
 Leave Link  701 at Mon Jul 20 17:06:55 2026, MaxMem=  4026531840 cpu:        17.6
 (Enter /home/p20190052/g09/l702.exe)
 L702 exits ... SP integral derivatives will be done elsewhere.
 Leave Link  702 at Mon Jul 20 17:06:55 2026, MaxMem=  4026531840 cpu:         0.7
 (Enter /home/p20190052/g09/l703.exe)
 Compute integral first derivatives, UseDBF=F ICtDFT=           0.
 Integral derivatives from FoFJK, PRISM(SPDF).
 Calling FoFJK, ICntrl=      2127 FMM=F ISym2X=1 I1Cent= 0 IOpClX= 0 NMat=1 NMatS=1 NMatT=0.
 FoFJK:  IHMeth= 1 ICntrl=    2127 DoSepK=F KAlg= 0 I1Cent=   0 FoldK=F
 IRaf=         0 NMat=   1 IRICut=       1 DoRegI=T DoRafI=F ISym2E= 1.
 FoFCou: FMM=F IPFlag=           0 FMFlag=      100000 FMFlg1=         800
         NFxFlg=           0 DoJE=F BraDBF=F KetDBF=F FulRan=T
         wScrn=  0.000000 ICntrl=    2127 IOpCl=  0 I1Cent=           0 NGrid=           0
         NMat0=    1 NMatS0=      1 NMatT0=    0 NMatD0=    1 NMtDS0=    0 NMtDT0=    0
 Petite list used in FoFCou.
 Leave Link  703 at Mon Jul 20 17:06:55 2026, MaxMem=  4026531840 cpu:        16.9
 (Enter /home/p20190052/g09/l716.exe)
 Dipole        = 3.04097442D-15 0.00000000D+00-7.06310104D-16
 ***** Axes restored to original set *****
 -------------------------------------------------------------------
 Center     Atomic                   Forces (Hartrees/Bohr)
 Number     Number              X              Y              Z
 -------------------------------------------------------------------
      1        6           0.000000000    0.000000000    0.002050489
      2        6           0.001705927    0.000523391    0.001030231
      3        6          -0.001705927   -0.000523391    0.001030231
      4        1          -0.003668614   -0.001125558   -0.002215522
      5        1           0.003668614    0.001125558   -0.002215522
      6        6           0.001697671    0.000520858   -0.001025245
      7        6          -0.001697671   -0.000520858   -0.001025245
      8        1          -0.003669749   -0.001125906    0.002216207
      9        1           0.003669749    0.001125906    0.002216207
     10        6          -0.000000000   -0.000000000   -0.002060461
     11        1           0.000000000    0.000000000    0.004431044
     12        1          -0.000000000   -0.000000000   -0.004432414
 -------------------------------------------------------------------
 Cartesian Forces:  Max     0.004432414 RMS     0.001994376
 Leave Link  716 at Mon Jul 20 17:06:55 2026, MaxMem=  4026531840 cpu:         0.9
 (Enter /home/p20190052/g09/l103.exe)

 GradGradGradGradGradGradGradGradGradGradGradGradGradGradGradGradGradGrad
 Berny optimization.
 FormGI is forming the generalized inverse of G from B-inverse, IUseBI=4.
 Internal  Forces:  Max     0.004432414 RMS     0.001676200
 Search for a local minimum.
 Step number   1 out of a maximum of   64
 All quantities printed in internal units (Hartrees-Bohrs-Radians)
 RMS Force = .16762D-02 SwitMx=.10000D-02 MixMth= 1
 Mixed Optimization -- RFO/linear search
 Second derivative matrix not updated -- first step.
 ITU=  0
     Eigenvalues ---    0.02137   0.02137   0.02137   0.02137   0.02137
     Eigenvalues ---    0.02137   0.02137   0.02137   0.02137   0.16000
     Eigenvalues ---    0.16000   0.16000   0.16000   0.16000   0.16000
     Eigenvalues ---    0.22000   0.22000   0.22000   0.35238   0.35238
     Eigenvalues ---    0.35238   0.35238   0.35238   0.35238   0.41939
     Eigenvalues ---    0.41939   0.46234   0.46234   0.46234   0.46234
 RFO step:  Lambda=-4.07240902D-04 EMin= 2.13731658D-02
 Linear search not attempted -- first point.
 Iteration  1 RMS(Cart)=  0.00614233 RMS(Int)=  0.00000001
 Iteration  2 RMS(Cart)=  0.00000001 RMS(Int)=  0.00000000
 ITry= 1 IFail=0 DXMaxC= 1.77D-02 DCOld= 1.00D+10 DXMaxT= 3.00D-01 DXLimC= 3.00D+00 Rises=F
 ClnCor:  largest displacement from symmetrization is 1.69D-08 for atom     3.
 Variable       Old X    -DE/DX   Delta X   Delta X   Delta X     New X
                                 (Linear)    (Quad)   (Total)
    R1        2.63868   0.00238   0.00000   0.00514   0.00514   2.64381
    R2        2.63868   0.00238   0.00000   0.00514   0.00514   2.64381
    R3        2.05290   0.00443   0.00000   0.01256   0.01256   2.06546
    R4        2.05290   0.00443   0.00000   0.01256   0.01256   2.06546
    R5        2.63868   0.00238   0.00000   0.00514   0.00514   2.64381
    R6        2.05290   0.00443   0.00000   0.01256   0.01256   2.06546
    R7        2.63868   0.00238   0.00000   0.00514   0.00514   2.64381
    R8        2.05290   0.00443   0.00000   0.01256   0.01256   2.06546
    R9        2.63868   0.00238   0.00000   0.00514   0.00514   2.64381
   R10        2.05290   0.00443   0.00000   0.01256   0.01256   2.06546
   R11        2.63868   0.00238   0.00000   0.00514   0.00514   2.64381
   R12        2.05290   0.00443   0.00000   0.01256   0.01256   2.06546
    A1        2.09439  -0.00000   0.00000  -0.00001  -0.00001   2.09438
    A2        2.09440   0.00000   0.00000   0.00001   0.00001   2.09440
    A3        2.09440   0.00000   0.00000   0.00001   0.00001   2.09440
    A4        2.09440  -0.00000   0.00000  -0.00001  -0.00001   2.09439
    A5        2.09440   0.00000   0.00000   0.00001   0.00001   2.09441
    A6        2.09440  -0.00000   0.00000  -0.00001  -0.00001   2.09439
    A7        2.09440  -0.00000   0.00000  -0.00001  -0.00001   2.09439
    A8        2.09440   0.00000   0.00000   0.00001   0.00001   2.09441
    A9        2.09440  -0.00000   0.00000  -0.00001  -0.00001   2.09439
   A10        2.09440   0.00000   0.00000   0.00001   0.00001   2.09440
   A11        2.09439  -0.00000   0.00000  -0.00001  -0.00001   2.09438
   A12        2.09440   0.00000   0.00000   0.00001   0.00001   2.09440
   A13        2.09440   0.00000   0.00000   0.00001   0.00001   2.09440
   A14        2.09439  -0.00000   0.00000  -0.00001  -0.00001   2.09438
   A15        2.09440   0.00000   0.00000   0.00001   0.00001   2.09440
   A16        2.09440   0.00000   0.00000   0.00001   0.00001   2.09441
   A17        2.09440  -0.00000   0.00000  -0.00001  -0.00001   2.09439
   A18        2.09440  -0.00000   0.00000  -0.00001  -0.00001   2.09439
    D1        3.14159   0.00000   0.00000   0.00000   0.00000   3.14159
    D2        0.00000   0.00000   0.00000   0.00000  -0.00000   0.00000
    D3        0.00000  -0.00000   0.00000  -0.00000  -0.00000   0.00000
    D4        3.14159   0.00000   0.00000   0.00000   0.00000   3.14159
    D5        3.14159  -0.00000   0.00000  -0.00000   0.00000   3.14159
    D6       -0.00000  -0.00000   0.00000  -0.00000   0.00000   0.00000
    D7        0.00000   0.00000   0.00000   0.00000   0.00000   0.00000
    D8        3.14159  -0.00000   0.00000  -0.00000   0.00000  -3.14159
    D9        3.14159  -0.00000   0.00000  -0.00000   0.00000   3.14159
   D10       -0.00000  -0.00000   0.00000  -0.00000   0.00000   0.00000
   D11        0.00000   0.00000   0.00000   0.00000  -0.00000   0.00000
   D12        3.14159  -0.00000   0.00000  -0.00000   0.00000   3.14159
   D13        3.14159   0.00000   0.00000   0.00000   0.00000   3.14159
   D14        0.00000   0.00000   0.00000   0.00000  -0.00000   0.00000
   D15       -0.00000  -0.00000   0.00000  -0.00000   0.00000   0.00000
   D16        3.14159   0.00000   0.00000   0.00000   0.00000   3.14159
   D17        0.00000   0.00000   0.00000   0.00000  -0.00000   0.00000
   D18        3.14159   0.00000   0.00000   0.00000   0.00000   3.14159
   D19        3.14159   0.00000   0.00000   0.00000   0.00000   3.14159
   D20       -0.00000  -0.00000   0.00000  -0.00000   0.00000   0.00000
   D21       -0.00000  -0.00000   0.00000  -0.00000   0.00000   0.00000
   D22        3.14159  -0.00000   0.00000  -0.00000   0.00000   3.14159
   D23        3.14159  -0.00000   0.00000  -0.00000   0.00000   3.14159
   D24        0.00000   0.00000   0.00000   0.00000   0.00000   0.00000
         Item               Value     Threshold  Converged?
 Maximum Force            0.004432     0.000450     NO 
 RMS     Force            0.001676     0.000300     NO 
 Maximum Displacement     0.017709     0.001800     NO 
 RMS     Displacement     0.006142     0.001200     NO 
 Predicted change in Energy=-2.038457D-04
 Lowest energy point so far.  Saving SCF results.
 GradGradGradGradGradGradGradGradGradGradGradGradGradGradGradGradGradGrad

 Leave Link  103 at Mon Jul 20 17:06:55 2026, MaxMem=  4026531840 cpu:         1.1
 (Enter /home/p20190052/g09/l202.exe)
                          Input orientation:                          
 ---------------------------------------------------------------------
 Center     Atomic      Atomic             Coordinates (Angstroms)
 Number     Number       Type             X           Y           Z
 ---------------------------------------------------------------------
      1          6           0       -2.192237   -0.286263   -3.896698
      2          6           0       -3.350552   -0.641642   -3.197167
      3          6           0       -1.033923    0.069117   -3.197167
      4          1           0       -4.255479   -0.919281   -3.743664
      5          1           0       -0.128995    0.346755   -3.743664
      6          6           0       -3.350560   -0.641645   -1.798121
      7          6           0       -1.033914    0.069119   -1.798121
      8          1           0       -4.255490   -0.919284   -1.251623
      9          1           0       -0.128985    0.346758   -1.251623
     10          6           0       -2.192237   -0.286263   -1.098605
     11          1           0       -2.192237   -0.286263   -0.005611
     12          1           0       -2.192237   -0.286263   -4.989694
 ---------------------------------------------------------------------
                    Distance matrix (angstroms):
                    1          2          3          4          5
     1  C    0.000000
     2  C    1.399046   0.000000
     3  C    1.399046   2.423210   0.000000
     4  H    2.163585   1.092994   3.413797   0.000000
     5  H    2.163585   3.413797   1.092994   4.316331   0.000000
     6  C    2.423229   1.399046   2.798093   2.163585   3.891087
     7  C    2.423229   2.798093   1.399046   3.891087   2.163585
     8  H    3.413818   2.163594   3.891089   2.492041   4.984083
     9  H    3.413818   3.891089   2.163594   4.984083   2.492041
    10  C    2.798093   2.423210   2.423210   3.413797   3.413797
    11  H    3.891087   3.413797   3.413797   4.316331   4.316331
    12  H    1.092996   2.163594   2.163594   2.492041   2.492041
                    6          7          8          9         10
     6  C    0.000000
     7  C    2.423229   0.000000
     8  H    1.092996   3.413818   0.000000
     9  H    3.413818   1.092996   4.316353   0.000000
    10  C    1.399046   1.399046   2.163594   2.163594   0.000000
    11  H    2.163585   2.163585   2.492041   2.492041   1.092994
    12  H    3.413818   3.413818   4.316353   4.316353   3.891089
                   11         12
    11  H    0.000000
    12  H    4.984083   0.000000
 Stoichiometry    C6H6
 Framework group  D3H[3C2(HC.CH)]
 Deg. of freedom     4
 Full point group                 D3H     NOp  12
 Omega: Change in point group or standard orientation.

 Old FWG=C03V [3SGV(C2H2)]
 New FWG=D03H [3C2(H1C1.C1H1)]
 RotChk:  IX=2 Diff= 1.41D+00
 Largest Abelian subgroup         C2V     NOp   4
 Largest concise Abelian subgroup C2      NOp   2
                         Standard orientation:                         
 ---------------------------------------------------------------------
 Center     Atomic      Atomic             Coordinates (Angstroms)
 Number     Number       Type             X           Y           Z
 ---------------------------------------------------------------------
      1          6           0       -1.211614    0.699526   -0.000000
      2          6           0        0.000000    1.399041    0.000000
      3          6           0       -1.211605   -0.699520    0.000000
      4          1           0        0.000000    2.492035    0.000000
      5          1           0       -2.158166   -1.246018    0.000000
      6          6           0        1.211614    0.699526    0.000000
      7          6           0        0.000000   -1.399052   -0.000000
      8          1           0        2.158177    1.246024    0.000000
      9          1           0        0.000000   -2.492048    0.000000
     10          6           0        1.211605   -0.699520    0.000000
     11          1           0        2.158166   -1.246018    0.000000
     12          1           0       -2.158177    1.246024   -0.000000
 ---------------------------------------------------------------------
 Rotational constants (GHZ):      5.6631128      5.6631128      2.8315564
 Leave Link  202 at Mon Jul 20 17:06:55 2026, MaxMem=  4026531840 cpu:         0.4
 (Enter /home/p20190052/g09/l301.exe)
 Standard basis: CC-pVDZ (5D, 7F)
 Ernie: Thresh=  0.10000D-02 Tol=  0.10000D-05 Strict=F.
 Ernie:  12 primitive shells out of 162 were deleted.
 There are    52 symmetry adapted cartesian basis functions of A1  symmetry.
 There are    12 symmetry adapted cartesian basis functions of A2  symmetry.
 There are    38 symmetry adapted cartesian basis functions of B1  symmetry.
 There are    18 symmetry adapted cartesian basis functions of B2  symmetry.
 There are    48 symmetry adapted basis functions of A1  symmetry.
 There are    12 symmetry adapted basis functions of A2  symmetry.
 There are    36 symmetry adapted basis functions of B1  symmetry.
 There are    18 symmetry adapted basis functions of B2  symmetry.
   114 basis functions,   240 primitive gaussians,   120 cartesian basis functions
    21 alpha electrons       21 beta electrons
       nuclear repulsion energy       202.7191418197 Hartrees.
 IExCor=  402 DFT=T Ex+Corr=B3LYP ExCW=0 ScaHFX=  0.200000
 ScaDFX=  0.800000  0.720000  1.000000  0.810000 ScalE2=  1.000000  1.000000
 IRadAn=      0 IRanWt=     -1 IRanGd=            0 ICorTp=0 IEmpDi=  4
 NAtoms=   12 NActive=   12 NUniq=    4 SFac= 4.00D+00 NAtFMM=   60 NAOKFM=F Big=F
 Integral buffers will be    131072 words long.
 Raffenetti 2 integral format.
 Two-electron integral symmetry is turned on.
 Leave Link  301 at Mon Jul 20 17:06:56 2026, MaxMem=  4026531840 cpu:         2.6
 (Enter /home/p20190052/g09/l302.exe)
 NPDir=0 NMtPBC=     1 NCelOv=     1 NCel=       1 NClECP=     1 NCelD=      1
         NCelK=      1 NCelE2=     1 NClLst=     1 CellRange=     0.0.
 One-electron integrals computed using PRISM.
 One-electron integral symmetry used in STVInt
 NBasis=   114 RedAO= T EigKep=  4.47D-04  NBF=    48    12    36    18
 NBsUse=   114 1.00D-06 EigRej= -1.00D+00 NBFU=    48    12    36    18
 Precomputing XC quadrature grid using
 IXCGrd= 4 IRadAn=           0 IRanWt=          -1 IRanGd=           0 AccXCQ= 0.00D+00.
 Generated NRdTot=       0 NPtTot=           0 NUsed=           0 NTot=          32
 NSgBfM=   120   120   120   120   120 MxSgAt=    12 MxSgA2=    12.
 Leave Link  302 at Mon Jul 20 17:06:56 2026, MaxMem=  4026531840 cpu:        15.4
 (Enter /home/p20190052/g09/l303.exe)
 DipDrv:  MaxL=1.
 Leave Link  303 at Mon Jul 20 17:06:56 2026, MaxMem=  4026531840 cpu:         1.1
 (Enter /home/p20190052/g09/l401.exe)
 Initial guess from the checkpoint file:  "Benzene_b3lyp_cc-pvdz.chk"
 B after Tr=    -0.000000   -0.000000   -0.000000
         Rot=    0.866025    0.000000    0.000000   -0.500000 Ang= -60.00 deg.
 Guess basis will be translated and rotated to current coordinates.
 JPrj=2 DoOrth=T DoCkMO=T.
 Initial guess orbital symmetries:
       Occupied  (?A) (?B) (?B) (?A) (?A) (?B) (?A) (?B) (?B) (?A)
                 (?A) (?A) (?B) (?B) (?B) (?B) (?C) (?A) (?A) (?D)
                 (?D)
       Virtual   (?A) (?B) (?A) (?B) (?A) (?A) (?B) (?B) (?A) (?B)
                 (?A) (?B) (?A) (?A) (?B) (?A) (?B) (?A) (?B) (?A)
                 (?B) (?A) (?B) (?A) (?A) (?B) (?B) (?B) (?A) (?A)
                 (?A) (?A) (?B) (?B) (?B) (?B) (?B) (?D) (?C) (?D)
                 (?D) (?C) (?C) (?D) (?D) (?C) (?C) (?C) (?B) (?A)
                 (?B) (?A) (?B) (?A) (?B) (?B) (?A) (?B) (?B) (?A)
                 (?B) (?A) (?A) (?B) (?B) (?A) (?B) (?A) (?B) (?B)
                 (?A) (?A) (?B) (?A) (?A) (?A) (?A) (?C) (?D) (?C)
                 (?D) (?C) (?D) (?C) (?D) (?C) (?C) (?D) (?D) (?C)
                 (?C) (?D) (?D)
 Leave Link  401 at Mon Jul 20 17:06:56 2026, MaxMem=  4026531840 cpu:        11.6
 (Enter /home/p20190052/g09/l502.exe)
 Closed shell SCF:
 Using DIIS extrapolation, IDIIS=  1040.
 Integral symmetry usage will be decided dynamically.
 Keep R1 ints in memory in symmetry-blocked form, NReq=27239352.
 IVT=       68182 IEndB=       68182 NGot=  4026531840 MDV=  4020779893
 LenX=  4020779893 LenY=  4020765052
 Requested convergence on RMS density matrix=1.00D-08 within 128 cycles.
 Requested convergence on MAX density matrix=1.00D-06.
 Requested convergence on             energy=1.00D-06.
 No special actions if energy rises.
 FoFCou: FMM=F IPFlag=           0 FMFlag=           0 FMFlg1=           0
         NFxFlg=           0 DoJE=F BraDBF=F KetDBF=F FulRan=T
         wScrn=  0.000000 ICntrl=     600 IOpCl=  0 I1Cent=           0 NGrid=           0
         NMat0=    1 NMatS0=   6555 NMatT0=    0 NMatD0=    1 NMtDS0=    0 NMtDT0=    0
 Petite list used in FoFCou.
 An orbital has undefined symmetry, so N**3 symmetry is turned off.

 Cycle   1  Pass 1  IDiag  1:
 E= -232.262915527870    
 DIIS: error= 5.34D-04 at cycle   1 NSaved=   1.
 NSaved= 1 IEnMin= 1 EnMin= -232.262915527870     IErMin= 1 ErrMin= 5.34D-04
 ErrMax= 5.34D-04  0.00D+00 EMaxC= 1.00D-01 BMatC= 3.40D-05 BMatP= 3.40D-05
 IDIUse=3 WtCom= 9.95D-01 WtEn= 5.34D-03
 Coeff-Com:  0.100D+01
 Coeff-En:   0.100D+01
 Coeff:      0.100D+01
 Gap=     0.824 Goal=   None    Shift=    0.000
 RMSDP=1.29D-04 MaxDP=1.39D-03              OVMax= 1.63D-03

 Cycle   2  Pass 1  IDiag  1:
 E= -232.262955619510     Delta-E=       -0.000040091640 Rises=F Damp=F
 DIIS: error= 1.45D-04 at cycle   2 NSaved=   2.
 NSaved= 2 IEnMin= 2 EnMin= -232.262955619510     IErMin= 2 ErrMin= 1.45D-04
 ErrMax= 1.45D-04  0.00D+00 EMaxC= 1.00D-01 BMatC= 1.91D-06 BMatP= 3.40D-05
 IDIUse=3 WtCom= 9.99D-01 WtEn= 1.45D-03
 Coeff-Com:  0.118D+00 0.882D+00
 Coeff-En:   0.000D+00 0.100D+01
 Coeff:      0.118D+00 0.882D+00
 Gap=     0.247 Goal=   None    Shift=    0.000
 RMSDP=2.23D-05 MaxDP=2.62D-04 DE=-4.01D-05 OVMax= 4.64D-04

 Cycle   3  Pass 1  IDiag  1:
 E= -232.262957172388     Delta-E=       -0.000001552878 Rises=F Damp=F
 DIIS: error= 1.01D-04 at cycle   3 NSaved=   3.
 NSaved= 3 IEnMin= 3 EnMin= -232.262957172388     IErMin= 3 ErrMin= 1.01D-04
 ErrMax= 1.01D-04  0.00D+00 EMaxC= 1.00D-01 BMatC= 7.72D-07 BMatP= 1.91D-06
 IDIUse=3 WtCom= 9.99D-01 WtEn= 1.01D-03
 Coeff-Com:  0.190D-01 0.387D+00 0.594D+00
 Coeff-En:   0.000D+00 0.194D+00 0.806D+00
 Coeff:      0.190D-01 0.387D+00 0.594D+00
 Gap=     0.247 Goal=   None    Shift=    0.000
 RMSDP=9.92D-06 MaxDP=1.33D-04 DE=-1.55D-06 OVMax= 2.42D-04

 Cycle   4  Pass 1  IDiag  1:
 E= -232.262958034463     Delta-E=       -0.000000862075 Rises=F Damp=F
 DIIS: error= 2.23D-05 at cycle   4 NSaved=   4.
 NSaved= 4 IEnMin= 4 EnMin= -232.262958034463     IErMin= 4 ErrMin= 2.23D-05
 ErrMax= 2.23D-05  0.00D+00 EMaxC= 1.00D-01 BMatC= 4.21D-08 BMatP= 7.72D-07
 IDIUse=1 WtCom= 1.00D+00 WtEn= 0.00D+00
 Coeff-Com: -0.224D-02 0.926D-01 0.238D+00 0.672D+00
 Coeff:     -0.224D-02 0.926D-01 0.238D+00 0.672D+00
 Gap=     0.247 Goal=   None    Shift=    0.000
 RMSDP=1.69D-06 MaxDP=1.68D-05 DE=-8.62D-07 OVMax= 4.35D-05

 Cycle   5  Pass 1  IDiag  1:
 E= -232.262958076122     Delta-E=       -0.000000041659 Rises=F Damp=F
 DIIS: error= 1.74D-06 at cycle   5 NSaved=   5.
 NSaved= 5 IEnMin= 5 EnMin= -232.262958076122     IErMin= 5 ErrMin= 1.74D-06
 ErrMax= 1.74D-06  0.00D+00 EMaxC= 1.00D-01 BMatC= 3.49D-10 BMatP= 4.21D-08
 IDIUse=1 WtCom= 1.00D+00 WtEn= 0.00D+00
 Coeff-Com: -0.113D-02 0.353D-02 0.248D-01 0.129D+00 0.844D+00
 Coeff:     -0.113D-02 0.353D-02 0.248D-01 0.129D+00 0.844D+00
 Gap=     0.247 Goal=   None    Shift=    0.000
 RMSDP=1.39D-07 MaxDP=1.75D-06 DE=-4.17D-08 OVMax= 3.24D-06

 Cycle   6  Pass 1  IDiag  1:
 E= -232.262958076448     Delta-E=       -0.000000000327 Rises=F Damp=F
 DIIS: error= 1.20D-07 at cycle   6 NSaved=   6.
 NSaved= 6 IEnMin= 6 EnMin= -232.262958076448     IErMin= 6 ErrMin= 1.20D-07
 ErrMax= 1.20D-07  0.00D+00 EMaxC= 1.00D-01 BMatC= 2.51D-12 BMatP= 3.49D-10
 IDIUse=1 WtCom= 1.00D+00 WtEn= 0.00D+00
 Coeff-Com: -0.124D-03-0.125D-03 0.153D-02 0.123D-01 0.949D-01 0.892D+00
 Coeff:     -0.124D-03-0.125D-03 0.153D-02 0.123D-01 0.949D-01 0.892D+00
 Gap=     0.247 Goal=   None    Shift=    0.000
 RMSDP=2.34D-08 MaxDP=5.56D-07 DE=-3.27D-10 OVMax= 1.17D-06

 Cycle   7  Pass 1  IDiag  1:
 E= -232.262958076447     Delta-E=        0.000000000001 Rises=F Damp=F
 DIIS: error= 1.43D-07 at cycle   7 NSaved=   7.
 NSaved= 7 IEnMin= 6 EnMin= -232.262958076448     IErMin= 6 ErrMin= 1.20D-07
 ErrMax= 1.43D-07  0.00D+00 EMaxC= 1.00D-01 BMatC= 3.17D-12 BMatP= 2.51D-12
 IDIUse=1 WtCom= 1.00D+00 WtEn= 0.00D+00
 Coeff-Com:  0.241D-04-0.395D-03-0.127D-02-0.389D-02-0.172D-01 0.545D+00
 Coeff-Com:  0.478D+00
 Coeff:      0.241D-04-0.395D-03-0.127D-02-0.389D-02-0.172D-01 0.545D+00
 Coeff:      0.478D+00
 Gap=     0.247 Goal=   None    Shift=    0.000
 DSYEVD-2 returned Info=         172 IAlg= 4 N=   114 NDim=   114 NE2=    35269867 trying  DSYEV.
 RMSDP=1.22D-08 MaxDP=2.96D-07 DE= 1.36D-12 OVMax= 6.51D-07

 Cycle   8  Pass 1  IDiag  1:
 E= -232.262958076450     Delta-E=       -0.000000000003 Rises=F Damp=F
 DIIS: error= 1.57D-09 at cycle   8 NSaved=   8.
 NSaved= 8 IEnMin= 8 EnMin= -232.262958076450     IErMin= 8 ErrMin= 1.57D-09
 ErrMax= 1.57D-09  0.00D+00 EMaxC= 1.00D-01 BMatC= 3.69D-16 BMatP= 2.51D-12
 IDIUse=1 WtCom= 1.00D+00 WtEn= 0.00D+00
 Coeff-Com: -0.703D-06 0.190D-04 0.688D-04 0.128D-03 0.664D-03-0.348D-01
 Coeff-Com: -0.233D-01 0.106D+01
 Coeff:     -0.703D-06 0.190D-04 0.688D-04 0.128D-03 0.664D-03-0.348D-01
 Coeff:     -0.233D-01 0.106D+01
 Gap=     0.247 Goal=   None    Shift=    0.000
 RMSDP=2.44D-10 MaxDP=3.47D-09 DE=-2.73D-12 OVMax= 4.03D-09

 SCF Done:  E(RB3LYP) =  -232.262958076     A.U. after    8 cycles
            NFock=  8  Conv=0.24D-09     -V/T= 2.0076
 KE= 2.305019255401D+02 PE=-9.431979810068D+02 EE= 2.777139555705D+02
 Leave Link  502 at Mon Jul 20 17:06:57 2026, MaxMem=  4026531840 cpu:        21.8
 (Enter /home/p20190052/g09/l701.exe)
 Compute integral first derivatives.
 ... and contract with generalized density number  0.
 Leave Link  701 at Mon Jul 20 17:06:57 2026, MaxMem=  4026531840 cpu:        16.3
 (Enter /home/p20190052/g09/l702.exe)
 L702 exits ... SP integral derivatives will be done elsewhere.
 Leave Link  702 at Mon Jul 20 17:06:58 2026, MaxMem=  4026531840 cpu:         0.8
 (Enter /home/p20190052/g09/l703.exe)
 Compute integral first derivatives, UseDBF=F ICtDFT=           0.
 Integral derivatives from FoFJK, PRISM(SPDF).
 Calling FoFJK, ICntrl=      2127 FMM=F ISym2X=1 I1Cent= 0 IOpClX= 0 NMat=1 NMatS=1 NMatT=0.
 FoFJK:  IHMeth= 1 ICntrl=    2127 DoSepK=F KAlg= 0 I1Cent=   0 FoldK=F
 IRaf=         0 NMat=   1 IRICut=       1 DoRegI=T DoRafI=F ISym2E= 1.
 FoFCou: FMM=F IPFlag=           0 FMFlag=      100000 FMFlg1=         800
         NFxFlg=           0 DoJE=F BraDBF=F KetDBF=F FulRan=T
         wScrn=  0.000000 ICntrl=    2127 IOpCl=  0 I1Cent=           0 NGrid=           0
         NMat0=    1 NMatS0=      1 NMatT0=    0 NMatD0=    1 NMtDS0=    0 NMtDT0=    0
 Petite list used in FoFCou.
 Leave Link  703 at Mon Jul 20 17:06:58 2026, MaxMem=  4026531840 cpu:         9.4
 (Enter /home/p20190052/g09/l716.exe)
 Dipole        = 1.77635684D-15-8.88178420D-15 9.84622115D-17
 ***** Axes restored to original set *****
 -------------------------------------------------------------------
 Center     Atomic                   Forces (Hartrees/Bohr)
 Number     Number              X              Y              Z
 -------------------------------------------------------------------
      1        6           0.000000000    0.000000000    0.000199992
      2        6           0.000150727    0.000046244    0.000091026
      3        6          -0.000150727   -0.000046244    0.000091026
      4        1           0.000157135    0.000048210    0.000094896
      5        1          -0.000157135   -0.000048210    0.000094896
      6        6           0.000165581    0.000050801   -0.000099996
      7        6          -0.000165581   -0.000050801   -0.000099996
      8        1           0.000159960    0.000049077   -0.000096602
      9        1          -0.000159960   -0.000049077   -0.000096602
     10        6          -0.000000000   -0.000000000   -0.000182051
     11        1          -0.000000000   -0.000000000   -0.000189791
     12        1           0.000000000    0.000000000    0.000193204
 -------------------------------------------------------------------
 Cartesian Forces:  Max     0.000199992 RMS     0.000110487
 Leave Link  716 at Mon Jul 20 17:06:58 2026, MaxMem=  4026531840 cpu:         0.9
 (Enter /home/p20190052/g09/l103.exe)

 GradGradGradGradGradGradGradGradGradGradGradGradGradGradGradGradGradGrad
 Berny optimization.
 Using GEDIIS/GDIIS optimizer.
 FormGI is forming the generalized inverse of G from B-inverse, IUseBI=4.
 Internal  Forces:  Max     0.000382520 RMS     0.000142611
 Search for a local minimum.
 Step number   2 out of a maximum of   64
 All quantities printed in internal units (Hartrees-Bohrs-Radians)
 RMS Force = .14261D-03 SwitMx=.10000D-02 MixMth= 2
 Mixed Optimization -- En-DIIS/RFO-DIIS
 Update second derivatives using D2CorX and points    1    2
 DE= -1.90D-04 DEPred=-2.04D-04 R= 9.34D-01
 TightC=F SS=  1.41D+00  RLast= 3.32D-02 DXNew= 5.0454D-01 9.9726D-02
 Trust test= 9.34D-01 RLast= 3.32D-02 DXMaxT set to 3.00D-01
 ITU=  1  0
 Use linear search instead of GDIIS.
     Eigenvalues ---    0.02137   0.02137   0.02137   0.02137   0.02137
     Eigenvalues ---    0.02137   0.02137   0.02137   0.02137   0.16000
     Eigenvalues ---    0.16000   0.16000   0.16000   0.16000   0.16000
     Eigenvalues ---    0.22000   0.22000   0.22000   0.35238   0.35238
     Eigenvalues ---    0.35238   0.35238   0.35238   0.35563   0.41953
     Eigenvalues ---    0.41953   0.46234   0.46234   0.46234   0.48815
 RFO step:  Lambda=-7.36634754D-07 EMin= 2.13731658D-02
 Quartic linear search produced a step of -0.06053.
 Iteration  1 RMS(Cart)=  0.00049066 RMS(Int)=  0.00000001
 Iteration  2 RMS(Cart)=  0.00000000 RMS(Int)=  0.00000000
 ITry= 1 IFail=0 DXMaxC= 1.28D-03 DCOld= 1.00D+10 DXMaxT= 3.00D-01 DXLimC= 3.00D+00 Rises=F
 ClnCor:  largest displacement from symmetrization is 1.36D-08 for atom     5.
 Variable       Old X    -DE/DX   Delta X   Delta X   Delta X     New X
                                 (Linear)    (Quad)   (Total)
    R1        2.64381  -0.00038  -0.00031  -0.00046  -0.00077   2.64305
    R2        2.64381  -0.00038  -0.00031  -0.00046  -0.00077   2.64305
    R3        2.06546  -0.00019  -0.00076   0.00027  -0.00049   2.06497
    R4        2.06546  -0.00019  -0.00076   0.00028  -0.00048   2.06498
    R5        2.64381  -0.00038  -0.00031  -0.00046  -0.00077   2.64305
    R6        2.06546  -0.00019  -0.00076   0.00028  -0.00048   2.06498
    R7        2.64381  -0.00038  -0.00031  -0.00046  -0.00077   2.64305
    R8        2.06546  -0.00019  -0.00076   0.00027  -0.00049   2.06497
    R9        2.64381  -0.00038  -0.00031  -0.00046  -0.00077   2.64305
   R10        2.06546  -0.00019  -0.00076   0.00027  -0.00049   2.06497
   R11        2.64381  -0.00038  -0.00031  -0.00046  -0.00077   2.64305
   R12        2.06546  -0.00019  -0.00076   0.00028  -0.00048   2.06498
    A1        2.09438   0.00001   0.00000   0.00002   0.00002   2.09441
    A2        2.09440  -0.00000  -0.00000  -0.00001  -0.00001   2.09439
    A3        2.09440  -0.00000  -0.00000  -0.00001  -0.00001   2.09439
    A4        2.09439   0.00000   0.00000   0.00001   0.00001   2.09440
    A5        2.09441  -0.00001  -0.00000  -0.00002  -0.00002   2.09439
    A6        2.09439   0.00000   0.00000   0.00001   0.00001   2.09440
    A7        2.09439   0.00000   0.00000   0.00001   0.00001   2.09440
    A8        2.09441  -0.00001  -0.00000  -0.00002  -0.00002   2.09439
    A9        2.09439   0.00000   0.00000   0.00001   0.00001   2.09440
   A10        2.09440  -0.00000  -0.00000  -0.00001  -0.00001   2.09439
   A11        2.09438   0.00001   0.00000   0.00002   0.00002   2.09441
   A12        2.09440  -0.00000  -0.00000  -0.00001  -0.00001   2.09439
   A13        2.09440  -0.00000  -0.00000  -0.00001  -0.00001   2.09439
   A14        2.09438   0.00001   0.00000   0.00002   0.00002   2.09441
   A15        2.09440  -0.00000  -0.00000  -0.00001  -0.00001   2.09439
   A16        2.09441  -0.00001  -0.00000  -0.00002  -0.00002   2.09439
   A17        2.09439   0.00000   0.00000   0.00001   0.00001   2.09440
   A18        2.09439   0.00000   0.00000   0.00001   0.00001   2.09440
    D1        3.14159   0.00000   0.00000  -0.00000   0.00000   3.14159
    D2       -0.00000   0.00000   0.00000  -0.00000   0.00000   0.00000
    D3        0.00000  -0.00000   0.00000  -0.00000   0.00000   0.00000
    D4        3.14159  -0.00000   0.00000  -0.00000   0.00000   3.14159
    D5        3.14159  -0.00000   0.00000   0.00000   0.00000   3.14159
    D6        0.00000   0.00000   0.00000   0.00000   0.00000   0.00000
    D7       -0.00000   0.00000   0.00000   0.00000  -0.00000  -0.00000
    D8        3.14159   0.00000   0.00000   0.00000  -0.00000   3.14159
    D9        3.14159   0.00000   0.00000  -0.00000   0.00000   3.14159
   D10        0.00000  -0.00000   0.00000   0.00000   0.00000   0.00000
   D11       -0.00000   0.00000   0.00000  -0.00000   0.00000   0.00000
   D12        3.14159  -0.00000   0.00000   0.00000   0.00000  -3.14159
   D13        3.14159  -0.00000   0.00000  -0.00000  -0.00000   3.14159
   D14        0.00000  -0.00000   0.00000  -0.00000  -0.00000   0.00000
   D15       -0.00000   0.00000   0.00000   0.00000  -0.00000  -0.00000
   D16        3.14159   0.00000   0.00000   0.00000   0.00000   3.14159
   D17       -0.00000   0.00000   0.00000  -0.00000   0.00000   0.00000
   D18        3.14159   0.00000   0.00000   0.00000  -0.00000   3.14159
   D19       -3.14159  -0.00000  -0.00000   0.00000  -0.00000   3.14159
   D20        0.00000  -0.00000  -0.00000   0.00000  -0.00000   0.00000
   D21       -0.00000   0.00000   0.00000   0.00000   0.00000   0.00000
   D22        3.14159  -0.00000   0.00000  -0.00000   0.00000   3.14159
   D23        3.14159  -0.00000   0.00000   0.00000   0.00000   3.14159
   D24        0.00000  -0.00000   0.00000  -0.00000   0.00000   0.00000
         Item               Value     Threshold  Converged?
 Maximum Force            0.000383     0.000450     YES
 RMS     Force            0.000143     0.000300     YES
 Maximum Displacement     0.001278     0.001800     YES
 RMS     Displacement     0.000491     0.001200     YES
 Predicted change in Energy=-1.161428D-06
 Optimization completed.
    -- Stationary point found.
                           ----------------------------
                           !   Optimized Parameters   !
                           ! (Angstroms and Degrees)  !
 --------------------------                            --------------------------
 ! Name  Definition              Value          Derivative Info.                !
 --------------------------------------------------------------------------------
 ! R1    R(1,2)                  1.399          -DE/DX =   -0.0004              !
 ! R2    R(1,3)                  1.399          -DE/DX =   -0.0004              !
 ! R3    R(1,12)                 1.093          -DE/DX =   -0.0002              !
 ! R4    R(2,4)                  1.093          -DE/DX =   -0.0002              !
 ! R5    R(2,6)                  1.399          -DE/DX =   -0.0004              !
 ! R6    R(3,5)                  1.093          -DE/DX =   -0.0002              !
 ! R7    R(3,7)                  1.399          -DE/DX =   -0.0004              !
 ! R8    R(6,8)                  1.093          -DE/DX =   -0.0002              !
 ! R9    R(6,10)                 1.399          -DE/DX =   -0.0004              !
 ! R10   R(7,9)                  1.093          -DE/DX =   -0.0002              !
 ! R11   R(7,10)                 1.399          -DE/DX =   -0.0004              !
 ! R12   R(10,11)                1.093          -DE/DX =   -0.0002              !
 ! A1    A(2,1,3)              119.9992         -DE/DX =    0.0                 !
 ! A2    A(2,1,12)             120.0004         -DE/DX =    0.0                 !
 ! A3    A(3,1,12)             120.0004         -DE/DX =    0.0                 !
 ! A4    A(1,2,4)              119.9996         -DE/DX =    0.0                 !
 ! A5    A(1,2,6)              120.0008         -DE/DX =    0.0                 !
 ! A6    A(4,2,6)              119.9996         -DE/DX =    0.0                 !
 ! A7    A(1,3,5)              119.9996         -DE/DX =    0.0                 !
 ! A8    A(1,3,7)              120.0008         -DE/DX =    0.0                 !
 ! A9    A(5,3,7)              119.9996         -DE/DX =    0.0                 !
 ! A10   A(2,6,8)              120.0004         -DE/DX =    0.0                 !
 ! A11   A(2,6,10)             119.9992         -DE/DX =    0.0                 !
 ! A12   A(8,6,10)             120.0004         -DE/DX =    0.0                 !
 ! A13   A(3,7,9)              120.0004         -DE/DX =    0.0                 !
 ! A14   A(3,7,10)             119.9992         -DE/DX =    0.0                 !
 ! A15   A(9,7,10)             120.0004         -DE/DX =    0.0                 !
 ! A16   A(6,10,7)             120.0008         -DE/DX =    0.0                 !
 ! A17   A(6,10,11)            119.9996         -DE/DX =    0.0                 !
 ! A18   A(7,10,11)            119.9996         -DE/DX =    0.0                 !
 ! D1    D(3,1,2,4)            180.0            -DE/DX =    0.0                 !
 ! D2    D(3,1,2,6)              0.0            -DE/DX =    0.0                 !
 ! D3    D(12,1,2,4)             0.0            -DE/DX =    0.0                 !
 ! D4    D(12,1,2,6)           180.0            -DE/DX =    0.0                 !
 ! D5    D(2,1,3,5)            180.0            -DE/DX =    0.0                 !
 ! D6    D(2,1,3,7)              0.0            -DE/DX =    0.0                 !
 ! D7    D(12,1,3,5)             0.0            -DE/DX =    0.0                 !
 ! D8    D(12,1,3,7)           180.0            -DE/DX =    0.0                 !
 ! D9    D(1,2,6,8)            180.0            -DE/DX =    0.0                 !
 ! D10   D(1,2,6,10)             0.0            -DE/DX =    0.0                 !
 ! D11   D(4,2,6,8)              0.0            -DE/DX =    0.0                 !
 ! D12   D(4,2,6,10)          -180.0            -DE/DX =    0.0                 !
 ! D13   D(1,3,7,9)            180.0            -DE/DX =    0.0                 !
 ! D14   D(1,3,7,10)             0.0            -DE/DX =    0.0                 !
 ! D15   D(5,3,7,9)              0.0            -DE/DX =    0.0                 !
 ! D16   D(5,3,7,10)           180.0            -DE/DX =    0.0                 !
 ! D17   D(2,6,10,7)             0.0            -DE/DX =    0.0                 !
 ! D18   D(2,6,10,11)          180.0            -DE/DX =    0.0                 !
 ! D19   D(8,6,10,7)           180.0            -DE/DX =    0.0                 !
 ! D20   D(8,6,10,11)            0.0            -DE/DX =    0.0                 !
 ! D21   D(3,7,10,6)             0.0            -DE/DX =    0.0                 !
 ! D22   D(3,7,10,11)          180.0            -DE/DX =    0.0                 !
 ! D23   D(9,7,10,6)           180.0            -DE/DX =    0.0                 !
 ! D24   D(9,7,10,11)            0.0            -DE/DX =    0.0                 !
 --------------------------------------------------------------------------------
 Lowest energy point so far.  Saving SCF results.
 GradGradGradGradGradGradGradGradGradGradGradGradGradGradGradGradGradGrad

 Largest change from initial coordinates is atom    8       2.487 Angstoms.
 Leave Link  103 at Mon Jul 20 17:06:58 2026, MaxMem=  4026531840 cpu:         1.0
 (Enter /home/p20190052/g09/l202.exe)
                          Input orientation:                          
 ---------------------------------------------------------------------
 Center     Atomic      Atomic             Coordinates (Angstroms)
 Number     Number       Type             X           Y           Z
 ---------------------------------------------------------------------
      1          6           0       -2.192237   -0.286263   -3.896698
      2          6           0       -3.350552   -0.641642   -3.197167
      3          6           0       -1.033923    0.069117   -3.197167
      4          1           0       -4.255479   -0.919281   -3.743664
      5          1           0       -0.128995    0.346755   -3.743664
      6          6           0       -3.350560   -0.641645   -1.798121
      7          6           0       -1.033914    0.069119   -1.798121
      8          1           0       -4.255490   -0.919284   -1.251623
      9          1           0       -0.128985    0.346758   -1.251623
     10          6           0       -2.192237   -0.286263   -1.098605
     11          1           0       -2.192237   -0.286263   -0.005611
     12          1           0       -2.192237   -0.286263   -4.989694
 ---------------------------------------------------------------------
                    Distance matrix (angstroms):
                    1          2          3          4          5
     1  C    0.000000
     2  C    1.399046   0.000000
     3  C    1.399046   2.423210   0.000000
     4  H    2.163585   1.092994   3.413797   0.000000
     5  H    2.163585   3.413797   1.092994   4.316331   0.000000
     6  C    2.423229   1.399046   2.798093   2.163585   3.891087
     7  C    2.423229   2.798093   1.399046   3.891087   2.163585
     8  H    3.413818   2.163594   3.891089   2.492041   4.984083
     9  H    3.413818   3.891089   2.163594   4.984083   2.492041
    10  C    2.798093   2.423210   2.423210   3.413797   3.413797
    11  H    3.891087   3.413797   3.413797   4.316331   4.316331
    12  H    1.092996   2.163594   2.163594   2.492041   2.492041
                    6          7          8          9         10
     6  C    0.000000
     7  C    2.423229   0.000000
     8  H    1.092996   3.413818   0.000000
     9  H    3.413818   1.092996   4.316353   0.000000
    10  C    1.399046   1.399046   2.163594   2.163594   0.000000
    11  H    2.163585   2.163585   2.492041   2.492041   1.092994
    12  H    3.413818   3.413818   4.316353   4.316353   3.891089
                   11         12
    11  H    0.000000
    12  H    4.984083   0.000000
 Stoichiometry    C6H6
 Framework group  D3H[3C2(HC.CH)]
 Deg. of freedom     4
 Full point group                 D3H     NOp  12
 RotChk:  IX=2 Diff= 4.01D-16
 Largest Abelian subgroup         C2V     NOp   4
 Largest concise Abelian subgroup C2      NOp   2
                         Standard orientation:                         
 ---------------------------------------------------------------------
 Center     Atomic      Atomic             Coordinates (Angstroms)
 Number     Number       Type             X           Y           Z
 ---------------------------------------------------------------------
      1          6           0       -1.211614    0.699526   -0.000000
      2          6           0       -0.000000    1.399041   -0.000000
      3          6           0       -1.211605   -0.699520   -0.000000
      4          1           0       -0.000000    2.492035   -0.000000
      5          1           0       -2.158166   -1.246018   -0.000000
      6          6           0        1.211614    0.699526    0.000000
      7          6           0        0.000000   -1.399052    0.000000
      8          1           0        2.158177    1.246024   -0.000000
      9          1           0        0.000000   -2.492048    0.000000
     10          6           0        1.211605   -0.699520   -0.000000
     11          1           0        2.158166   -1.246018   -0.000000
     12          1           0       -2.158177    1.246024   -0.000000
 ---------------------------------------------------------------------
 Rotational constants (GHZ):      5.6631128      5.6631128      2.8315564
 Leave Link  202 at Mon Jul 20 17:06:58 2026, MaxMem=  4026531840 cpu:         0.4
 (Enter /home/p20190052/g09/l601.exe)
 Copying SCF densities to generalized density rwf, IOpCl= 0 IROHF=0.

 **********************************************************************

            Population analysis using the SCF density.

 **********************************************************************

 Orbital symmetries:
       Occupied  (?A) (?B) (?B) (?B) (?B) (?C) (?A) (?B) (?B) (?B)
                 (?B) (?A) (?C) (?C) (?B) (?B) (?D) (?B) (?B) (?E)
                 (?E)
       Virtual   (?F) (?F) (?A) (?B) (?B) (?B) (?B) (?G) (?C) (?B)
                 (?B) (?B) (?B) (?A) (?C) (?C) (?D) (?B) (?B) (?B)
                 (?B) (?E) (?E) (?A) (?A) (?F) (?F) (?B) (?B) (?B)
                 (?B) (?G) (?C) (?A) (?D) (?A) (?B) (?B) (?G) (?B)
                 (?B) (?E) (?E) (?B) (?B) (?C) (?F) (?F) (?A) (?B)
                 (?B) (?C) (?F) (?F) (?G) (?A) (?B) (?B) (?B) (?B)
                 (?D) (?E) (?E) (?B) (?B) (?C) (?E) (?E) (?C) (?B)
                 (?B) (?B) (?B) (?A) (?F) (?F) (?B) (?B) (?C) (?D)
                 (?G) (?A) (?B) (?B) (?B) (?B) (?B) (?B) (?C) (?A)
                 (?B) (?B) (?C)
 Unable to determine electronic state:  an orbital has unidentified symmetry.
 Alpha  occ. eigenvalues --  -10.19199 -10.19178 -10.19178 -10.19130 -10.19130
 Alpha  occ. eigenvalues --  -10.19109  -0.85204  -0.74488  -0.74488  -0.60130
 Alpha  occ. eigenvalues --   -0.60130  -0.51998  -0.46006  -0.44467  -0.41995
 Alpha  occ. eigenvalues --   -0.41995  -0.36574  -0.34347  -0.34347  -0.25321
 Alpha  occ. eigenvalues --   -0.25321
 Alpha virt. eigenvalues --   -0.00668  -0.00668   0.05717   0.09783   0.09783
 Alpha virt. eigenvalues --    0.13259   0.13259   0.15015   0.15153   0.27633
 Alpha virt. eigenvalues --    0.27633   0.29487   0.29487   0.40285   0.40751
 Alpha virt. eigenvalues --    0.46123   0.46505   0.50958   0.50958   0.51438
 Alpha virt. eigenvalues --    0.51438   0.51939   0.51939   0.52608   0.54050
 Alpha virt. eigenvalues --    0.59237   0.59237   0.64319   0.64319   0.64736
 Alpha virt. eigenvalues --    0.64736   0.66714   0.71845   0.78612   0.82740
 Alpha virt. eigenvalues --    0.85685   0.88250   0.88250   0.92410   0.99297
 Alpha virt. eigenvalues --    0.99297   1.00514   1.00514   1.01058   1.01058
 Alpha virt. eigenvalues --    1.05562   1.07094   1.07094   1.21100   1.27587
 Alpha virt. eigenvalues --    1.27587   1.45822   1.47452   1.47452   1.50879
 Alpha virt. eigenvalues --    1.53474   1.59812   1.59812   1.59854   1.59854
 Alpha virt. eigenvalues --    1.62729   1.67766   1.67766   1.68979   1.68979
 Alpha virt. eigenvalues --    1.72488   1.79247   1.79247   1.83327   1.83898
 Alpha virt. eigenvalues --    1.83898   1.84358   1.84358   1.88349   1.97288
 Alpha virt. eigenvalues --    1.97288   1.97726   1.97726   2.00643   2.19059
 Alpha virt. eigenvalues --    2.24998   2.34877   2.41443   2.41443   2.41896
 Alpha virt. eigenvalues --    2.41896   2.62532   2.62532   2.69285   2.78005
 Alpha virt. eigenvalues --    2.89383   2.89383   3.62466
          Condensed to atoms (all electrons):
               1          2          3          4          5          6
     1  C    4.739057   0.495588   0.495588  -0.050637  -0.050637   0.002937
     2  C    0.495588   4.739190   0.002954   0.389046   0.010071   0.495588
     3  C    0.495588   0.002954   4.739190   0.010071   0.389046  -0.072877
     4  H   -0.050637   0.389046   0.010071   0.753255  -0.000305  -0.050637
     5  H   -0.050637   0.010071   0.389046  -0.000305   0.753255  -0.000200
     6  C    0.002937   0.495588  -0.072877  -0.050637  -0.000200   4.739057
     7  C    0.002937  -0.072877   0.495588  -0.000200  -0.050637   0.002937
     8  H    0.010071  -0.050640  -0.000201  -0.015723   0.000067   0.389045
     9  H    0.010071  -0.000201  -0.050640   0.000067  -0.015723   0.010071
    10  C   -0.072877   0.002954   0.002954   0.010071   0.010071   0.495588
    11  H   -0.000200   0.010071   0.010071  -0.000305  -0.000305  -0.050637
    12  H    0.389045  -0.050640  -0.050640  -0.015723  -0.015723   0.010071
               7          8          9         10         11         12
     1  C    0.002937   0.010071   0.010071  -0.072877  -0.000200   0.389045
     2  C   -0.072877  -0.050640  -0.000201   0.002954   0.010071  -0.050640
     3  C    0.495588  -0.000201  -0.050640   0.002954   0.010071  -0.050640
     4  H   -0.000200  -0.015723   0.000067   0.010071  -0.000305  -0.015723
     5  H   -0.050637   0.000067  -0.015723   0.010071  -0.000305  -0.015723
     6  C    0.002937   0.389045   0.010071   0.495588  -0.050637   0.010071
     7  C    4.739057   0.010071   0.389045   0.495588  -0.050637   0.010071
     8  H    0.010071   0.753252  -0.000305  -0.050640  -0.015723  -0.000305
     9  H    0.389045  -0.000305   0.753252  -0.050640  -0.015723  -0.000305
    10  C    0.495588  -0.050640  -0.050640   4.739190   0.389046  -0.000201
    11  H   -0.050637  -0.015723  -0.015723   0.389046   0.753255   0.000067
    12  H    0.010071  -0.000305  -0.000305  -0.000201   0.000067   0.753252
 Mulliken charges:
               1
     1  C    0.029055
     2  C    0.028895
     3  C    0.028895
     4  H   -0.028980
     5  H   -0.028980
     6  C    0.029055
     7  C    0.029055
     8  H   -0.028970
     9  H   -0.028970
    10  C    0.028895
    11  H   -0.028980
    12  H   -0.028970
 Sum of Mulliken charges =  -0.00000
 Mulliken charges with hydrogens summed into heavy atoms:
               1
     1  C    0.000085
     2  C   -0.000085
     3  C   -0.000085
     6  C    0.000085
     7  C    0.000085
    10  C   -0.000085
 Electronic spatial extent (au):  <R**2>=            461.3747
 Charge=             -0.0000 electrons
 Dipole moment (field-independent basis, Debye):
    X=              0.0000    Y=              0.0000    Z=             -0.0000  Tot=              0.0000
 Quadrupole moment (field-independent basis, Debye-Ang):
   XX=            -32.0285   YY=            -32.0285   ZZ=            -39.0801
   XY=             -0.0000   XZ=             -0.0000   YZ=             -0.0000
 Traceless Quadrupole moment (field-independent basis, Debye-Ang):
   XX=              2.3505   YY=              2.3505   ZZ=             -4.7011
   XY=             -0.0000   XZ=             -0.0000   YZ=             -0.0000
 Octapole moment (field-independent basis, Debye-Ang**2):
  XXX=              0.0000  YYY=             -0.0008  ZZZ=              0.0000  XYY=             -0.0000
  XXY=              0.0008  XXZ=             -0.0000  XZZ=             -0.0000  YZZ=              0.0000
  YYZ=             -0.0000  XYZ=              0.0000
 Hexadecapole moment (field-independent basis, Debye-Ang**3):
 XXXX=           -278.5176 YYYY=           -278.5176 ZZZZ=            -42.9413 XXXY=             -0.0000
 XXXZ=             -0.0000 YYYX=             -0.0000 YYYZ=             -0.0000 ZZZX=             -0.0000
 ZZZY=             -0.0000 XXYY=            -92.8392 XXZZ=            -61.9640 YYZZ=            -61.9640
 XXYZ=              0.0000 YYXZ=             -0.0000 ZZXY=             -0.0000
 N-N= 2.027191418197D+02 E-N=-9.431979812175D+02  KE= 2.305019255401D+02
 Symmetry A1   KE= 1.462479198163D+02
 Symmetry A2   KE= 2.225776634239D+00
 Symmetry B1   KE= 7.793930792935D+01
 Symmetry B2   KE= 4.088921160225D+00
 No NMR shielding tensors so no spin-rotation constants.
 Leave Link  601 at Mon Jul 20 17:06:58 2026, MaxMem=  4026531840 cpu:        16.1
 (Enter /home/p20190052/g09/l9999.exe)
 1\1\ WCSS.PL-BEM-NODE1\FOpt\RB3LYP\CC-pVDZ\C6H6\P20190052\20-Jul-2026\
 0\\#p opt b3lyp/cc-pvdz\\Benzene b3lyp cc-pvdz\\0,1\C,-2.1922372557,-0
 .2862627384,-3.8966981114\C,-3.3505516723,-0.6416421019,-3.1971669755\
 C,-1.0339228389,0.0691166252,-3.1971669758\H,-4.2554792143,-0.91928051
 28,-3.7436639847\H,-0.128995297,0.3467550361,-3.7436639852\C,-3.350560
 4797,-0.6416448041,-1.7981206612\C,-1.0339140312,0.0691193275,-1.79812
 06614\H,-4.2554896519,-0.9192837152,-1.2516226673\H,-0.1289848589,0.34
 67582386,-1.2516226678\C,-2.1922372554,-0.2862627383,-1.0986054827\H,-
 2.1922372553,-0.2862627383,-0.0056114641\H,-2.1922372558,-0.2862627384
 ,-4.989694099\\Version=ES64L-G09RevE.01\HF=-232.2629581\RMSD=2.442e-10
 \RMSF=1.105e-04\Dipole=0.,0.,0.\Quadrupole=1.2965309,-3.0441065,1.7475
 755,1.4701232,0.,0.\PG=D03H [3C2(H1C1.C1H1)]\\@


 SOME PEOPLE TRY TO PULL THE WOOL OVER YOUR EYES
 USING THE WRONG YARN.
 Job cpu time:       0 days  0 hours  4 minutes 12.8 seconds.
 File lengths (MBytes):  RWF=      8 Int=      0 D2E=      0 Chk=      2 Scr=      1
 Normal termination of Gaussian 09 at Mon Jul 20 17:06:59 2026.
