 Entering Gaussian System, Link 0=g09
 Input=Benzene-b3lyp-sto3g.gjf
 Output=Benzene-b3lyp-sto3g.log
 Initial command:
 /home/p20190052/g09/l1.exe "/home/p20190052/g09/scratch/Gau-56749.inp" -scrdir="/home/p20190052/g09/scratch/"
 Entering Link 1 = /home/p20190052/g09/l1.exe PID=     56750.
  
 Copyright (c) 1988,1990,1992,1993,1995,1998,2003,2009,2015,
            Gaussian, Inc.  All Rights Reserved.
  
 This is part of the Gaussian(R) 09 program.  It is based on
 the Gaussian(R) 03 system (copyright 2003, Gaussian, Inc.),
 the Gaussian(R) 98 system (copyright 1998, Gaussian, Inc.),
 the Gaussian(R) 94 system (copyright 1995, Gaussian, Inc.),
 the Gaussian 92(TM) system (copyright 1992, Gaussian, Inc.),
 the Gaussian 90(TM) system (copyright 1990, Gaussian, Inc.),
 the Gaussian 88(TM) system (copyright 1988, Gaussian, Inc.),
 the Gaussian 86(TM) system (copyright 1986, Carnegie Mellon
 University), and the Gaussian 82(TM) system (copyright 1983,
 Carnegie Mellon University). Gaussian is a federally registered
 trademark of Gaussian, Inc.
  
 This software contains proprietary and confidential information,
 including trade secrets, belonging to Gaussian, Inc.
  
 This software is provided under written license and may be
 used, copied, transmitted, or stored only in accord with that
 written license.
  
 The following legend is applicable only to US Government
 contracts under FAR:
  
                    RESTRICTED RIGHTS LEGEND
  
 Use, reproduction and disclosure by the US Government is
 subject to restrictions as set forth in subparagraphs (a)
 and (c) of the Commercial Computer Software - Restricted
 Rights clause in FAR 52.227-19.
  
 Gaussian, Inc.
 340 Quinnipiac St., Bldg. 40, Wallingford CT 06492
  
  
 ---------------------------------------------------------------
 Warning -- This program may not be used in any manner that
 competes with the business of Gaussian, Inc. or will provide
 assistance to any competitor of Gaussian, Inc.  The licensee
 of this program is prohibited from giving any competitor of
 Gaussian, Inc. access to this program.  By using this program,
 the user acknowledges that Gaussian, Inc. is engaged in the
 business of creating and licensing software in the field of
 computational chemistry and represents and warrants to the
 licensee that it is not a competitor of Gaussian, Inc. and that
 it will not use this program in any manner prohibited above.
 ---------------------------------------------------------------
  

 Cite this work as:
 Gaussian 09, Revision E.01,
 M. J. Frisch, G. W. Trucks, H. B. Schlegel, G. E. Scuseria, 
 M. A. Robb, J. R. Cheeseman, G. Scalmani, V. Barone, B. Mennucci, 
 G. A. Petersson, H. Nakatsuji, M. Caricato, X. Li, H. P. Hratchian, 
 A. F. Izmaylov, J. Bloino, G. Zheng, J. L. Sonnenberg, M. Hada, 
 M. Ehara, K. Toyota, R. Fukuda, J. Hasegawa, M. Ishida, T. Nakajima, 
 Y. Honda, O. Kitao, H. Nakai, T. Vreven, J. A. Montgomery, Jr., 
 J. E. Peralta, F. Ogliaro, M. Bearpark, J. J. Heyd, E. Brothers, 
 K. N. Kudin, V. N. Staroverov, T. Keith, R. Kobayashi, J. Normand, 
 K. Raghavachari, A. Rendell, J. C. Burant, S. S. Iyengar, J. Tomasi, 
 M. Cossi, N. Rega, J. M. Millam, M. Klene, J. E. Knox, J. B. Cross, 
 V. Bakken, C. Adamo, J. Jaramillo, R. Gomperts, R. E. Stratmann, 
 O. Yazyev, A. J. Austin, R. Cammi, C. Pomelli, J. W. Ochterski, 
 R. L. Martin, K. Morokuma, V. G. Zakrzewski, G. A. Voth, 
 P. Salvador, J. J. Dannenberg, S. Dapprich, A. D. Daniels, 
 O. Farkas, J. B. Foresman, J. V. Ortiz, J. Cioslowski, 
 and D. J. Fox, Gaussian, Inc., Wallingford CT, 2013.
 
 ******************************************
 Gaussian 09:  ES64L-G09RevE.01 30-Nov-2015
                20-Jul-2026 
 ******************************************
 %mem=30GB
 %nprocs=40
 Will use up to   40 processors via shared memory.
 %chk=Benzene_b3lyp_sto-3g.chk
 -------------------
 #p opt b3lyp/sto-3g
 -------------------
 1/14=-1,18=20,19=15,26=3,38=1/1,3;
 2/9=110,12=2,17=6,18=5,40=1/2;
 3/6=3,11=2,16=1,25=1,30=1,71=1,74=-5/1,2,3;
 4//1;
 5/5=2,38=5/2;
 6/7=2,8=2,9=2,10=2,28=1/1;
 7//1,2,3,16;
 1/14=-1,18=20,19=15,26=3/3(2);
 2/9=110/2;
 99//99;
 2/9=110/2;
 3/6=3,11=2,16=1,25=1,30=1,71=1,74=-5/1,2,3;
 4/5=5,16=3,69=1/1;
 5/5=2,38=5/2;
 7//1,2,3,16;
 1/14=-1,18=20,19=15,26=3/3(-5);
 2/9=110/2;
 6/7=2,8=2,9=2,10=2,19=2,28=1/1;
 99/9=1/99;
 Leave Link    1 at Mon Jul 20 17:06:59 2026, MaxMem=  4026531840 cpu:         1.2
 (Enter /home/p20190052/g09/l101.exe)
 --------------------
 Benzene b3lyp sto-3g
 --------------------
 Symbolic Z-matrix:
 Charge =  0 Multiplicity = 1
 C                    -2.19224  -0.28626  -3.89398 
 C                    -3.34831  -0.64095  -3.19581 
 C                    -1.03617   0.06843  -3.19581 
 H                    -4.24773  -0.9169   -3.73898 
 H                    -0.13674   0.34438  -3.73898 
 C                    -3.34831  -0.64095  -1.79948 
 C                    -1.03617   0.06843  -1.79948 
 H                    -4.24773  -0.9169   -1.25631 
 H                    -0.13674   0.34438  -1.25631 
 C                    -2.19224  -0.28626  -1.10132 
 H                    -2.19224  -0.28626  -0.01497 
 H                    -2.19224  -0.28626  -4.98032 
 
 NAtoms=     12 NQM=       12 NQMF=       0 NMMI=      0 NMMIF=      0
                NMic=       0 NMicF=      0.
                    Isotopes and Nuclear Properties:
 (Nuclear quadrupole moments (NQMom) in fm**2, nuclear magnetic moments (NMagM)
  in nuclear magnetons)

  Atom         1           2           3           4           5           6           7           8           9          10
 IAtWgt=          12          12          12           1           1          12          12           1           1          12
 AtmWgt=  12.0000000  12.0000000  12.0000000   1.0078250   1.0078250  12.0000000  12.0000000   1.0078250   1.0078250  12.0000000
 NucSpn=           0           0           0           1           1           0           0           1           1           0
 AtZEff=   0.0000000   0.0000000   0.0000000   0.0000000   0.0000000   0.0000000   0.0000000   0.0000000   0.0000000   0.0000000
 NQMom=    0.0000000   0.0000000   0.0000000   0.0000000   0.0000000   0.0000000   0.0000000   0.0000000   0.0000000   0.0000000
 NMagM=    0.0000000   0.0000000   0.0000000   2.7928460   2.7928460   0.0000000   0.0000000   2.7928460   2.7928460   0.0000000
 AtZNuc=   6.0000000   6.0000000   6.0000000   1.0000000   1.0000000   6.0000000   6.0000000   1.0000000   1.0000000   6.0000000

  Atom        11          12
 IAtWgt=           1           1
 AtmWgt=   1.0078250   1.0078250
 NucSpn=           1           1
 AtZEff=   0.0000000   0.0000000
 NQMom=    0.0000000   0.0000000
 NMagM=    2.7928460   2.7928460
 AtZNuc=   1.0000000   1.0000000
 Leave Link  101 at Mon Jul 20 17:06:59 2026, MaxMem=  4026531840 cpu:        12.4
 (Enter /home/p20190052/g09/l103.exe)

 GradGradGradGradGradGradGradGradGradGradGradGradGradGradGradGradGradGrad
 Berny optimization.
 Initialization pass.
                           ----------------------------
                           !    Initial Parameters    !
                           ! (Angstroms and Degrees)  !
 --------------------------                            --------------------------
 ! Name  Definition              Value          Derivative Info.                !
 --------------------------------------------------------------------------------
 ! R1    R(1,2)                  1.3963         estimate D2E/DX2                !
 ! R2    R(1,3)                  1.3963         estimate D2E/DX2                !
 ! R3    R(1,12)                 1.0863         estimate D2E/DX2                !
 ! R4    R(2,4)                  1.0863         estimate D2E/DX2                !
 ! R5    R(2,6)                  1.3963         estimate D2E/DX2                !
 ! R6    R(3,5)                  1.0863         estimate D2E/DX2                !
 ! R7    R(3,7)                  1.3963         estimate D2E/DX2                !
 ! R8    R(6,8)                  1.0863         estimate D2E/DX2                !
 ! R9    R(6,10)                 1.3963         estimate D2E/DX2                !
 ! R10   R(7,9)                  1.0863         estimate D2E/DX2                !
 ! R11   R(7,10)                 1.3963         estimate D2E/DX2                !
 ! R12   R(10,11)                1.0863         estimate D2E/DX2                !
 ! A1    A(2,1,3)              120.0            estimate D2E/DX2                !
 ! A2    A(2,1,12)             120.0            estimate D2E/DX2                !
 ! A3    A(3,1,12)             120.0            estimate D2E/DX2                !
 ! A4    A(1,2,4)              120.0001         estimate D2E/DX2                !
 ! A5    A(1,2,6)              120.0            estimate D2E/DX2                !
 ! A6    A(4,2,6)              120.0            estimate D2E/DX2                !
 ! A7    A(1,3,5)              120.0001         estimate D2E/DX2                !
 ! A8    A(1,3,7)              120.0            estimate D2E/DX2                !
 ! A9    A(5,3,7)              120.0            estimate D2E/DX2                !
 ! A10   A(2,6,8)              120.0            estimate D2E/DX2                !
 ! A11   A(2,6,10)             120.0            estimate D2E/DX2                !
 ! A12   A(8,6,10)             120.0001         estimate D2E/DX2                !
 ! A13   A(3,7,9)              120.0            estimate D2E/DX2                !
 ! A14   A(3,7,10)             120.0            estimate D2E/DX2                !
 ! A15   A(9,7,10)             120.0001         estimate D2E/DX2                !
 ! A16   A(6,10,7)             120.0            estimate D2E/DX2                !
 ! A17   A(6,10,11)            120.0            estimate D2E/DX2                !
 ! A18   A(7,10,11)            120.0            estimate D2E/DX2                !
 ! D1    D(3,1,2,4)            180.0            estimate D2E/DX2                !
 ! D2    D(3,1,2,6)              0.0            estimate D2E/DX2                !
 ! D3    D(12,1,2,4)             0.0            estimate D2E/DX2                !
 ! D4    D(12,1,2,6)           180.0            estimate D2E/DX2                !
 ! D5    D(2,1,3,5)            180.0            estimate D2E/DX2                !
 ! D6    D(2,1,3,7)              0.0            estimate D2E/DX2                !
 ! D7    D(12,1,3,5)             0.0            estimate D2E/DX2                !
 ! D8    D(12,1,3,7)           180.0            estimate D2E/DX2                !
 ! D9    D(1,2,6,8)            180.0            estimate D2E/DX2                !
 ! D10   D(1,2,6,10)             0.0            estimate D2E/DX2                !
 ! D11   D(4,2,6,8)              0.0            estimate D2E/DX2                !
 ! D12   D(4,2,6,10)           180.0            estimate D2E/DX2                !
 ! D13   D(1,3,7,9)            180.0            estimate D2E/DX2                !
 ! D14   D(1,3,7,10)             0.0            estimate D2E/DX2                !
 ! D15   D(5,3,7,9)              0.0            estimate D2E/DX2                !
 ! D16   D(5,3,7,10)          -180.0            estimate D2E/DX2                !
 ! D17   D(2,6,10,7)             0.0            estimate D2E/DX2                !
 ! D18   D(2,6,10,11)          180.0            estimate D2E/DX2                !
 ! D19   D(8,6,10,7)           180.0            estimate D2E/DX2                !
 ! D20   D(8,6,10,11)            0.0            estimate D2E/DX2                !
 ! D21   D(3,7,10,6)             0.0            estimate D2E/DX2                !
 ! D22   D(3,7,10,11)          180.0            estimate D2E/DX2                !
 ! D23   D(9,7,10,6)           180.0            estimate D2E/DX2                !
 ! D24   D(9,7,10,11)            0.0            estimate D2E/DX2                !
 --------------------------------------------------------------------------------
 Trust Radius=3.00D-01 FncErr=1.00D-07 GrdErr=1.00D-06
 Number of steps in this run=     64 maximum allowed number of steps=    100.
 GradGradGradGradGradGradGradGradGradGradGradGradGradGradGradGradGradGrad

 Leave Link  103 at Mon Jul 20 17:06:59 2026, MaxMem=  4026531840 cpu:         0.3
 (Enter /home/p20190052/g09/l202.exe)
                          Input orientation:                          
 ---------------------------------------------------------------------
 Center     Atomic      Atomic             Coordinates (Angstroms)
 Number     Number       Type             X           Y           Z
 ---------------------------------------------------------------------
      1          6           0       -2.192237   -0.286263   -3.893975
      2          6           0       -3.348306   -0.640953   -3.195811
      3          6           0       -1.036169    0.068428   -3.195811
      4          1           0       -4.247731   -0.916903   -3.738984
      5          1           0       -0.136743    0.344378   -3.738984
      6          6           0       -3.348306   -0.640953   -1.799481
      7          6           0       -1.036169    0.068428   -1.799481
      8          1           0       -4.247731   -0.916903   -1.256308
      9          1           0       -0.136743    0.344378   -1.256308
     10          6           0       -2.192237   -0.286263   -1.101317
     11          1           0       -2.192237   -0.286263   -0.014970
     12          1           0       -2.192237   -0.286263   -4.980322
 ---------------------------------------------------------------------
                    Distance matrix (angstroms):
                    1          2          3          4          5
     1  C    0.000000
     2  C    1.396328   0.000000
     3  C    1.396328   2.418512   0.000000
     4  H    2.155640   1.086348   3.402947   0.000000
     5  H    2.155640   3.402947   1.086348   4.300122   0.000000
     6  C    2.418513   1.396330   2.792658   2.155640   3.879005
     7  C    2.418513   2.792658   1.396330   3.879005   2.155640
     8  H    3.402947   2.155640   3.879005   2.482676   4.965353
     9  H    3.402947   3.879005   2.155640   4.965353   2.482676
    10  C    2.792658   2.418513   2.418513   3.402947   3.402947
    11  H    3.879005   3.402947   3.402947   4.300121   4.300121
    12  H    1.086347   2.155639   2.155639   2.482676   2.482676
                    6          7          8          9         10
     6  C    0.000000
     7  C    2.418512   0.000000
     8  H    1.086348   3.402947   0.000000
     9  H    3.402947   1.086348   4.300122   0.000000
    10  C    1.396328   1.396328   2.155640   2.155640   0.000000
    11  H    2.155639   2.155639   2.482676   2.482676   1.086347
    12  H    3.402947   3.402947   4.300121   4.300121   3.879005
                   11         12
    11  H    0.000000
    12  H    4.965352   0.000000
 Stoichiometry    C6H6
 Framework group  C3V[3SGV(C2H2)]
 Deg. of freedom     7
 Full point group                 C3V     NOp   6
 Largest Abelian subgroup         CS      NOp   2
 Largest concise Abelian subgroup CS      NOp   2
                         Standard orientation:                         
 ---------------------------------------------------------------------
 Center     Atomic      Atomic             Coordinates (Angstroms)
 Number     Number       Type             X           Y           Z
 ---------------------------------------------------------------------
      1          6           0       -0.000000    1.396329    0.000000
      2          6           0        1.209256    0.698164    0.000000
      3          6           0       -1.209256    0.698164    0.000000
      4          1           0        2.150061    1.241338    0.000000
      5          1           0       -2.150061    1.241338    0.000000
      6          6           0        1.209256   -0.698165    0.000000
      7          6           0       -1.209256   -0.698164    0.000000
      8          1           0        2.150061   -1.241338    0.000000
      9          1           0       -2.150061   -1.241338    0.000000
     10          6           0       -0.000000   -1.396329    0.000000
     11          1           0       -0.000000   -2.482676    0.000000
     12          1           0        0.000000    2.482676    0.000000
 ---------------------------------------------------------------------
 Rotational constants (GHZ):      5.6895274      5.6895274      2.8447637
 Leave Link  202 at Mon Jul 20 17:06:59 2026, MaxMem=  4026531840 cpu:         0.4
 (Enter /home/p20190052/g09/l301.exe)
 Standard basis: STO-3G (5D, 7F)
 Ernie: Thresh=  0.10000D-02 Tol=  0.10000D-05 Strict=F.
 There are    22 symmetry adapted cartesian basis functions of A'  symmetry.
 There are    14 symmetry adapted cartesian basis functions of A"  symmetry.
 There are    22 symmetry adapted basis functions of A'  symmetry.
 There are    14 symmetry adapted basis functions of A"  symmetry.
    36 basis functions,   108 primitive gaussians,    36 cartesian basis functions
    21 alpha electrons       21 beta electrons
       nuclear repulsion energy       203.2409254978 Hartrees.
 IExCor=  402 DFT=T Ex+Corr=B3LYP ExCW=0 ScaHFX=  0.200000
 ScaDFX=  0.800000  0.720000  1.000000  0.810000 ScalE2=  1.000000  1.000000
 IRadAn=      0 IRanWt=     -1 IRanGd=            0 ICorTp=0 IEmpDi=  4
 NAtoms=   12 NActive=   12 NUniq=    4 SFac= 4.00D+00 NAtFMM=   60 NAOKFM=F Big=F
 Integral buffers will be    131072 words long.
 Raffenetti 2 integral format.
 Two-electron integral symmetry is turned on.
 Leave Link  301 at Mon Jul 20 17:06:59 2026, MaxMem=  4026531840 cpu:         1.4
 (Enter /home/p20190052/g09/l302.exe)
 NPDir=0 NMtPBC=     1 NCelOv=     1 NCel=       1 NClECP=     1 NCelD=      1
         NCelK=      1 NCelE2=     1 NClLst=     1 CellRange=     0.0.
 One-electron integrals computed using PRISM.
 One-electron integral symmetry used in STVInt
 NBasis=    36 RedAO= T EigKep=  1.38D-01  NBF=    22    14
 NBsUse=    36 1.00D-06 EigRej= -1.00D+00 NBFU=    22    14
 Precomputing XC quadrature grid using
 IXCGrd= 4 IRadAn=           0 IRanWt=          -1 IRanGd=           0 AccXCQ= 0.00D+00.
 Generated NRdTot=       0 NPtTot=           0 NUsed=           0 NTot=          32
 NSgBfM=    36    36    36    36    36 MxSgAt=    12 MxSgA2=    12.
 Leave Link  302 at Mon Jul 20 17:07:00 2026, MaxMem=  4026531840 cpu:        10.3
 (Enter /home/p20190052/g09/l303.exe)
 DipDrv:  MaxL=1.
 Leave Link  303 at Mon Jul 20 17:07:00 2026, MaxMem=  4026531840 cpu:         2.3
 (Enter /home/p20190052/g09/l401.exe)
 ExpMin= 1.69D-01 ExpMax= 7.16D+01 ExpMxC= 7.16D+01 IAcc=1 IRadAn=         1 AccDes= 0.00D+00
 Harris functional with IExCor=  402 and IRadAn=       1 diagonalized for initial guess.
 HarFok:  IExCor=  402 AccDes= 0.00D+00 IRadAn=         1 IDoV= 1 UseB2=F ITyADJ=14
 ICtDFT=  3500011 ScaDFX=  1.000000  1.000000  1.000000  1.000000
 FoFCou: FMM=F IPFlag=           0 FMFlag=      100000 FMFlg1=           0
         NFxFlg=           0 DoJE=T BraDBF=F KetDBF=T FulRan=T
         wScrn=  0.000000 ICntrl=     500 IOpCl=  0 I1Cent=   200000004 NGrid=           0
         NMat0=    1 NMatS0=      1 NMatT0=    0 NMatD0=    1 NMtDS0=    0 NMtDT0=    0
 Petite list used in FoFCou.
 Harris En= -229.345533579121    
 JPrj=0 DoOrth=F DoCkMO=F.
 Initial guess orbital symmetries:
       Occupied  (A1) (E) (E) (E) (E) (A1) (A1) (E) (E) (E) (E)
                 (A1) (A2) (A1) (E) (E) (A1) (E) (E) (E) (E)
       Virtual   (E) (E) (A1) (A1) (E) (E) (E) (E) (A1) (E) (E)
                 (E) (E) (A2) (A1)
 The electronic state of the initial guess is 1-A1.
 Leave Link  401 at Mon Jul 20 17:07:00 2026, MaxMem=  4026531840 cpu:        15.4
 (Enter /home/p20190052/g09/l502.exe)
 Closed shell SCF:
 Using DIIS extrapolation, IDIIS=  1040.
 Integral symmetry usage will be decided dynamically.
 Keep R1 ints in memory in symmetry-blocked form, NReq=1108755.
 IVT=       24302 IEndB=       24302 NGot=  4026531840 MDV=  4026394036
 LenX=  4026394036 LenY=  4026392299
 Requested convergence on RMS density matrix=1.00D-08 within 128 cycles.
 Requested convergence on MAX density matrix=1.00D-06.
 Requested convergence on             energy=1.00D-06.
 No special actions if energy rises.
 FoFCou: FMM=F IPFlag=           0 FMFlag=           0 FMFlg1=           0
         NFxFlg=           0 DoJE=F BraDBF=F KetDBF=F FulRan=T
         wScrn=  0.000000 ICntrl=     600 IOpCl=  0 I1Cent=           0 NGrid=           0
         NMat0=    1 NMatS0=    666 NMatT0=    0 NMatD0=    1 NMtDS0=    0 NMtDT0=    0
 Petite list used in FoFCou.
 Integral accuracy reduced to 1.0D-05 until final iterations.

 Cycle   1  Pass 0  IDiag  1:
 E= -229.374788833123    
 DIIS: error= 2.35D-02 at cycle   1 NSaved=   1.
 NSaved= 1 IEnMin= 1 EnMin= -229.374788833123     IErMin= 1 ErrMin= 2.35D-02
 ErrMax= 2.35D-02  0.00D+00 EMaxC= 1.00D-01 BMatC= 2.25D-02 BMatP= 2.25D-02
 IDIUse=3 WtCom= 7.65D-01 WtEn= 2.35D-01
 Coeff-Com:  0.100D+01
 Coeff-En:   0.100D+01
 Coeff:      0.100D+01
 Gap=     0.288 Goal=   None    Shift=    0.000
 GapD=    0.288 DampG=1.000 DampE=0.500 DampFc=0.5000 IDamp=-1.
 Damping current iteration by 5.00D-01
 RMSDP=1.00D-02 MaxDP=8.88D-02              OVMax= 0.00D+00

 Cycle   2  Pass 0  IDiag  1:
 E= -229.392348116886     Delta-E=       -0.017559283764 Rises=F Damp=T
 DIIS: error= 5.51D-03 at cycle   2 NSaved=   2.
 NSaved= 2 IEnMin= 2 EnMin= -229.392348116886     IErMin= 2 ErrMin= 5.51D-03
 ErrMax= 5.51D-03  0.00D+00 EMaxC= 1.00D-01 BMatC= 1.66D-03 BMatP= 2.25D-02
 IDIUse=3 WtCom= 9.45D-01 WtEn= 5.51D-02
 Coeff-Com: -0.309D+00 0.131D+01
 Coeff-En:   0.000D+00 0.100D+01
 Coeff:     -0.292D+00 0.129D+01
 Gap=     0.287 Goal=   None    Shift=    0.000
 RMSDP=1.50D-03 MaxDP=1.11D-02 DE=-1.76D-02 OVMax= 0.00D+00

 Cycle   3  Pass 0  IDiag  1:
 E= -229.406273890306     Delta-E=       -0.013925773420 Rises=F Damp=F
 DIIS: error= 3.36D-04 at cycle   3 NSaved=   3.
 NSaved= 3 IEnMin= 3 EnMin= -229.406273890306     IErMin= 3 ErrMin= 3.36D-04
 ErrMax= 3.36D-04  0.00D+00 EMaxC= 1.00D-01 BMatC= 2.74D-06 BMatP= 1.66D-03
 IDIUse=3 WtCom= 9.97D-01 WtEn= 3.36D-03
 Coeff-Com: -0.176D-01 0.392D-01 0.978D+00
 Coeff-En:   0.000D+00 0.000D+00 0.100D+01
 Coeff:     -0.175D-01 0.391D-01 0.978D+00
 Gap=     0.287 Goal=   None    Shift=    0.000
 RMSDP=7.63D-05 MaxDP=5.82D-04 DE=-1.39D-02 OVMax= 0.00D+00

 Cycle   4  Pass 0  IDiag  1:
 E= -229.406277963405     Delta-E=       -0.000004073099 Rises=F Damp=F
 DIIS: error= 1.88D-05 at cycle   4 NSaved=   4.
 NSaved= 4 IEnMin= 4 EnMin= -229.406277963405     IErMin= 4 ErrMin= 1.88D-05
 ErrMax= 1.88D-05  0.00D+00 EMaxC= 1.00D-01 BMatC= 1.33D-08 BMatP= 2.74D-06
 IDIUse=1 WtCom= 1.00D+00 WtEn= 0.00D+00
 Coeff-Com: -0.923D-03 0.131D-02 0.878D-01 0.912D+00
 Coeff:     -0.923D-03 0.131D-02 0.878D-01 0.912D+00
 Gap=     0.287 Goal=   None    Shift=    0.000
 RMSDP=5.43D-06 MaxDP=2.41D-05 DE=-4.07D-06 OVMax= 0.00D+00

 Initial convergence to 1.0D-05 achieved.  Increase integral accuracy.
 Cycle   5  Pass 1  IDiag  1:
 E= -229.406212134641     Delta-E=        0.000065828764 Rises=F Damp=F
 DIIS: error= 7.20D-06 at cycle   1 NSaved=   1.
 NSaved= 1 IEnMin= 1 EnMin= -229.406212134641     IErMin= 1 ErrMin= 7.20D-06
 ErrMax= 7.20D-06  0.00D+00 EMaxC= 1.00D-01 BMatC= 9.46D-10 BMatP= 9.46D-10
 IDIUse=1 WtCom= 1.00D+00 WtEn= 0.00D+00
 Coeff-Com:  0.100D+01
 Coeff:      0.100D+01
 Gap=     0.287 Goal=   None    Shift=    0.000
 RMSDP=5.43D-06 MaxDP=2.41D-05 DE= 6.58D-05 OVMax= 0.00D+00

 Cycle   6  Pass 1  IDiag  1:
 E= -229.406212136600     Delta-E=       -0.000000001959 Rises=F Damp=F
 DIIS: error= 6.32D-07 at cycle   2 NSaved=   2.
 NSaved= 2 IEnMin= 2 EnMin= -229.406212136600     IErMin= 2 ErrMin= 6.32D-07
 ErrMax= 6.32D-07  0.00D+00 EMaxC= 1.00D-01 BMatC= 2.83D-11 BMatP= 9.46D-10
 IDIUse=1 WtCom= 1.00D+00 WtEn= 0.00D+00
 Coeff-Com:  0.856D-03 0.999D+00
 Coeff:      0.856D-03 0.999D+00
 Gap=     0.287 Goal=   None    Shift=    0.000
 RMSDP=3.77D-07 MaxDP=2.80D-06 DE=-1.96D-09 OVMax= 0.00D+00

 Cycle   7  Pass 1  IDiag  1:
 E= -229.406212136600     Delta-E=        0.000000000000 Rises=F Damp=F
 DIIS: error= 8.10D-07 at cycle   3 NSaved=   3.
 NSaved= 3 IEnMin= 2 EnMin= -229.406212136600     IErMin= 2 ErrMin= 6.32D-07
 ErrMax= 8.10D-07  0.00D+00 EMaxC= 1.00D-01 BMatC= 2.83D-11 BMatP= 2.83D-11
 IDIUse=1 WtCom= 1.00D+00 WtEn= 0.00D+00
 Coeff-Com: -0.185D-01 0.512D+00 0.506D+00
 Coeff:     -0.185D-01 0.512D+00 0.506D+00
 Gap=     0.287 Goal=   None    Shift=    0.000
 RMSDP=2.19D-07 MaxDP=2.44D-06 DE= 5.68D-14 OVMax= 0.00D+00

 Cycle   8  Pass 1  IDiag  1:
 E= -229.406212136635     Delta-E=       -0.000000000034 Rises=F Damp=F
 DIIS: error= 1.54D-07 at cycle   4 NSaved=   4.
 NSaved= 4 IEnMin= 4 EnMin= -229.406212136635     IErMin= 4 ErrMin= 1.54D-07
 ErrMax= 1.54D-07  0.00D+00 EMaxC= 1.00D-01 BMatC= 1.31D-12 BMatP= 2.83D-11
 IDIUse=1 WtCom= 1.00D+00 WtEn= 0.00D+00
 Coeff-Com: -0.103D-01 0.194D+00 0.267D+00 0.549D+00
 Coeff:     -0.103D-01 0.194D+00 0.267D+00 0.549D+00
 Gap=     0.287 Goal=   None    Shift=    0.000
 RMSDP=3.68D-08 MaxDP=3.03D-07 DE=-3.44D-11 OVMax= 0.00D+00

 Cycle   9  Pass 1  IDiag  1:
 E= -229.406212136637     Delta-E=       -0.000000000002 Rises=F Damp=F
 DIIS: error= 2.31D-08 at cycle   5 NSaved=   5.
 NSaved= 5 IEnMin= 5 EnMin= -229.406212136637     IErMin= 5 ErrMin= 2.31D-08
 ErrMax= 2.31D-08  0.00D+00 EMaxC= 1.00D-01 BMatC= 2.43D-14 BMatP= 1.31D-12
 IDIUse=1 WtCom= 1.00D+00 WtEn= 0.00D+00
 Coeff-Com:  0.976D-03-0.237D-01-0.208D-02-0.723D-01 0.110D+01
 Coeff:      0.976D-03-0.237D-01-0.208D-02-0.723D-01 0.110D+01
 Gap=     0.287 Goal=   None    Shift=    0.000
 RMSDP=5.19D-09 MaxDP=4.45D-08 DE=-1.93D-12 OVMax= 0.00D+00

 SCF Done:  E(RB3LYP) =  -229.406212137     A.U. after    9 cycles
            NFock=  9  Conv=0.52D-08     -V/T= 2.0166
 KE= 2.256569045396D+02 PE=-9.372772750351D+02 EE= 2.789732328611D+02
 Leave Link  502 at Mon Jul 20 17:07:00 2026, MaxMem=  4026531840 cpu:         7.4
 (Enter /home/p20190052/g09/l601.exe)
 Copying SCF densities to generalized density rwf, IOpCl= 0 IROHF=0.

 **********************************************************************

            Population analysis using the SCF density.

 **********************************************************************

 Orbital symmetries:
       Occupied  (A1) (E) (E) (E) (E) (A1) (A1) (E) (E) (E) (E)
                 (A1) (A1) (A2) (E) (E) (A1) (E) (E) (E) (E)
       Virtual   (E) (E) (A1) (A1) (E) (E) (A1) (E) (E) (E) (E)
                 (E) (E) (A2) (A1)
 The electronic state is 1-A1.
 Alpha  occ. eigenvalues --  -10.00630 -10.00595 -10.00595 -10.00534 -10.00534
 Alpha  occ. eigenvalues --  -10.00488  -0.80732  -0.70179  -0.70179  -0.56099
 Alpha  occ. eigenvalues --   -0.56099  -0.48524  -0.42569  -0.39585  -0.37976
 Alpha  occ. eigenvalues --   -0.37976  -0.31581  -0.29913  -0.29913  -0.19583
 Alpha  occ. eigenvalues --   -0.19583
 Alpha virt. eigenvalues --    0.09117   0.09117   0.25665   0.34751   0.40204
 Alpha virt. eigenvalues --    0.40204   0.46407   0.47326   0.47326   0.59495
 Alpha virt. eigenvalues --    0.59495   0.60521   0.60521   0.75995   0.81869
          Condensed to atoms (all electrons):
               1          2          3          4          5          6
     1  C    4.798332   0.505256   0.505256  -0.025619  -0.025619  -0.029676
     2  C    0.505256   4.798331  -0.029676   0.391988   0.001474   0.505256
     3  C    0.505256  -0.029676   4.798331   0.001474   0.391988  -0.012316
     4  H   -0.025619   0.391988   0.001474   0.583020  -0.000035  -0.025619
     5  H   -0.025619   0.001474   0.391988  -0.000035   0.583020   0.000038
     6  C   -0.029676   0.505256  -0.012316  -0.025619   0.000038   4.798332
     7  C   -0.029676  -0.012316   0.505256   0.000038  -0.025619  -0.029676
     8  H    0.001474  -0.025619   0.000038  -0.003800   0.000002   0.391988
     9  H    0.001474   0.000038  -0.025619   0.000002  -0.003800   0.001474
    10  C   -0.012316  -0.029676  -0.029676   0.001474   0.001474   0.505256
    11  H    0.000038   0.001474   0.001474  -0.000035  -0.000035  -0.025619
    12  H    0.391988  -0.025619  -0.025619  -0.003800  -0.003800   0.001474
               7          8          9         10         11         12
     1  C   -0.029676   0.001474   0.001474  -0.012316   0.000038   0.391988
     2  C   -0.012316  -0.025619   0.000038  -0.029676   0.001474  -0.025619
     3  C    0.505256   0.000038  -0.025619  -0.029676   0.001474  -0.025619
     4  H    0.000038  -0.003800   0.000002   0.001474  -0.000035  -0.003800
     5  H   -0.025619   0.000002  -0.003800   0.001474  -0.000035  -0.003800
     6  C   -0.029676   0.391988   0.001474   0.505256  -0.025619   0.001474
     7  C    4.798332   0.001474   0.391988   0.505256  -0.025619   0.001474
     8  H    0.001474   0.583021  -0.000035  -0.025619  -0.003800  -0.000035
     9  H    0.391988  -0.000035   0.583021  -0.025619  -0.003800  -0.000035
    10  C    0.505256  -0.025619  -0.025619   4.798331   0.391988   0.000038
    11  H   -0.025619  -0.003800  -0.003800   0.391988   0.583020   0.000002
    12  H    0.001474  -0.000035  -0.000035   0.000038   0.000002   0.583021
 Mulliken charges:
               1
     1  C   -0.080911
     2  C   -0.080910
     3  C   -0.080910
     4  H    0.080911
     5  H    0.080911
     6  C   -0.080911
     7  C   -0.080911
     8  H    0.080911
     9  H    0.080911
    10  C   -0.080910
    11  H    0.080911
    12  H    0.080911
 Sum of Mulliken charges =   0.00000
 Mulliken charges with hydrogens summed into heavy atoms:
               1
     1  C   -0.000001
     2  C    0.000001
     3  C    0.000001
     6  C   -0.000001
     7  C   -0.000001
    10  C    0.000001
 Electronic spatial extent (au):  <R**2>=            454.0267
 Charge=              0.0000 electrons
 Dipole moment (field-independent basis, Debye):
    X=              0.0000    Y=             -0.0000    Z=             -0.0000  Tot=              0.0000
 Quadrupole moment (field-independent basis, Debye-Ang):
   XX=            -30.3953   YY=            -30.3953   ZZ=            -35.1192
   XY=              0.0000   XZ=             -0.0000   YZ=             -0.0000
 Traceless Quadrupole moment (field-independent basis, Debye-Ang):
   XX=              1.5746   YY=              1.5746   ZZ=             -3.1492
   XY=              0.0000   XZ=             -0.0000   YZ=             -0.0000
 Octapole moment (field-independent basis, Debye-Ang**2):
  XXX=              0.0000  YYY=             -0.0000  ZZZ=             -0.0000  XYY=              0.0000
  XXY=              0.0000  XXZ=              0.0000  XZZ=              0.0000  YZZ=              0.0000
  YYZ=              0.0000  XYZ=              0.0000
 Hexadecapole moment (field-independent basis, Debye-Ang**3):
 XXXX=           -254.3683 YYYY=           -254.3683 ZZZZ=            -28.5170 XXXY=              0.0000
 XXXZ=             -0.0000 YYYX=              0.0000 YYYZ=              0.0000 ZZZX=             -0.0000
 ZZZY=             -0.0000 XXYY=            -84.7894 XXZZ=            -53.7182 YYZZ=            -53.7182
 XXYZ=             -0.0000 YYXZ=             -0.0000 ZZXY=             -0.0000
 N-N= 2.032409254978D+02 E-N=-9.372772756150D+02  KE= 2.256569045396D+02
 Symmetry A'   KE= 1.473139913086D+02
 Symmetry A"   KE= 7.834291323094D+01
 No NMR shielding tensors so no spin-rotation constants.
 Leave Link  601 at Mon Jul 20 17:07:01 2026, MaxMem=  4026531840 cpu:        20.0
 (Enter /home/p20190052/g09/l701.exe)
 Compute integral first derivatives.
 ... and contract with generalized density number  0.
 Leave Link  701 at Mon Jul 20 17:07:01 2026, MaxMem=  4026531840 cpu:        11.0
 (Enter /home/p20190052/g09/l702.exe)
 L702 exits ... SP integral derivatives will be done elsewhere.
 Leave Link  702 at Mon Jul 20 17:07:01 2026, MaxMem=  4026531840 cpu:         0.7
 (Enter /home/p20190052/g09/l703.exe)
 Compute integral first derivatives, UseDBF=F ICtDFT=           0.
 Integral derivatives from FoFJK, PRISM(SPDF).
 Calling FoFJK, ICntrl=      2127 FMM=F ISym2X=1 I1Cent= 0 IOpClX= 0 NMat=1 NMatS=1 NMatT=0.
 FoFJK:  IHMeth= 1 ICntrl=    2127 DoSepK=F KAlg= 0 I1Cent=   0 FoldK=F
 IRaf=         0 NMat=   1 IRICut=       1 DoRegI=T DoRafI=F ISym2E= 1.
 FoFCou: FMM=F IPFlag=           0 FMFlag=      100000 FMFlg1=         800
         NFxFlg=           0 DoJE=F BraDBF=F KetDBF=F FulRan=T
         wScrn=  0.000000 ICntrl=    2127 IOpCl=  0 I1Cent=           0 NGrid=           0
         NMat0=    1 NMatS0=      1 NMatT0=    0 NMatD0=    1 NMtDS0=    0 NMtDT0=    0
 Petite list used in FoFCou.
 Leave Link  703 at Mon Jul 20 17:07:01 2026, MaxMem=  4026531840 cpu:         5.9
 (Enter /home/p20190052/g09/l716.exe)
 Dipole        = 3.92915284D-15-3.55271368D-15-7.82811053D-17
 ***** Axes restored to original set *****
 -------------------------------------------------------------------
 Center     Atomic                   Forces (Hartrees/Bohr)
 Number     Number              X              Y              Z
 -------------------------------------------------------------------
      1        6          -0.000000000   -0.000000000   -0.004376998
      2        6          -0.003630384   -0.001113828   -0.002192434
      3        6           0.003630384    0.001113828   -0.002192434
      4        1          -0.008043532   -0.002467815   -0.004857589
      5        1           0.008043532    0.002467815   -0.004857589
      6        6          -0.003623868   -0.001111829    0.002188499
      7        6           0.003623868    0.001111829    0.002188499
      8        1          -0.008044970   -0.002468256    0.004858458
      9        1           0.008044970    0.002468256    0.004858458
     10        6           0.000000000    0.000000000    0.004384868
     11        1           0.000000000    0.000000000    0.009715178
     12        1          -0.000000000   -0.000000000   -0.009716916
 -------------------------------------------------------------------
 Cartesian Forces:  Max     0.009716916 RMS     0.004351133
 Leave Link  716 at Mon Jul 20 17:07:02 2026, MaxMem=  4026531840 cpu:         0.9
 (Enter /home/p20190052/g09/l103.exe)

 GradGradGradGradGradGradGradGradGradGradGradGradGradGradGradGradGradGrad
 Berny optimization.
 FormGI is forming the generalized inverse of G from B-inverse, IUseBI=4.
 Internal  Forces:  Max     0.014096980 RMS     0.005706978
 Search for a local minimum.
 Step number   1 out of a maximum of   64
 All quantities printed in internal units (Hartrees-Bohrs-Radians)
 RMS Force = .57070D-02 SwitMx=.10000D-02 MixMth= 1
 Mixed Optimization -- RFO/linear search
 Second derivative matrix not updated -- first step.
 ITU=  0
     Eigenvalues ---    0.02137   0.02137   0.02137   0.02137   0.02137
     Eigenvalues ---    0.02137   0.02137   0.02137   0.02137   0.16000
     Eigenvalues ---    0.16000   0.16000   0.16000   0.16000   0.16000
     Eigenvalues ---    0.22000   0.22000   0.22000   0.35238   0.35238
     Eigenvalues ---    0.35238   0.35238   0.35238   0.35238   0.41939
     Eigenvalues ---    0.41939   0.46234   0.46234   0.46234   0.46234
 RFO step:  Lambda=-4.14470277D-03 EMin= 2.13731658D-02
 Linear search not attempted -- first point.
 Iteration  1 RMS(Cart)=  0.02164400 RMS(Int)=  0.00000003
 Iteration  2 RMS(Cart)=  0.00000003 RMS(Int)=  0.00000001
 ITry= 1 IFail=0 DXMaxC= 5.75D-02 DCOld= 1.00D+10 DXMaxT= 3.00D-01 DXLimC= 3.00D+00 Rises=F
 ClnCor:  largest displacement from symmetrization is 1.07D-08 for atom     6.
 Variable       Old X    -DE/DX   Delta X   Delta X   Delta X     New X
                                 (Linear)    (Quad)   (Total)
    R1        2.63868   0.01410   0.00000   0.03022   0.03022   2.66890
    R2        2.63868   0.01410   0.00000   0.03022   0.03022   2.66890
    R3        2.05290   0.00972   0.00000   0.02725   0.02725   2.08015
    R4        2.05290   0.00972   0.00000   0.02725   0.02725   2.08015
    R5        2.63868   0.01410   0.00000   0.03022   0.03022   2.66890
    R6        2.05290   0.00972   0.00000   0.02725   0.02725   2.08015
    R7        2.63868   0.01410   0.00000   0.03022   0.03022   2.66890
    R8        2.05290   0.00972   0.00000   0.02725   0.02725   2.08015
    R9        2.63868   0.01410   0.00000   0.03022   0.03022   2.66890
   R10        2.05290   0.00972   0.00000   0.02725   0.02725   2.08015
   R11        2.63868   0.01410   0.00000   0.03022   0.03022   2.66890
   R12        2.05290   0.00972   0.00000   0.02725   0.02725   2.08015
    A1        2.09439   0.00000   0.00000   0.00001   0.00001   2.09440
    A2        2.09440  -0.00000   0.00000  -0.00000  -0.00000   2.09439
    A3        2.09440  -0.00000   0.00000  -0.00000  -0.00000   2.09439
    A4        2.09440   0.00000   0.00000   0.00000   0.00000   2.09440
    A5        2.09440  -0.00000   0.00000  -0.00001  -0.00001   2.09439
    A6        2.09440   0.00000   0.00000   0.00000   0.00000   2.09440
    A7        2.09440   0.00000   0.00000   0.00000   0.00000   2.09440
    A8        2.09440  -0.00000   0.00000  -0.00001  -0.00001   2.09439
    A9        2.09440   0.00000   0.00000   0.00000   0.00000   2.09440
   A10        2.09440  -0.00000   0.00000  -0.00000  -0.00000   2.09439
   A11        2.09439   0.00000   0.00000   0.00001   0.00001   2.09440
   A12        2.09440  -0.00000   0.00000  -0.00000  -0.00000   2.09439
   A13        2.09440  -0.00000   0.00000  -0.00000  -0.00000   2.09439
   A14        2.09439   0.00000   0.00000   0.00001   0.00001   2.09440
   A15        2.09440  -0.00000   0.00000  -0.00000  -0.00000   2.09439
   A16        2.09440  -0.00000   0.00000  -0.00001  -0.00001   2.09439
   A17        2.09440   0.00000   0.00000   0.00000   0.00000   2.09440
   A18        2.09440   0.00000   0.00000   0.00000   0.00000   2.09440
    D1        3.14159   0.00000   0.00000   0.00000   0.00000   3.14159
    D2        0.00000   0.00000   0.00000   0.00000  -0.00000   0.00000
    D3        0.00000  -0.00000   0.00000  -0.00000  -0.00000   0.00000
    D4        3.14159   0.00000   0.00000   0.00000   0.00000   3.14159
    D5        3.14159  -0.00000   0.00000  -0.00000   0.00000   3.14159
    D6       -0.00000  -0.00000   0.00000  -0.00000   0.00000   0.00000
    D7        0.00000   0.00000   0.00000   0.00000  -0.00000   0.00000
    D8        3.14159   0.00000   0.00000   0.00000   0.00000   3.14159
    D9        3.14159  -0.00000   0.00000  -0.00000   0.00000   3.14159
   D10       -0.00000  -0.00000   0.00000  -0.00000   0.00000   0.00000
   D11        0.00000   0.00000   0.00000   0.00000  -0.00000  -0.00000
   D12        3.14159  -0.00000   0.00000  -0.00000   0.00000   3.14159
   D13        3.14159   0.00000   0.00000   0.00000   0.00000   3.14159
   D14        0.00000   0.00000   0.00000   0.00000  -0.00000   0.00000
   D15       -0.00000   0.00000   0.00000   0.00000   0.00000   0.00000
   D16        3.14159   0.00000   0.00000   0.00000  -0.00000   3.14159
   D17        0.00000   0.00000   0.00000   0.00000  -0.00000   0.00000
   D18        3.14159   0.00000   0.00000   0.00000   0.00000   3.14159
   D19        3.14159  -0.00000   0.00000  -0.00000   0.00000   3.14159
   D20       -0.00000  -0.00000   0.00000  -0.00000   0.00000   0.00000
   D21       -0.00000  -0.00000   0.00000  -0.00000   0.00000   0.00000
   D22        3.14159   0.00000   0.00000   0.00000   0.00000   3.14159
   D23        3.14159  -0.00000   0.00000  -0.00000   0.00000   3.14159
   D24        0.00000   0.00000   0.00000   0.00000  -0.00000   0.00000
         Item               Value     Threshold  Converged?
 Maximum Force            0.014097     0.000450     NO 
 RMS     Force            0.005707     0.000300     NO 
 Maximum Displacement     0.057474     0.001800     NO 
 RMS     Displacement     0.021644     0.001200     NO 
 Predicted change in Energy=-2.092939D-03
 Lowest energy point so far.  Saving SCF results.
 GradGradGradGradGradGradGradGradGradGradGradGradGradGradGradGradGradGrad

 Leave Link  103 at Mon Jul 20 17:07:02 2026, MaxMem=  4026531840 cpu:         0.9
 (Enter /home/p20190052/g09/l202.exe)
                          Input orientation:                          
 ---------------------------------------------------------------------
 Center     Atomic      Atomic             Coordinates (Angstroms)
 Number     Number       Type             X           Y           Z
 ---------------------------------------------------------------------
      1          6           0       -2.192237   -0.286263   -3.909964
      2          6           0       -3.361548   -0.645016   -3.203808
      3          6           0       -1.022926    0.072491   -3.203808
      4          1           0       -4.272912   -0.924629   -3.754192
      5          1           0       -0.111563    0.352103   -3.754192
      6          6           0       -3.361544   -0.645015   -1.791488
      7          6           0       -1.022931    0.072489   -1.791488
      8          1           0       -4.272909   -0.924628   -1.241103
      9          1           0       -0.111565    0.352103   -1.241103
     10          6           0       -2.192237   -0.286263   -1.085323
     11          1           0       -2.192237   -0.286263    0.015444
     12          1           0       -2.192237   -0.286263   -5.010734
 ---------------------------------------------------------------------
                    Distance matrix (angstroms):
                    1          2          3          4          5
     1  C    0.000000
     2  C    1.412320   0.000000
     3  C    1.412320   2.446215   0.000000
     4  H    2.181968   1.100767   3.443774   0.000000
     5  H    2.181968   3.443774   1.100767   4.352800   0.000000
     6  C    2.446206   1.412320   2.824641   2.181968   3.925408
     7  C    2.446206   2.824641   1.412320   3.925408   2.181968
     8  H    3.443766   2.181966   3.925411   2.513089   5.026178
     9  H    3.443766   3.925411   2.181966   5.026178   2.513089
    10  C    2.824641   2.446215   2.446215   3.443774   3.443774
    11  H    3.925408   3.443774   3.443774   4.352800   4.352800
    12  H    1.100770   2.181966   2.181966   2.513089   2.513089
                    6          7          8          9         10
     6  C    0.000000
     7  C    2.446206   0.000000
     8  H    1.100770   3.443766   0.000000
     9  H    3.443766   1.100770   4.352795   0.000000
    10  C    1.412320   1.412320   2.181966   2.181966   0.000000
    11  H    2.181968   2.181968   2.513089   2.513089   1.100767
    12  H    3.443766   3.443766   4.352795   4.352795   3.925411
                   11         12
    11  H    0.000000
    12  H    5.026178   0.000000
 Stoichiometry    C6H6
 Framework group  D3H[3C2(HC.CH)]
 Deg. of freedom     4
 Full point group                 D3H     NOp  12
 Omega: Change in point group or standard orientation.

 Old FWG=C03V [3SGV(C2H2)]
 New FWG=D03H [3C2(H1C1.C1H1)]
 RotChk:  IX=0 Diff= 1.38D-15
 Largest Abelian subgroup         C2V     NOp   4
 Largest concise Abelian subgroup C2      NOp   2
                         Standard orientation:                         
 ---------------------------------------------------------------------
 Center     Atomic      Atomic             Coordinates (Angstroms)
 Number     Number       Type             X           Y           Z
 ---------------------------------------------------------------------
      1          6           0        0.000000    1.412318   -0.000000
      2          6           0        1.223108    0.706162   -0.000000
      3          6           0       -1.223108    0.706162    0.000000
      4          1           0        2.176400    1.256545   -0.000000
      5          1           0       -2.176400    1.256545    0.000000
      6          6           0        1.223103   -0.706159   -0.000000
      7          6           0       -1.223103   -0.706159   -0.000000
      8          1           0        2.176398   -1.256544   -0.000000
      9          1           0       -2.176398   -1.256544    0.000000
     10          6           0       -0.000000   -1.412323   -0.000000
     11          1           0       -0.000000   -2.513091   -0.000000
     12          1           0        0.000000    2.513087   -0.000000
 ---------------------------------------------------------------------
 Rotational constants (GHZ):      5.5595743      5.5595743      2.7797872
 Leave Link  202 at Mon Jul 20 17:07:02 2026, MaxMem=  4026531840 cpu:         1.4
 (Enter /home/p20190052/g09/l301.exe)
 Standard basis: STO-3G (5D, 7F)
 Ernie: Thresh=  0.10000D-02 Tol=  0.10000D-05 Strict=F.
 There are    18 symmetry adapted cartesian basis functions of A1  symmetry.
 There are     2 symmetry adapted cartesian basis functions of A2  symmetry.
 There are    12 symmetry adapted cartesian basis functions of B1  symmetry.
 There are     4 symmetry adapted cartesian basis functions of B2  symmetry.
 There are    18 symmetry adapted basis functions of A1  symmetry.
 There are     2 symmetry adapted basis functions of A2  symmetry.
 There are    12 symmetry adapted basis functions of B1  symmetry.
 There are     4 symmetry adapted basis functions of B2  symmetry.
    36 basis functions,   108 primitive gaussians,    36 cartesian basis functions
    21 alpha electrons       21 beta electrons
       nuclear repulsion energy       200.8851447462 Hartrees.
 IExCor=  402 DFT=T Ex+Corr=B3LYP ExCW=0 ScaHFX=  0.200000
 ScaDFX=  0.800000  0.720000  1.000000  0.810000 ScalE2=  1.000000  1.000000
 IRadAn=      0 IRanWt=     -1 IRanGd=            0 ICorTp=0 IEmpDi=  4
 NAtoms=   12 NActive=   12 NUniq=    4 SFac= 4.00D+00 NAtFMM=   60 NAOKFM=F Big=F
 Integral buffers will be    131072 words long.
 Raffenetti 2 integral format.
 Two-electron integral symmetry is turned on.
 Leave Link  301 at Mon Jul 20 17:07:02 2026, MaxMem=  4026531840 cpu:         1.8
 (Enter /home/p20190052/g09/l302.exe)
 NPDir=0 NMtPBC=     1 NCelOv=     1 NCel=       1 NClECP=     1 NCelD=      1
         NCelK=      1 NCelE2=     1 NClLst=     1 CellRange=     0.0.
 One-electron integrals computed using PRISM.
 One-electron integral symmetry used in STVInt
 NBasis=    36 RedAO= T EigKep=  2.05D-01  NBF=    18     2    12     4
 NBsUse=    36 1.00D-06 EigRej= -1.00D+00 NBFU=    18     2    12     4
 Precomputing XC quadrature grid using
 IXCGrd= 4 IRadAn=           0 IRanWt=          -1 IRanGd=           0 AccXCQ= 0.00D+00.
 Generated NRdTot=       0 NPtTot=           0 NUsed=           0 NTot=          32
 NSgBfM=    36    36    36    36    36 MxSgAt=    12 MxSgA2=    12.
 Leave Link  302 at Mon Jul 20 17:07:02 2026, MaxMem=  4026531840 cpu:        10.7
 (Enter /home/p20190052/g09/l303.exe)
 DipDrv:  MaxL=1.
 Leave Link  303 at Mon Jul 20 17:07:02 2026, MaxMem=  4026531840 cpu:         4.7
 (Enter /home/p20190052/g09/l401.exe)
 Initial guess from the checkpoint file:  "Benzene_b3lyp_sto-3g.chk"
 B after Tr=    -0.000000   -0.000000   -0.000000
         Rot=    1.000000   -0.000000   -0.000000    0.000000 Ang=   0.00 deg.
 Guess basis will be translated and rotated to current coordinates.
 JPrj=2 DoOrth=T DoCkMO=T.
 Initial guess orbital symmetries:
       Occupied  (A1') (E') (E') (E') (E') (A1') (A1') (E') (E')
                 (E') (E') (A1') (A1') (A2') (E') (E') (A2") (E')
                 (E') (E") (E")
       Virtual   (?A) (?B) (?A) (?B) (?B) (?A) (?B) (E") (?B) (?A)
                 (?A) (?B) (?A) (E") (A2")
 The electronic state of the initial guess is 1-A1'.
 Generating alternative initial guess.
 ExpMin= 1.69D-01 ExpMax= 7.16D+01 ExpMxC= 7.16D+01 IAcc=1 IRadAn=         1 AccDes= 0.00D+00
 Harris functional with IExCor=  402 and IRadAn=       1 diagonalized for initial guess.
 HarFok:  IExCor=  402 AccDes= 0.00D+00 IRadAn=         1 IDoV= 1 UseB2=F ITyADJ=14
 ICtDFT=  3500011 ScaDFX=  1.000000  1.000000  1.000000  1.000000
 FoFCou: FMM=F IPFlag=           0 FMFlag=      100000 FMFlg1=           0
         NFxFlg=           0 DoJE=T BraDBF=F KetDBF=T FulRan=T
         wScrn=  0.000000 ICntrl=     500 IOpCl=  0 I1Cent=   200000004 NGrid=           0
         NMat0=    1 NMatS0=      1 NMatT0=    0 NMatD0=    1 NMtDS0=    0 NMtDT0=    0
 Petite list used in FoFCou.
 Harris En= -229.346220233360    
 Leave Link  401 at Mon Jul 20 17:07:03 2026, MaxMem=  4026531840 cpu:        19.6
 (Enter /home/p20190052/g09/l502.exe)
 Closed shell SCF:
 Using DIIS extrapolation, IDIIS=  1040.
 Integral symmetry usage will be decided dynamically.
 Keep R1 ints in memory in symmetry-blocked form, NReq=1109423.
 IVT=       24418 IEndB=       24418 NGot=  4026531840 MDV=  4026437336
 LenX=  4026437336 LenY=  4026435599
 Requested convergence on RMS density matrix=1.00D-08 within 128 cycles.
 Requested convergence on MAX density matrix=1.00D-06.
 Requested convergence on             energy=1.00D-06.
 No special actions if energy rises.
 FoFCou: FMM=F IPFlag=           0 FMFlag=           0 FMFlg1=           0
         NFxFlg=           0 DoJE=F BraDBF=F KetDBF=F FulRan=T
         wScrn=  0.000000 ICntrl=     600 IOpCl=  0 I1Cent=           0 NGrid=           0
         NMat0=    1 NMatS0=    666 NMatT0=    0 NMatD0=    1 NMtDS0=    0 NMtDT0=    0
 Petite list used in FoFCou.
 Integral accuracy reduced to 1.0D-05 until final iterations.

 Cycle   1  Pass 0  IDiag  1:
 E= -229.407660436369    
 DIIS: error= 2.71D-03 at cycle   1 NSaved=   1.
 NSaved= 1 IEnMin= 1 EnMin= -229.407660436369     IErMin= 1 ErrMin= 2.71D-03
 ErrMax= 2.71D-03  0.00D+00 EMaxC= 1.00D-01 BMatC= 1.87D-04 BMatP= 1.87D-04
 IDIUse=3 WtCom= 9.73D-01 WtEn= 2.71D-02
 Coeff-Com:  0.100D+01
 Coeff-En:   0.100D+01
 Coeff:      0.100D+01
 Gap=     0.280 Goal=   None    Shift=    0.000
 GapD=    0.280 DampG=1.000 DampE=1.000 DampFc=1.0000 IDamp=-1.
 RMSDP=6.76D-04 MaxDP=5.14D-03              OVMax= 0.00D+00

 Cycle   2  Pass 0  IDiag  1:
 E= -229.407866754999     Delta-E=       -0.000206318630 Rises=F Damp=F
 DIIS: error= 3.78D-04 at cycle   2 NSaved=   2.
 NSaved= 2 IEnMin= 2 EnMin= -229.407866754999     IErMin= 2 ErrMin= 3.78D-04
 ErrMax= 3.78D-04  0.00D+00 EMaxC= 1.00D-01 BMatC= 6.42D-06 BMatP= 1.87D-04
 IDIUse=3 WtCom= 9.96D-01 WtEn= 3.78D-03
 Coeff-Com:  0.443D-01 0.956D+00
 Coeff-En:   0.000D+00 0.100D+01
 Coeff:      0.442D-01 0.956D+00
 Gap=     0.280 Goal=   None    Shift=    0.000
 RMSDP=1.74D-04 MaxDP=1.43D-03 DE=-2.06D-04 OVMax= 0.00D+00

 Cycle   3  Pass 0  IDiag  1:
 E= -229.407873933532     Delta-E=       -0.000007178533 Rises=F Damp=F
 DIIS: error= 2.07D-04 at cycle   3 NSaved=   3.
 NSaved= 3 IEnMin= 3 EnMin= -229.407873933532     IErMin= 3 ErrMin= 2.07D-04
 ErrMax= 2.07D-04  0.00D+00 EMaxC= 1.00D-01 BMatC= 1.61D-06 BMatP= 6.42D-06
 IDIUse=3 WtCom= 9.98D-01 WtEn= 2.07D-03
 Coeff-Com: -0.119D-01 0.328D+00 0.684D+00
 Coeff-En:   0.000D+00 0.224D-01 0.978D+00
 Coeff:     -0.119D-01 0.328D+00 0.684D+00
 Gap=     0.280 Goal=   None    Shift=    0.000
 RMSDP=5.66D-05 MaxDP=5.03D-04 DE=-7.18D-06 OVMax= 0.00D+00

 Cycle   4  Pass 0  IDiag  1:
 E= -229.407876337810     Delta-E=       -0.000002404279 Rises=F Damp=F
 DIIS: error= 3.35D-06 at cycle   4 NSaved=   4.
 NSaved= 4 IEnMin= 4 EnMin= -229.407876337810     IErMin= 4 ErrMin= 3.35D-06
 ErrMax= 3.35D-06  0.00D+00 EMaxC= 1.00D-01 BMatC= 3.40D-10 BMatP= 1.61D-06
 IDIUse=1 WtCom= 1.00D+00 WtEn= 0.00D+00
 Coeff-Com:  0.811D-05-0.148D-01-0.165D-01 0.103D+01
 Coeff:      0.811D-05-0.148D-01-0.165D-01 0.103D+01
 Gap=     0.280 Goal=   None    Shift=    0.000
 RMSDP=1.08D-06 MaxDP=9.89D-06 DE=-2.40D-06 OVMax= 0.00D+00

 Initial convergence to 1.0D-05 achieved.  Increase integral accuracy.
 Cycle   5  Pass 1  IDiag  1:
 E= -229.407806211612     Delta-E=        0.000070126199 Rises=F Damp=F
 DIIS: error= 6.55D-06 at cycle   1 NSaved=   1.
 NSaved= 1 IEnMin= 1 EnMin= -229.407806211612     IErMin= 1 ErrMin= 6.55D-06
 ErrMax= 6.55D-06  0.00D+00 EMaxC= 1.00D-01 BMatC= 7.77D-10 BMatP= 7.77D-10
 IDIUse=1 WtCom= 1.00D+00 WtEn= 0.00D+00
 Coeff-Com:  0.100D+01
 Coeff:      0.100D+01
 Gap=     0.280 Goal=   None    Shift=    0.000
 RMSDP=1.08D-06 MaxDP=9.89D-06 DE= 7.01D-05 OVMax= 0.00D+00

 Cycle   6  Pass 1  IDiag  1:
 E= -229.407806213207     Delta-E=       -0.000000001596 Rises=F Damp=F
 DIIS: error= 7.40D-07 at cycle   2 NSaved=   2.
 NSaved= 2 IEnMin= 2 EnMin= -229.407806213207     IErMin= 2 ErrMin= 7.40D-07
 ErrMax= 7.40D-07  0.00D+00 EMaxC= 1.00D-01 BMatC= 1.74D-11 BMatP= 7.77D-10
 IDIUse=1 WtCom= 1.00D+00 WtEn= 0.00D+00
 Coeff-Com:  0.176D-01 0.982D+00
 Coeff:      0.176D-01 0.982D+00
 Gap=     0.280 Goal=   None    Shift=    0.000
 RMSDP=3.10D-07 MaxDP=2.50D-06 DE=-1.60D-09 OVMax= 0.00D+00

 Cycle   7  Pass 1  IDiag  1:
 E= -229.407806213227     Delta-E=       -0.000000000020 Rises=F Damp=F
 DIIS: error= 3.48D-07 at cycle   3 NSaved=   3.
 NSaved= 3 IEnMin= 3 EnMin= -229.407806213227     IErMin= 3 ErrMin= 3.48D-07
 ErrMax= 3.48D-07  0.00D+00 EMaxC= 1.00D-01 BMatC= 7.86D-12 BMatP= 1.74D-11
 IDIUse=1 WtCom= 1.00D+00 WtEn= 0.00D+00
 Coeff-Com: -0.208D-01 0.389D+00 0.631D+00
 Coeff:     -0.208D-01 0.389D+00 0.631D+00
 Gap=     0.280 Goal=   None    Shift=    0.000
 RMSDP=1.24D-07 MaxDP=9.79D-07 DE=-2.01D-11 OVMax= 0.00D+00

 Cycle   8  Pass 1  IDiag  1:
 E= -229.407806213236     Delta-E=       -0.000000000009 Rises=F Damp=F
 DIIS: error= 1.42D-07 at cycle   4 NSaved=   4.
 NSaved= 4 IEnMin= 4 EnMin= -229.407806213236     IErMin= 4 ErrMin= 1.42D-07
 ErrMax= 1.42D-07  0.00D+00 EMaxC= 1.00D-01 BMatC= 7.22D-13 BMatP= 7.86D-12
 IDIUse=1 WtCom= 1.00D+00 WtEn= 0.00D+00
 Coeff-Com: -0.942D-02 0.174D+00 0.315D+00 0.521D+00
 Coeff:     -0.942D-02 0.174D+00 0.315D+00 0.521D+00
 Gap=     0.280 Goal=   None    Shift=    0.000
 RMSDP=3.80D-08 MaxDP=4.41D-07 DE=-9.09D-12 OVMax= 0.00D+00

 Cycle   9  Pass 1  IDiag  1:
 E= -229.407806213238     Delta-E=       -0.000000000001 Rises=F Damp=F
 DIIS: error= 3.19D-08 at cycle   5 NSaved=   5.
 NSaved= 5 IEnMin= 5 EnMin= -229.407806213238     IErMin= 5 ErrMin= 3.19D-08
 ErrMax= 3.19D-08  0.00D+00 EMaxC= 1.00D-01 BMatC= 5.00D-14 BMatP= 7.22D-13
 IDIUse=1 WtCom= 1.00D+00 WtEn= 0.00D+00
 Coeff-Com:  0.144D-02-0.303D-01-0.596D-01 0.153D+00 0.935D+00
 Coeff:      0.144D-02-0.303D-01-0.596D-01 0.153D+00 0.935D+00
 Gap=     0.280 Goal=   None    Shift=    0.000
 RMSDP=7.00D-09 MaxDP=5.71D-08 DE=-1.31D-12 OVMax= 0.00D+00

 SCF Done:  E(RB3LYP) =  -229.407806213     A.U. after    9 cycles
            NFock=  9  Conv=0.70D-08     -V/T= 2.0175
 KE= 2.254552112086D+02 PE=-9.325644411775D+02 EE= 2.768162790095D+02
 Leave Link  502 at Mon Jul 20 17:07:03 2026, MaxMem=  4026531840 cpu:         7.3
 (Enter /home/p20190052/g09/l701.exe)
 Compute integral first derivatives.
 ... and contract with generalized density number  0.
 Leave Link  701 at Mon Jul 20 17:07:04 2026, MaxMem=  4026531840 cpu:        16.1
 (Enter /home/p20190052/g09/l702.exe)
 L702 exits ... SP integral derivatives will be done elsewhere.
 Leave Link  702 at Mon Jul 20 17:07:04 2026, MaxMem=  4026531840 cpu:         0.7
 (Enter /home/p20190052/g09/l703.exe)
 Compute integral first derivatives, UseDBF=F ICtDFT=           0.
 Integral derivatives from FoFJK, PRISM(SPDF).
 Calling FoFJK, ICntrl=      2127 FMM=F ISym2X=1 I1Cent= 0 IOpClX= 0 NMat=1 NMatS=1 NMatT=0.
 FoFJK:  IHMeth= 1 ICntrl=    2127 DoSepK=F KAlg= 0 I1Cent=   0 FoldK=F
 IRaf=         0 NMat=   1 IRICut=       1 DoRegI=T DoRafI=F ISym2E= 1.
 FoFCou: FMM=F IPFlag=           0 FMFlag=      100000 FMFlg1=         800
         NFxFlg=           0 DoJE=F BraDBF=F KetDBF=F FulRan=T
         wScrn=  0.000000 ICntrl=    2127 IOpCl=  0 I1Cent=           0 NGrid=           0
         NMat0=    1 NMatS0=      1 NMatT0=    0 NMatD0=    1 NMtDS0=    0 NMtDT0=    0
 Petite list used in FoFCou.
 Leave Link  703 at Mon Jul 20 17:07:04 2026, MaxMem=  4026531840 cpu:         6.5
 (Enter /home/p20190052/g09/l716.exe)
 Dipole        = 2.28788183D-15 7.10542736D-15-5.13300495D-17
 ***** Axes restored to original set *****
 -------------------------------------------------------------------
 Center     Atomic                   Forces (Hartrees/Bohr)
 Number     Number              X              Y              Z
 -------------------------------------------------------------------
      1        6           0.000000000    0.000000000    0.001348092
      2        6           0.001116833    0.000342653    0.000674469
      3        6          -0.001116833   -0.000342653    0.000674469
      4        1           0.001547955    0.000474924    0.000934830
      5        1          -0.001547955   -0.000474924    0.000934830
      6        6           0.001116132    0.000342438   -0.000674046
      7        6          -0.001116132   -0.000342438   -0.000674046
      8        1           0.001547939    0.000474919   -0.000934820
      9        1          -0.001547939   -0.000474919   -0.000934820
     10        6          -0.000000000   -0.000000000   -0.001348939
     11        1          -0.000000000   -0.000000000   -0.001869659
     12        1           0.000000000    0.000000000    0.001869639
 -------------------------------------------------------------------
 Cartesian Forces:  Max     0.001869659 RMS     0.000941106
 Leave Link  716 at Mon Jul 20 17:07:04 2026, MaxMem=  4026531840 cpu:         0.8
 (Enter /home/p20190052/g09/l103.exe)

 GradGradGradGradGradGradGradGradGradGradGradGradGradGradGradGradGradGrad
 Berny optimization.
 Using GEDIIS/GDIIS optimizer.
 FormGI is forming the generalized inverse of G from B-inverse, IUseBI=4.
 Internal  Forces:  Max     0.003218165 RMS     0.001240617
 Search for a local minimum.
 Step number   2 out of a maximum of   64
 All quantities printed in internal units (Hartrees-Bohrs-Radians)
 RMS Force = .12406D-02 SwitMx=.10000D-02 MixMth= 1
 Mixed Optimization -- RFO/linear search
 Update second derivatives using D2CorX and points    1    2
 DE= -1.59D-03 DEPred=-2.09D-03 R= 7.62D-01
 TightC=F SS=  1.41D+00  RLast= 9.97D-02 DXNew= 5.0454D-01 2.9903D-01
 Trust test= 7.62D-01 RLast= 9.97D-02 DXMaxT set to 3.00D-01
 ITU=  1  0
 Use linear search instead of GDIIS.
     Eigenvalues ---    0.02137   0.02137   0.02137   0.02137   0.02137
     Eigenvalues ---    0.02137   0.02137   0.02137   0.02137   0.16000
     Eigenvalues ---    0.16000   0.16000   0.16000   0.16000   0.16000
     Eigenvalues ---    0.22000   0.22000   0.22000   0.35238   0.35238
     Eigenvalues ---    0.35238   0.35238   0.35238   0.36654   0.42019
     Eigenvalues ---    0.42019   0.46234   0.46234   0.46234   0.54526
 RFO step:  Lambda=-7.38673485D-07 EMin= 2.13731658D-02
 Quartic linear search produced a step of -0.18261.
 Iteration  1 RMS(Cart)=  0.00395700 RMS(Int)=  0.00000001
 Iteration  2 RMS(Cart)=  0.00000000 RMS(Int)=  0.00000001
 ITry= 1 IFail=0 DXMaxC= 1.03D-02 DCOld= 1.00D+10 DXMaxT= 3.00D-01 DXLimC= 3.00D+00 Rises=F
 ClnCor:  largest displacement from symmetrization is 1.33D-08 for atom     4.
 Variable       Old X    -DE/DX   Delta X   Delta X   Delta X     New X
                                 (Linear)    (Quad)   (Total)
    R1        2.66890  -0.00322  -0.00552  -0.00031  -0.00583   2.66307
    R2        2.66890  -0.00322  -0.00552  -0.00031  -0.00583   2.66307
    R3        2.08015  -0.00187  -0.00498   0.00047  -0.00451   2.07565
    R4        2.08015  -0.00187  -0.00498   0.00047  -0.00451   2.07564
    R5        2.66890  -0.00322  -0.00552  -0.00031  -0.00583   2.66307
    R6        2.08015  -0.00187  -0.00498   0.00047  -0.00451   2.07564
    R7        2.66890  -0.00322  -0.00552  -0.00031  -0.00583   2.66307
    R8        2.08015  -0.00187  -0.00498   0.00047  -0.00451   2.07565
    R9        2.66890  -0.00322  -0.00552  -0.00031  -0.00583   2.66307
   R10        2.08015  -0.00187  -0.00498   0.00047  -0.00451   2.07565
   R11        2.66890  -0.00322  -0.00552  -0.00031  -0.00583   2.66307
   R12        2.08015  -0.00187  -0.00498   0.00047  -0.00451   2.07564
    A1        2.09440  -0.00000  -0.00000   0.00000  -0.00000   2.09440
    A2        2.09439   0.00000   0.00000  -0.00000   0.00000   2.09439
    A3        2.09439   0.00000   0.00000  -0.00000   0.00000   2.09439
    A4        2.09440  -0.00000  -0.00000   0.00000  -0.00000   2.09440
    A5        2.09439   0.00000   0.00000  -0.00000   0.00000   2.09439
    A6        2.09440  -0.00000  -0.00000   0.00000  -0.00000   2.09440
    A7        2.09440  -0.00000  -0.00000   0.00000  -0.00000   2.09440
    A8        2.09439   0.00000   0.00000  -0.00000   0.00000   2.09439
    A9        2.09440  -0.00000  -0.00000   0.00000  -0.00000   2.09440
   A10        2.09439   0.00000   0.00000  -0.00000   0.00000   2.09439
   A11        2.09440  -0.00000  -0.00000   0.00000  -0.00000   2.09440
   A12        2.09439   0.00000   0.00000  -0.00000   0.00000   2.09439
   A13        2.09439   0.00000   0.00000  -0.00000   0.00000   2.09439
   A14        2.09440  -0.00000  -0.00000   0.00000  -0.00000   2.09440
   A15        2.09439   0.00000   0.00000  -0.00000   0.00000   2.09439
   A16        2.09439   0.00000   0.00000  -0.00000   0.00000   2.09439
   A17        2.09440  -0.00000  -0.00000   0.00000  -0.00000   2.09440
   A18        2.09440  -0.00000  -0.00000   0.00000  -0.00000   2.09440
    D1        3.14159  -0.00000   0.00000   0.00000   0.00000   3.14159
    D2        0.00000  -0.00000   0.00000  -0.00000  -0.00000   0.00000
    D3        0.00000   0.00000   0.00000   0.00000   0.00000   0.00000
    D4       -3.14159  -0.00000  -0.00000  -0.00000  -0.00000   3.14159
    D5        3.14159   0.00000   0.00000  -0.00000   0.00000   3.14159
    D6       -0.00000   0.00000   0.00000  -0.00000   0.00000   0.00000
    D7       -0.00000  -0.00000   0.00000   0.00000   0.00000   0.00000
    D8        3.14159   0.00000   0.00000  -0.00000   0.00000   3.14159
    D9        3.14159   0.00000   0.00000   0.00000   0.00000   3.14159
   D10       -0.00000   0.00000   0.00000   0.00000   0.00000   0.00000
   D11        0.00000  -0.00000   0.00000   0.00000  -0.00000   0.00000
   D12        3.14159  -0.00000   0.00000  -0.00000   0.00000   3.14159
   D13        3.14159  -0.00000   0.00000   0.00000   0.00000   3.14159
   D14        0.00000  -0.00000   0.00000   0.00000   0.00000   0.00000
   D15       -0.00000   0.00000   0.00000   0.00000   0.00000   0.00000
   D16        3.14159   0.00000   0.00000   0.00000   0.00000   3.14159
   D17        0.00000  -0.00000   0.00000   0.00000  -0.00000   0.00000
   D18        3.14159  -0.00000   0.00000  -0.00000   0.00000   3.14159
   D19        3.14159  -0.00000   0.00000  -0.00000   0.00000   3.14159
   D20        0.00000  -0.00000  -0.00000  -0.00000  -0.00000   0.00000
   D21       -0.00000  -0.00000   0.00000  -0.00000   0.00000   0.00000
   D22        3.14159  -0.00000   0.00000   0.00000   0.00000   3.14159
   D23        3.14159  -0.00000   0.00000  -0.00000   0.00000   3.14159
   D24        0.00000  -0.00000   0.00000  -0.00000   0.00000   0.00000
         Item               Value     Threshold  Converged?
 Maximum Force            0.003218     0.000450     NO 
 RMS     Force            0.001241     0.000300     NO 
 Maximum Displacement     0.010340     0.001800     NO 
 RMS     Displacement     0.003957     0.001200     NO 
 Predicted change in Energy=-7.887727D-05
 Lowest energy point so far.  Saving SCF results.
 GradGradGradGradGradGradGradGradGradGradGradGradGradGradGradGradGradGrad

 Leave Link  103 at Mon Jul 20 17:07:04 2026, MaxMem=  4026531840 cpu:         1.0
 (Enter /home/p20190052/g09/l202.exe)
                          Input orientation:                          
 ---------------------------------------------------------------------
 Center     Atomic      Atomic             Coordinates (Angstroms)
 Number     Number       Type             X           Y           Z
 ---------------------------------------------------------------------
      1          6           0       -2.192237   -0.286263   -3.906878
      2          6           0       -3.358993   -0.644232   -3.202265
      3          6           0       -1.025482    0.071706   -3.202265
      4          1           0       -4.268381   -0.923239   -3.751456
      5          1           0       -0.116093    0.350714   -3.751456
      6          6           0       -3.358989   -0.644231   -1.793031
      7          6           0       -1.025486    0.071705   -1.793031
      8          1           0       -4.268380   -0.923238   -1.243838
      9          1           0       -0.116095    0.350713   -1.243838
     10          6           0       -2.192237   -0.286263   -1.088410
     11          1           0       -2.192237   -0.286263    0.009972
     12          1           0       -2.192237   -0.286263   -5.005263
 ---------------------------------------------------------------------
                    Distance matrix (angstroms):
                    1          2          3          4          5
     1  C    0.000000
     2  C    1.409234   0.000000
     3  C    1.409234   2.440869   0.000000
     4  H    2.177216   1.098382   3.436266   0.000000
     5  H    2.177216   3.436266   1.098382   4.343323   0.000000
     6  C    2.440861   1.409234   2.818468   2.177216   3.916850
     7  C    2.440861   2.818468   1.409234   3.916850   2.177216
     8  H    3.436260   2.177214   3.916853   2.507618   5.015235
     9  H    3.436260   3.916853   2.177214   5.015235   2.507618
    10  C    2.818468   2.440869   2.440869   3.436266   3.436266
    11  H    3.916850   3.436266   3.436266   4.343323   4.343323
    12  H    1.098385   2.177214   2.177214   2.507618   2.507618
                    6          7          8          9         10
     6  C    0.000000
     7  C    2.440861   0.000000
     8  H    1.098385   3.436260   0.000000
     9  H    3.436260   1.098385   4.343319   0.000000
    10  C    1.409234   1.409234   2.177214   2.177214   0.000000
    11  H    2.177216   2.177216   2.507618   2.507618   1.098382
    12  H    3.436260   3.436260   4.343319   4.343319   3.916853
                   11         12
    11  H    0.000000
    12  H    5.015235   0.000000
 Stoichiometry    C6H6
 Framework group  D3H[3C2(HC.CH)]
 Deg. of freedom     4
 Full point group                 D3H     NOp  12
 RotChk:  IX=0 Diff= 9.42D-16
 Largest Abelian subgroup         C2V     NOp   4
 Largest concise Abelian subgroup C2      NOp   2
                         Standard orientation:                         
 ---------------------------------------------------------------------
 Center     Atomic      Atomic             Coordinates (Angstroms)
 Number     Number       Type             X           Y           Z
 ---------------------------------------------------------------------
      1          6           0        0.000000    1.409232   -0.000000
      2          6           0        1.220435    0.704618   -0.000000
      3          6           0       -1.220435    0.704618    0.000000
      4          1           0        2.171662    1.253809   -0.000000
      5          1           0       -2.171662    1.253809    0.000000
      6          6           0        1.220430   -0.704616   -0.000000
      7          6           0       -1.220430   -0.704616    0.000000
      8          1           0        2.171659   -1.253808   -0.000000
      9          1           0       -2.171659   -1.253808    0.000000
     10          6           0       -0.000000   -1.409236   -0.000000
     11          1           0       -0.000000   -2.507619   -0.000000
     12          1           0        0.000000    2.507616   -0.000000
 ---------------------------------------------------------------------
 Rotational constants (GHZ):      5.5839335      5.5839335      2.7919667
 Leave Link  202 at Mon Jul 20 17:07:04 2026, MaxMem=  4026531840 cpu:         0.4
 (Enter /home/p20190052/g09/l301.exe)
 Standard basis: STO-3G (5D, 7F)
 Ernie: Thresh=  0.10000D-02 Tol=  0.10000D-05 Strict=F.
 There are    18 symmetry adapted cartesian basis functions of A1  symmetry.
 There are     2 symmetry adapted cartesian basis functions of A2  symmetry.
 There are    12 symmetry adapted cartesian basis functions of B1  symmetry.
 There are     4 symmetry adapted cartesian basis functions of B2  symmetry.
 There are    18 symmetry adapted basis functions of A1  symmetry.
 There are     2 symmetry adapted basis functions of A2  symmetry.
 There are    12 symmetry adapted basis functions of B1  symmetry.
 There are     4 symmetry adapted basis functions of B2  symmetry.
    36 basis functions,   108 primitive gaussians,    36 cartesian basis functions
    21 alpha electrons       21 beta electrons
       nuclear repulsion energy       201.3245317493 Hartrees.
 IExCor=  402 DFT=T Ex+Corr=B3LYP ExCW=0 ScaHFX=  0.200000
 ScaDFX=  0.800000  0.720000  1.000000  0.810000 ScalE2=  1.000000  1.000000
 IRadAn=      0 IRanWt=     -1 IRanGd=            0 ICorTp=0 IEmpDi=  4
 NAtoms=   12 NActive=   12 NUniq=    4 SFac= 4.00D+00 NAtFMM=   60 NAOKFM=F Big=F
 Integral buffers will be    131072 words long.
 Raffenetti 2 integral format.
 Two-electron integral symmetry is turned on.
 Leave Link  301 at Mon Jul 20 17:07:04 2026, MaxMem=  4026531840 cpu:         2.0
 (Enter /home/p20190052/g09/l302.exe)
 NPDir=0 NMtPBC=     1 NCelOv=     1 NCel=       1 NClECP=     1 NCelD=      1
         NCelK=      1 NCelE2=     1 NClLst=     1 CellRange=     0.0.
 One-electron integrals computed using PRISM.
 One-electron integral symmetry used in STVInt
 NBasis=    36 RedAO= T EigKep=  2.03D-01  NBF=    18     2    12     4
 NBsUse=    36 1.00D-06 EigRej= -1.00D+00 NBFU=    18     2    12     4
 Precomputing XC quadrature grid using
 IXCGrd= 4 IRadAn=           0 IRanWt=          -1 IRanGd=           0 AccXCQ= 0.00D+00.
 Generated NRdTot=       0 NPtTot=           0 NUsed=           0 NTot=          32
 NSgBfM=    36    36    36    36    36 MxSgAt=    12 MxSgA2=    12.
 Leave Link  302 at Mon Jul 20 17:07:05 2026, MaxMem=  4026531840 cpu:        10.2
 (Enter /home/p20190052/g09/l303.exe)
 DipDrv:  MaxL=1.
 Leave Link  303 at Mon Jul 20 17:07:05 2026, MaxMem=  4026531840 cpu:         0.9
 (Enter /home/p20190052/g09/l401.exe)
 Initial guess from the checkpoint file:  "Benzene_b3lyp_sto-3g.chk"
 B after Tr=    -0.000000   -0.000000   -0.000000
         Rot=    1.000000    0.000000    0.000000   -0.000000 Ang=   0.00 deg.
 Guess basis will be translated and rotated to current coordinates.
 JPrj=2 DoOrth=T DoCkMO=T.
 Initial guess orbital symmetries:
       Occupied  (A1') (E') (E') (E') (E') (A1') (A1') (E') (E')
                 (E') (E') (A1') (A1') (A2') (E') (E') (A2") (E')
                 (E') (E") (E")
       Virtual   (?A) (?B) (?A) (?B) (?B) (?A) (?B) (E") (?B) (?A)
                 (?A) (?B) (?A) (E") (A2")
 The electronic state of the initial guess is 1-A1'.
 Leave Link  401 at Mon Jul 20 17:07:05 2026, MaxMem=  4026531840 cpu:         2.9
 (Enter /home/p20190052/g09/l502.exe)
 Closed shell SCF:
 Using DIIS extrapolation, IDIIS=  1040.
 Integral symmetry usage will be decided dynamically.
 Keep R1 ints in memory in symmetry-blocked form, NReq=1109423.
 IVT=       24418 IEndB=       24418 NGot=  4026531840 MDV=  4026437336
 LenX=  4026437336 LenY=  4026435599
 Requested convergence on RMS density matrix=1.00D-08 within 128 cycles.
 Requested convergence on MAX density matrix=1.00D-06.
 Requested convergence on             energy=1.00D-06.
 No special actions if energy rises.
 FoFCou: FMM=F IPFlag=           0 FMFlag=           0 FMFlg1=           0
         NFxFlg=           0 DoJE=F BraDBF=F KetDBF=F FulRan=T
         wScrn=  0.000000 ICntrl=     600 IOpCl=  0 I1Cent=           0 NGrid=           0
         NMat0=    1 NMatS0=    666 NMatT0=    0 NMatD0=    1 NMtDS0=    0 NMtDT0=    0
 Petite list used in FoFCou.

 Cycle   1  Pass 1  IDiag  1:
 E= -229.407880675630    
 DIIS: error= 5.03D-04 at cycle   1 NSaved=   1.
 NSaved= 1 IEnMin= 1 EnMin= -229.407880675630     IErMin= 1 ErrMin= 5.03D-04
 ErrMax= 5.03D-04  0.00D+00 EMaxC= 1.00D-01 BMatC= 6.27D-06 BMatP= 6.27D-06
 IDIUse=3 WtCom= 9.95D-01 WtEn= 5.03D-03
 Coeff-Com:  0.100D+01
 Coeff-En:   0.100D+01
 Coeff:      0.100D+01
 Gap=     0.281 Goal=   None    Shift=    0.000
 RMSDP=1.24D-04 MaxDP=9.62D-04              OVMax= 0.00D+00

 Cycle   2  Pass 1  IDiag  1:
 E= -229.407887666965     Delta-E=       -0.000006991335 Rises=F Damp=F
 DIIS: error= 6.63D-05 at cycle   2 NSaved=   2.
 NSaved= 2 IEnMin= 2 EnMin= -229.407887666965     IErMin= 2 ErrMin= 6.63D-05
 ErrMax= 6.63D-05  0.00D+00 EMaxC= 1.00D-01 BMatC= 1.97D-07 BMatP= 6.27D-06
 IDIUse=1 WtCom= 1.00D+00 WtEn= 0.00D+00
 Coeff-Com:  0.377D-01 0.962D+00
 Coeff:      0.377D-01 0.962D+00
 Gap=     0.281 Goal=   None    Shift=    0.000
 RMSDP=3.06D-05 MaxDP=2.51D-04 DE=-6.99D-06 OVMax= 0.00D+00

 Cycle   3  Pass 1  IDiag  1:
 E= -229.407887886167     Delta-E=       -0.000000219202 Rises=F Damp=F
 DIIS: error= 3.67D-05 at cycle   3 NSaved=   3.
 NSaved= 3 IEnMin= 3 EnMin= -229.407887886167     IErMin= 3 ErrMin= 3.67D-05
 ErrMax= 3.67D-05  0.00D+00 EMaxC= 1.00D-01 BMatC= 5.05D-08 BMatP= 1.97D-07
 IDIUse=1 WtCom= 1.00D+00 WtEn= 0.00D+00
 Coeff-Com: -0.121D-01 0.331D+00 0.681D+00
 Coeff:     -0.121D-01 0.331D+00 0.681D+00
 Gap=     0.281 Goal=   None    Shift=    0.000
 RMSDP=1.00D-05 MaxDP=8.90D-05 DE=-2.19D-07 OVMax= 0.00D+00

 Cycle   4  Pass 1  IDiag  1:
 E= -229.407887961550     Delta-E=       -0.000000075384 Rises=F Damp=F
 DIIS: error= 5.98D-07 at cycle   4 NSaved=   4.
 NSaved= 4 IEnMin= 4 EnMin= -229.407887961550     IErMin= 4 ErrMin= 5.98D-07
 ErrMax= 5.98D-07  0.00D+00 EMaxC= 1.00D-01 BMatC= 1.07D-11 BMatP= 5.05D-08
 IDIUse=1 WtCom= 1.00D+00 WtEn= 0.00D+00
 Coeff-Com:  0.171D-04-0.147D-01-0.160D-01 0.103D+01
 Coeff:      0.171D-04-0.147D-01-0.160D-01 0.103D+01
 Gap=     0.281 Goal=   None    Shift=    0.000
 RMSDP=1.93D-07 MaxDP=1.79D-06 DE=-7.54D-08 OVMax= 0.00D+00

 Cycle   5  Pass 1  IDiag  1:
 E= -229.407887961568     Delta-E=       -0.000000000017 Rises=F Damp=F
 DIIS: error= 1.46D-08 at cycle   5 NSaved=   5.
 NSaved= 5 IEnMin= 5 EnMin= -229.407887961568     IErMin= 5 ErrMin= 1.46D-08
 ErrMax= 1.46D-08  0.00D+00 EMaxC= 1.00D-01 BMatC= 1.26D-14 BMatP= 1.07D-11
 IDIUse=1 WtCom= 1.00D+00 WtEn= 0.00D+00
 Coeff-Com:  0.104D-05-0.181D-02-0.197D-02 0.125D+00 0.878D+00
 Coeff:      0.104D-05-0.181D-02-0.197D-02 0.125D+00 0.878D+00
 Gap=     0.281 Goal=   None    Shift=    0.000
 RMSDP=7.56D-09 MaxDP=7.86D-08 DE=-1.75D-11 OVMax= 0.00D+00

 SCF Done:  E(RB3LYP) =  -229.407887962     A.U. after    5 cycles
            NFock=  5  Conv=0.76D-08     -V/T= 2.0174
 KE= 2.254912193052D+02 PE=-9.334436366326D+02 EE= 2.772199976165D+02
 Leave Link  502 at Mon Jul 20 17:07:05 2026, MaxMem=  4026531840 cpu:         8.0
 (Enter /home/p20190052/g09/l701.exe)
 Compute integral first derivatives.
 ... and contract with generalized density number  0.
 Leave Link  701 at Mon Jul 20 17:07:05 2026, MaxMem=  4026531840 cpu:        11.2
 (Enter /home/p20190052/g09/l702.exe)
 L702 exits ... SP integral derivatives will be done elsewhere.
 Leave Link  702 at Mon Jul 20 17:07:05 2026, MaxMem=  4026531840 cpu:         0.8
 (Enter /home/p20190052/g09/l703.exe)
 Compute integral first derivatives, UseDBF=F ICtDFT=           0.
 Integral derivatives from FoFJK, PRISM(SPDF).
 Calling FoFJK, ICntrl=      2127 FMM=F ISym2X=1 I1Cent= 0 IOpClX= 0 NMat=1 NMatS=1 NMatT=0.
 FoFJK:  IHMeth= 1 ICntrl=    2127 DoSepK=F KAlg= 0 I1Cent=   0 FoldK=F
 IRaf=         0 NMat=   1 IRICut=       1 DoRegI=T DoRafI=F ISym2E= 1.
 FoFCou: FMM=F IPFlag=           0 FMFlag=      100000 FMFlg1=         800
         NFxFlg=           0 DoJE=F BraDBF=F KetDBF=F FulRan=T
         wScrn=  0.000000 ICntrl=    2127 IOpCl=  0 I1Cent=           0 NGrid=           0
         NMat0=    1 NMatS0=      1 NMatT0=    0 NMatD0=    1 NMtDS0=    0 NMtDT0=    0
 Petite list used in FoFCou.
 Leave Link  703 at Mon Jul 20 17:07:06 2026, MaxMem=  4026531840 cpu:         6.4
 (Enter /home/p20190052/g09/l716.exe)
 Dipole        =-1.20374819D-14 8.88178420D-16-1.00684639D-17
 ***** Axes restored to original set *****
 -------------------------------------------------------------------
 Center     Atomic                   Forces (Hartrees/Bohr)
 Number     Number              X              Y              Z
 -------------------------------------------------------------------
      1        6          -0.000000000   -0.000000000   -0.000034457
      2        6          -0.000028592   -0.000008772   -0.000017267
      3        6           0.000028592    0.000008772   -0.000017267
      4        1           0.000014901    0.000004572    0.000008999
      5        1          -0.000014901   -0.000004572    0.000008999
      6        6          -0.000028528   -0.000008753    0.000017229
      7        6           0.000028528    0.000008753    0.000017229
      8        1           0.000014934    0.000004582   -0.000009019
      9        1          -0.000014934   -0.000004582   -0.000009019
     10        6           0.000000000   -0.000000000    0.000034534
     11        1          -0.000000000   -0.000000000   -0.000017998
     12        1           0.000000000    0.000000000    0.000018038
 -------------------------------------------------------------------
 Cartesian Forces:  Max     0.000034534 RMS     0.000015888
 Leave Link  716 at Mon Jul 20 17:07:06 2026, MaxMem=  4026531840 cpu:         0.9
 (Enter /home/p20190052/g09/l103.exe)

 GradGradGradGradGradGradGradGradGradGradGradGradGradGradGradGradGradGrad
 Berny optimization.
 Using GEDIIS/GDIIS optimizer.
 FormGI is forming the generalized inverse of G from B-inverse, IUseBI=4.
 GSVD:  received Info=                   1 from GESDD.
 Internal  Forces:  Max     0.000018038 RMS     0.000008139
 Search for a local minimum.
 Step number   3 out of a maximum of   64
 All quantities printed in internal units (Hartrees-Bohrs-Radians)
 RMS Force = .81387D-05 SwitMx=.10000D-02 MixMth= 2
 Mixed Optimization -- En-DIIS/RFO-DIIS
 Update second derivatives using D2CorX and points    1    2    3
 DE= -8.17D-05 DEPred=-7.89D-05 R= 1.04D+00
 TightC=F SS=  1.41D+00  RLast= 1.81D-02 DXNew= 5.0454D-01 5.4165D-02
 Trust test= 1.04D+00 RLast= 1.81D-02 DXMaxT set to 3.00D-01
 ITU=  1  1  0
 Use linear search instead of GDIIS.
     Eigenvalues ---    0.02137   0.02137   0.02137   0.02137   0.02137
     Eigenvalues ---    0.02137   0.02137   0.02137   0.02137   0.16000
     Eigenvalues ---    0.16000   0.16000   0.16000   0.16000   0.16000
     Eigenvalues ---    0.22000   0.22000   0.22000   0.35238   0.35238
     Eigenvalues ---    0.35238   0.35238   0.35238   0.36153   0.42003
     Eigenvalues ---    0.42003   0.46234   0.46234   0.46234   0.53559
 RFO step:  Lambda= 0.00000000D+00 EMin= 2.13731658D-02
 Quartic linear search produced a step of -0.00054.
 Iteration  1 RMS(Cart)=  0.00001289 RMS(Int)=  0.00000001
 Iteration  2 RMS(Cart)=  0.00000001 RMS(Int)=  0.00000001
 ITry= 1 IFail=0 DXMaxC= 3.45D-05 DCOld= 1.00D+10 DXMaxT= 3.00D-01 DXLimC= 3.00D+00 Rises=F
 ClnCor:  largest displacement from symmetrization is 2.12D-08 for atom     8.
 Variable       Old X    -DE/DX   Delta X   Delta X   Delta X     New X
                                 (Linear)    (Quad)   (Total)
    R1        2.66307   0.00002   0.00000   0.00003   0.00003   2.66310
    R2        2.66307   0.00002   0.00000   0.00003   0.00003   2.66310
    R3        2.07565  -0.00002   0.00000  -0.00005  -0.00005   2.07559
    R4        2.07564  -0.00002   0.00000  -0.00005  -0.00005   2.07559
    R5        2.66307   0.00002   0.00000   0.00003   0.00003   2.66310
    R6        2.07564  -0.00002   0.00000  -0.00005  -0.00005   2.07559
    R7        2.66307   0.00002   0.00000   0.00003   0.00003   2.66310
    R8        2.07565  -0.00002   0.00000  -0.00005  -0.00005   2.07559
    R9        2.66307   0.00002   0.00000   0.00003   0.00003   2.66310
   R10        2.07565  -0.00002   0.00000  -0.00005  -0.00005   2.07559
   R11        2.66307   0.00002   0.00000   0.00003   0.00003   2.66310
   R12        2.07564  -0.00002   0.00000  -0.00005  -0.00005   2.07559
    A1        2.09440   0.00000   0.00000   0.00000   0.00000   2.09440
    A2        2.09439  -0.00000  -0.00000  -0.00000  -0.00000   2.09439
    A3        2.09439  -0.00000  -0.00000  -0.00000  -0.00000   2.09439
    A4        2.09440   0.00000   0.00000   0.00000   0.00000   2.09440
    A5        2.09439  -0.00000  -0.00000  -0.00000  -0.00000   2.09439
    A6        2.09440   0.00000   0.00000   0.00000   0.00000   2.09440
    A7        2.09440   0.00000   0.00000   0.00000   0.00000   2.09440
    A8        2.09439  -0.00000  -0.00000  -0.00000  -0.00000   2.09439
    A9        2.09440   0.00000   0.00000   0.00000   0.00000   2.09440
   A10        2.09439  -0.00000  -0.00000  -0.00000  -0.00000   2.09439
   A11        2.09440   0.00000   0.00000   0.00000   0.00000   2.09440
   A12        2.09439  -0.00000  -0.00000  -0.00000  -0.00000   2.09439
   A13        2.09439  -0.00000  -0.00000  -0.00000  -0.00000   2.09439
   A14        2.09440   0.00000   0.00000   0.00000   0.00000   2.09440
   A15        2.09439  -0.00000  -0.00000  -0.00000  -0.00000   2.09439
   A16        2.09439  -0.00000  -0.00000  -0.00000  -0.00000   2.09439
   A17        2.09440   0.00000   0.00000   0.00000   0.00000   2.09440
   A18        2.09440   0.00000   0.00000   0.00000   0.00000   2.09440
    D1       -3.14159  -0.00000  -0.00000   0.00000  -0.00000   3.14159
    D2        0.00000  -0.00000  -0.00000   0.00000  -0.00000   0.00000
    D3        0.00000  -0.00000  -0.00000  -0.00000  -0.00000   0.00000
    D4        3.14159  -0.00000   0.00000  -0.00000   0.00000   3.14159
    D5        3.14159   0.00000   0.00000  -0.00000   0.00000   3.14159
    D6       -0.00000   0.00000   0.00000  -0.00000   0.00000   0.00000
    D7       -0.00000   0.00000   0.00000   0.00000   0.00000   0.00000
    D8        3.14159   0.00000   0.00000  -0.00000   0.00000   3.14159
    D9        3.14159   0.00000   0.00000   0.00000   0.00000   3.14159
   D10        0.00000  -0.00000  -0.00000   0.00000   0.00000   0.00000
   D11        0.00000   0.00000  -0.00000   0.00000  -0.00000   0.00000
   D12       -3.14159  -0.00000  -0.00000   0.00000   0.00000  -3.14159
   D13       -3.14159  -0.00000  -0.00000   0.00000  -0.00000   3.14159
   D14        0.00000   0.00000   0.00000   0.00000  -0.00000   0.00000
   D15       -0.00000  -0.00000  -0.00000   0.00000   0.00000   0.00000
   D16        3.14159   0.00000   0.00000   0.00000   0.00000   3.14159
   D17       -0.00000   0.00000   0.00000  -0.00000   0.00000   0.00000
   D18        3.14159   0.00000   0.00000  -0.00000   0.00000   3.14159
   D19        3.14159   0.00000   0.00000  -0.00000   0.00000   3.14159
   D20        0.00000   0.00000   0.00000  -0.00000  -0.00000   0.00000
   D21        0.00000  -0.00000   0.00000  -0.00000   0.00000   0.00000
   D22        3.14159  -0.00000   0.00000   0.00000   0.00000   3.14159
   D23        3.14159  -0.00000   0.00000  -0.00000   0.00000   3.14159
   D24       -0.00000   0.00000   0.00000  -0.00000   0.00000   0.00000
         Item               Value     Threshold  Converged?
 Maximum Force            0.000018     0.000450     YES
 RMS     Force            0.000008     0.000300     YES
 Maximum Displacement     0.000034     0.001800     YES
 RMS     Displacement     0.000013     0.001200     YES
 Predicted change in Energy=-4.513370D-09
 Optimization completed.
    -- Stationary point found.
                           ----------------------------
                           !   Optimized Parameters   !
                           ! (Angstroms and Degrees)  !
 --------------------------                            --------------------------
 ! Name  Definition              Value          Derivative Info.                !
 --------------------------------------------------------------------------------
 ! R1    R(1,2)                  1.4092         -DE/DX =    0.0                 !
 ! R2    R(1,3)                  1.4092         -DE/DX =    0.0                 !
 ! R3    R(1,12)                 1.0984         -DE/DX =    0.0                 !
 ! R4    R(2,4)                  1.0984         -DE/DX =    0.0                 !
 ! R5    R(2,6)                  1.4092         -DE/DX =    0.0                 !
 ! R6    R(3,5)                  1.0984         -DE/DX =    0.0                 !
 ! R7    R(3,7)                  1.4092         -DE/DX =    0.0                 !
 ! R8    R(6,8)                  1.0984         -DE/DX =    0.0                 !
 ! R9    R(6,10)                 1.4092         -DE/DX =    0.0                 !
 ! R10   R(7,9)                  1.0984         -DE/DX =    0.0                 !
 ! R11   R(7,10)                 1.4092         -DE/DX =    0.0                 !
 ! R12   R(10,11)                1.0984         -DE/DX =    0.0                 !
 ! A1    A(2,1,3)              120.0003         -DE/DX =    0.0                 !
 ! A2    A(2,1,12)             119.9998         -DE/DX =    0.0                 !
 ! A3    A(3,1,12)             119.9998         -DE/DX =    0.0                 !
 ! A4    A(1,2,4)              120.0002         -DE/DX =    0.0                 !
 ! A5    A(1,2,6)              119.9997         -DE/DX =    0.0                 !
 ! A6    A(4,2,6)              120.0002         -DE/DX =    0.0                 !
 ! A7    A(1,3,5)              120.0002         -DE/DX =    0.0                 !
 ! A8    A(1,3,7)              119.9997         -DE/DX =    0.0                 !
 ! A9    A(5,3,7)              120.0002         -DE/DX =    0.0                 !
 ! A10   A(2,6,8)              119.9998         -DE/DX =    0.0                 !
 ! A11   A(2,6,10)             120.0003         -DE/DX =    0.0                 !
 ! A12   A(8,6,10)             119.9998         -DE/DX =    0.0                 !
 ! A13   A(3,7,9)              119.9998         -DE/DX =    0.0                 !
 ! A14   A(3,7,10)             120.0003         -DE/DX =    0.0                 !
 ! A15   A(9,7,10)             119.9998         -DE/DX =    0.0                 !
 ! A16   A(6,10,7)             119.9997         -DE/DX =    0.0                 !
 ! A17   A(6,10,11)            120.0002         -DE/DX =    0.0                 !
 ! A18   A(7,10,11)            120.0002         -DE/DX =    0.0                 !
 ! D1    D(3,1,2,4)            180.0            -DE/DX =    0.0                 !
 ! D2    D(3,1,2,6)              0.0            -DE/DX =    0.0                 !
 ! D3    D(12,1,2,4)             0.0            -DE/DX =    0.0                 !
 ! D4    D(12,1,2,6)           180.0            -DE/DX =    0.0                 !
 ! D5    D(2,1,3,5)            180.0            -DE/DX =    0.0                 !
 ! D6    D(2,1,3,7)              0.0            -DE/DX =    0.0                 !
 ! D7    D(12,1,3,5)             0.0            -DE/DX =    0.0                 !
 ! D8    D(12,1,3,7)           180.0            -DE/DX =    0.0                 !
 ! D9    D(1,2,6,8)            180.0            -DE/DX =    0.0                 !
 ! D10   D(1,2,6,10)             0.0            -DE/DX =    0.0                 !
 ! D11   D(4,2,6,8)              0.0            -DE/DX =    0.0                 !
 ! D12   D(4,2,6,10)          -180.0            -DE/DX =    0.0                 !
 ! D13   D(1,3,7,9)            180.0            -DE/DX =    0.0                 !
 ! D14   D(1,3,7,10)             0.0            -DE/DX =    0.0                 !
 ! D15   D(5,3,7,9)              0.0            -DE/DX =    0.0                 !
 ! D16   D(5,3,7,10)           180.0            -DE/DX =    0.0                 !
 ! D17   D(2,6,10,7)             0.0            -DE/DX =    0.0                 !
 ! D18   D(2,6,10,11)          180.0            -DE/DX =    0.0                 !
 ! D19   D(8,6,10,7)           180.0            -DE/DX =    0.0                 !
 ! D20   D(8,6,10,11)            0.0            -DE/DX =    0.0                 !
 ! D21   D(3,7,10,6)             0.0            -DE/DX =    0.0                 !
 ! D22   D(3,7,10,11)          180.0            -DE/DX =    0.0                 !
 ! D23   D(9,7,10,6)           180.0            -DE/DX =    0.0                 !
 ! D24   D(9,7,10,11)            0.0            -DE/DX =    0.0                 !
 --------------------------------------------------------------------------------
 Lowest energy point so far.  Saving SCF results.
 GradGradGradGradGradGradGradGradGradGradGradGradGradGradGradGradGradGrad

 Largest change from initial coordinates is atom    5       0.025 Angstoms.
 Leave Link  103 at Mon Jul 20 17:07:06 2026, MaxMem=  4026531840 cpu:         1.0
 (Enter /home/p20190052/g09/l202.exe)
                          Input orientation:                          
 ---------------------------------------------------------------------
 Center     Atomic      Atomic             Coordinates (Angstroms)
 Number     Number       Type             X           Y           Z
 ---------------------------------------------------------------------
      1          6           0       -2.192237   -0.286263   -3.906878
      2          6           0       -3.358993   -0.644232   -3.202265
      3          6           0       -1.025482    0.071706   -3.202265
      4          1           0       -4.268381   -0.923239   -3.751456
      5          1           0       -0.116093    0.350714   -3.751456
      6          6           0       -3.358989   -0.644231   -1.793031
      7          6           0       -1.025486    0.071705   -1.793031
      8          1           0       -4.268380   -0.923238   -1.243838
      9          1           0       -0.116095    0.350713   -1.243838
     10          6           0       -2.192237   -0.286263   -1.088410
     11          1           0       -2.192237   -0.286263    0.009972
     12          1           0       -2.192237   -0.286263   -5.005263
 ---------------------------------------------------------------------
                    Distance matrix (angstroms):
                    1          2          3          4          5
     1  C    0.000000
     2  C    1.409234   0.000000
     3  C    1.409234   2.440869   0.000000
     4  H    2.177216   1.098382   3.436266   0.000000
     5  H    2.177216   3.436266   1.098382   4.343323   0.000000
     6  C    2.440861   1.409234   2.818468   2.177216   3.916850
     7  C    2.440861   2.818468   1.409234   3.916850   2.177216
     8  H    3.436260   2.177214   3.916853   2.507618   5.015235
     9  H    3.436260   3.916853   2.177214   5.015235   2.507618
    10  C    2.818468   2.440869   2.440869   3.436266   3.436266
    11  H    3.916850   3.436266   3.436266   4.343323   4.343323
    12  H    1.098385   2.177214   2.177214   2.507618   2.507618
                    6          7          8          9         10
     6  C    0.000000
     7  C    2.440861   0.000000
     8  H    1.098385   3.436260   0.000000
     9  H    3.436260   1.098385   4.343319   0.000000
    10  C    1.409234   1.409234   2.177214   2.177214   0.000000
    11  H    2.177216   2.177216   2.507618   2.507618   1.098382
    12  H    3.436260   3.436260   4.343319   4.343319   3.916853
                   11         12
    11  H    0.000000
    12  H    5.015235   0.000000
 Stoichiometry    C6H6
 Framework group  D3H[3C2(HC.CH)]
 Deg. of freedom     4
 Full point group                 D3H     NOp  12
 RotChk:  IX=0 Diff= 1.38D-15
 Largest Abelian subgroup         C2V     NOp   4
 Largest concise Abelian subgroup C2      NOp   2
                         Standard orientation:                         
 ---------------------------------------------------------------------
 Center     Atomic      Atomic             Coordinates (Angstroms)
 Number     Number       Type             X           Y           Z
 ---------------------------------------------------------------------
      1          6           0        0.000000    1.409232   -0.000000
      2          6           0        1.220435    0.704618   -0.000000
      3          6           0       -1.220435    0.704618    0.000000
      4          1           0        2.171662    1.253809   -0.000000
      5          1           0       -2.171662    1.253809    0.000000
      6          6           0        1.220430   -0.704616   -0.000000
      7          6           0       -1.220430   -0.704616    0.000000
      8          1           0        2.171659   -1.253808   -0.000000
      9          1           0       -2.171659   -1.253808    0.000000
     10          6           0       -0.000000   -1.409236   -0.000000
     11          1           0       -0.000000   -2.507619   -0.000000
     12          1           0        0.000000    2.507616   -0.000000
 ---------------------------------------------------------------------
 Rotational constants (GHZ):      5.5839335      5.5839335      2.7919667
 Leave Link  202 at Mon Jul 20 17:07:06 2026, MaxMem=  4026531840 cpu:         0.4
 (Enter /home/p20190052/g09/l601.exe)
 Copying SCF densities to generalized density rwf, IOpCl= 0 IROHF=0.

 **********************************************************************

            Population analysis using the SCF density.

 **********************************************************************

 Orbital symmetries:
       Occupied  (A1') (E') (E') (E') (E') (A1') (A1') (E') (E')
                 (E') (E') (A1') (A1') (A2') (E') (E') (A2") (E')
                 (E') (E") (E")
       Virtual   (E") (E") (A2") (A1') (E') (E') (A1') (E') (E')
                 (E') (E') (E') (E') (A2') (A1')
 The electronic state is 1-A1'.
 Alpha  occ. eigenvalues --  -10.00629 -10.00592 -10.00592 -10.00527 -10.00527
 Alpha  occ. eigenvalues --  -10.00478  -0.79961  -0.69641  -0.69641  -0.55658
 Alpha  occ. eigenvalues --   -0.55658  -0.47848  -0.42363  -0.39064  -0.37575
 Alpha  occ. eigenvalues --   -0.37575  -0.30973  -0.29690  -0.29690  -0.19231
 Alpha  occ. eigenvalues --   -0.19231
 Alpha virt. eigenvalues --    0.08913   0.08913   0.25009   0.33943   0.39371
 Alpha virt. eigenvalues --    0.39371   0.44515   0.45626   0.45626   0.58152
 Alpha virt. eigenvalues --    0.58152   0.59012   0.59012   0.74247   0.79644
          Condensed to atoms (all electrons):
               1          2          3          4          5          6
     1  C    4.804361   0.500623   0.500623  -0.024873  -0.024873  -0.028551
     2  C    0.500623   4.804359  -0.028551   0.388674   0.001356   0.500623
     3  C    0.500623  -0.028551   4.804359   0.001356   0.388674  -0.011269
     4  H   -0.024873   0.388674   0.001356   0.586463  -0.000032  -0.024873
     5  H   -0.024873   0.001356   0.388674  -0.000032   0.586463   0.000032
     6  C   -0.028551   0.500623  -0.011269  -0.024873   0.000032   4.804361
     7  C   -0.028551  -0.011269   0.500623   0.000032  -0.024873  -0.028551
     8  H    0.001357  -0.024873   0.000032  -0.003491   0.000002   0.388673
     9  H    0.001357   0.000032  -0.024873   0.000002  -0.003491   0.001357
    10  C   -0.011269  -0.028551  -0.028551   0.001356   0.001356   0.500623
    11  H    0.000032   0.001356   0.001356  -0.000032  -0.000032  -0.024873
    12  H    0.388673  -0.024873  -0.024873  -0.003491  -0.003491   0.001357
               7          8          9         10         11         12
     1  C   -0.028551   0.001357   0.001357  -0.011269   0.000032   0.388673
     2  C   -0.011269  -0.024873   0.000032  -0.028551   0.001356  -0.024873
     3  C    0.500623   0.000032  -0.024873  -0.028551   0.001356  -0.024873
     4  H    0.000032  -0.003491   0.000002   0.001356  -0.000032  -0.003491
     5  H   -0.024873   0.000002  -0.003491   0.001356  -0.000032  -0.003491
     6  C   -0.028551   0.388673   0.001357   0.500623  -0.024873   0.001357
     7  C    4.804361   0.001357   0.388673   0.500623  -0.024873   0.001357
     8  H    0.001357   0.586466  -0.000032  -0.024873  -0.003491  -0.000032
     9  H    0.388673  -0.000032   0.586466  -0.024873  -0.003491  -0.000032
    10  C    0.500623  -0.024873  -0.024873   4.804359   0.388674   0.000032
    11  H   -0.024873  -0.003491  -0.003491   0.388674   0.586463   0.000002
    12  H    0.001357  -0.000032  -0.000032   0.000032   0.000002   0.586466
 Mulliken charges:
               1
     1  C   -0.078908
     2  C   -0.078908
     3  C   -0.078908
     4  H    0.078909
     5  H    0.078909
     6  C   -0.078908
     7  C   -0.078908
     8  H    0.078907
     9  H    0.078907
    10  C   -0.078908
    11  H    0.078909
    12  H    0.078907
 Sum of Mulliken charges =  -0.00000
 Mulliken charges with hydrogens summed into heavy atoms:
               1
     1  C   -0.000000
     2  C    0.000000
     3  C    0.000000
     6  C   -0.000000
     7  C   -0.000000
    10  C    0.000000
 Electronic spatial extent (au):  <R**2>=            461.2569
 Charge=              0.0000 electrons
 Dipole moment (field-independent basis, Debye):
    X=             -0.0000    Y=              0.0000    Z=              0.0000  Tot=              0.0000
 Quadrupole moment (field-independent basis, Debye-Ang):
   XX=            -30.3011   YY=            -30.3011   ZZ=            -35.1850
   XY=              0.0000   XZ=              0.0000   YZ=             -0.0000
 Traceless Quadrupole moment (field-independent basis, Debye-Ang):
   XX=              1.6280   YY=              1.6280   ZZ=             -3.2559
   XY=              0.0000   XZ=              0.0000   YZ=             -0.0000
 Octapole moment (field-independent basis, Debye-Ang**2):
  XXX=              0.0000  YYY=             -0.0001  ZZZ=              0.0000  XYY=              0.0000
  XXY=              0.0001  XXZ=             -0.0000  XZZ=              0.0000  YZZ=              0.0000
  YYZ=              0.0000  XYZ=              0.0000
 Hexadecapole moment (field-independent basis, Debye-Ang**3):
 XXXX=           -257.9308 YYYY=           -257.9308 ZZZZ=            -28.5976 XXXY=              0.0000
 XXXZ=              0.0000 YYYX=              0.0000 YYYZ=             -0.0000 ZZZX=              0.0000
 ZZZY=             -0.0000 XXYY=            -85.9769 XXZZ=            -54.6571 YYZZ=            -54.6571
 XXYZ=             -0.0000 YYXZ=              0.0000 ZZXY=             -0.0000
 N-N= 2.013245317493D+02 E-N=-9.334436365387D+02  KE= 2.254912193052D+02
 Symmetry A1   KE= 1.424079808692D+02
 Symmetry A2   KE= 2.646812283410D+00
 Symmetry B1   KE= 7.561086976151D+01
 Symmetry B2   KE= 4.825556391161D+00
 No NMR shielding tensors so no spin-rotation constants.
 Leave Link  601 at Mon Jul 20 17:07:06 2026, MaxMem=  4026531840 cpu:        12.9
 (Enter /home/p20190052/g09/l9999.exe)
 1\1\ WCSS.PL-BEM-NODE1\FOpt\RB3LYP\STO-3G\C6H6\P20190052\20-Jul-2026\0
 \\#p opt b3lyp/sto-3g\\Benzene b3lyp sto-3g\\0,1\C,-2.1922372549,-0.28
 6262741,-3.9068781038\C,-3.3589928779,-0.6442319286,-3.2022647252\C,-1
 .0254816317,0.0717064467,-3.2022647254\H,-4.2683814919,-0.9232390292,-
 3.7514558313\H,-0.1160930178,0.3507135472,-3.7514558317\C,-3.358988846
 7,-0.6442306918,-1.793030665\C,-1.0254856626,0.07170521,-1.7930306652\
 H,-4.2683795306,-0.9232384274,-1.2438383086\H,-0.1160949786,0.35071294
 56,-1.243838309\C,-2.1922372546,-0.2862627409,-1.0884099834\H,-2.19223
 72545,-0.2862627409,0.009972229\H,-2.192237255,-0.286262741,-5.0052628
 164\\Version=ES64L-G09RevE.01\State=1-A1'\HF=-229.407888\RMSD=7.561e-0
 9\RMSF=1.589e-05\Dipole=0.,0.,0.\Quadrupole=0.8979578,-2.1083023,1.210
 3445,1.0181852,0.,0.\PG=D03H [3C2(H1C1.C1H1)]\\@


 TIME IS NATURE'S WAY OF MAKING SURE EVERYTHING
 DOESN'T HAPPEN AT ONCE.
                     - WOODY ALLEN
 Job cpu time:       0 days  0 hours  4 minutes 17.2 seconds.
 File lengths (MBytes):  RWF=      5 Int=      0 D2E=      0 Chk=      1 Scr=      1
 Normal termination of Gaussian 09 at Mon Jul 20 17:07:06 2026.
