 Entering Gaussian System, Link 0=g09
 Input=Benzene-b3lyp-631gd.gjf
 Output=Benzene-b3lyp-631gd.log
 Initial command:
 /home/p20190052/g09/l1.exe "/home/p20190052/g09/scratch/Gau-54482.inp" -scrdir="/home/p20190052/g09/scratch/"
 Entering Link 1 = /home/p20190052/g09/l1.exe PID=     54483.
  
 Copyright (c) 1988,1990,1992,1993,1995,1998,2003,2009,2015,
            Gaussian, Inc.  All Rights Reserved.
  
 This is part of the Gaussian(R) 09 program.  It is based on
 the Gaussian(R) 03 system (copyright 2003, Gaussian, Inc.),
 the Gaussian(R) 98 system (copyright 1998, Gaussian, Inc.),
 the Gaussian(R) 94 system (copyright 1995, Gaussian, Inc.),
 the Gaussian 92(TM) system (copyright 1992, Gaussian, Inc.),
 the Gaussian 90(TM) system (copyright 1990, Gaussian, Inc.),
 the Gaussian 88(TM) system (copyright 1988, Gaussian, Inc.),
 the Gaussian 86(TM) system (copyright 1986, Carnegie Mellon
 University), and the Gaussian 82(TM) system (copyright 1983,
 Carnegie Mellon University). Gaussian is a federally registered
 trademark of Gaussian, Inc.
  
 This software contains proprietary and confidential information,
 including trade secrets, belonging to Gaussian, Inc.
  
 This software is provided under written license and may be
 used, copied, transmitted, or stored only in accord with that
 written license.
  
 The following legend is applicable only to US Government
 contracts under FAR:
  
                    RESTRICTED RIGHTS LEGEND
  
 Use, reproduction and disclosure by the US Government is
 subject to restrictions as set forth in subparagraphs (a)
 and (c) of the Commercial Computer Software - Restricted
 Rights clause in FAR 52.227-19.
  
 Gaussian, Inc.
 340 Quinnipiac St., Bldg. 40, Wallingford CT 06492
  
  
 ---------------------------------------------------------------
 Warning -- This program may not be used in any manner that
 competes with the business of Gaussian, Inc. or will provide
 assistance to any competitor of Gaussian, Inc.  The licensee
 of this program is prohibited from giving any competitor of
 Gaussian, Inc. access to this program.  By using this program,
 the user acknowledges that Gaussian, Inc. is engaged in the
 business of creating and licensing software in the field of
 computational chemistry and represents and warrants to the
 licensee that it is not a competitor of Gaussian, Inc. and that
 it will not use this program in any manner prohibited above.
 ---------------------------------------------------------------
  

 Cite this work as:
 Gaussian 09, Revision E.01,
 M. J. Frisch, G. W. Trucks, H. B. Schlegel, G. E. Scuseria, 
 M. A. Robb, J. R. Cheeseman, G. Scalmani, V. Barone, B. Mennucci, 
 G. A. Petersson, H. Nakatsuji, M. Caricato, X. Li, H. P. Hratchian, 
 A. F. Izmaylov, J. Bloino, G. Zheng, J. L. Sonnenberg, M. Hada, 
 M. Ehara, K. Toyota, R. Fukuda, J. Hasegawa, M. Ishida, T. Nakajima, 
 Y. Honda, O. Kitao, H. Nakai, T. Vreven, J. A. Montgomery, Jr., 
 J. E. Peralta, F. Ogliaro, M. Bearpark, J. J. Heyd, E. Brothers, 
 K. N. Kudin, V. N. Staroverov, T. Keith, R. Kobayashi, J. Normand, 
 K. Raghavachari, A. Rendell, J. C. Burant, S. S. Iyengar, J. Tomasi, 
 M. Cossi, N. Rega, J. M. Millam, M. Klene, J. E. Knox, J. B. Cross, 
 V. Bakken, C. Adamo, J. Jaramillo, R. Gomperts, R. E. Stratmann, 
 O. Yazyev, A. J. Austin, R. Cammi, C. Pomelli, J. W. Ochterski, 
 R. L. Martin, K. Morokuma, V. G. Zakrzewski, G. A. Voth, 
 P. Salvador, J. J. Dannenberg, S. Dapprich, A. D. Daniels, 
 O. Farkas, J. B. Foresman, J. V. Ortiz, J. Cioslowski, 
 and D. J. Fox, Gaussian, Inc., Wallingford CT, 2013.
 
 ******************************************
 Gaussian 09:  ES64L-G09RevE.01 30-Nov-2015
                20-Jul-2026 
 ******************************************
 %mem=30GB
 %nprocs=40
 Will use up to   40 processors via shared memory.
 %chk=Benzene_b3lyp_6-31g_d.chk
 ---------------------
 #p opt b3lyp/6-31g(d)
 ---------------------
 1/14=-1,18=20,19=15,26=3,38=1/1,3;
 2/9=110,12=2,17=6,18=5,40=1/2;
 3/5=1,6=6,7=1,11=2,16=1,25=1,30=1,71=1,74=-5/1,2,3;
 4//1;
 5/5=2,38=5/2;
 6/7=2,8=2,9=2,10=2,28=1/1;
 7//1,2,3,16;
 1/14=-1,18=20,19=15,26=3/3(2);
 2/9=110/2;
 99//99;
 2/9=110/2;
 3/5=1,6=6,7=1,11=2,16=1,25=1,30=1,71=1,74=-5/1,2,3;
 4/5=5,16=3,69=1/1;
 5/5=2,38=5/2;
 7//1,2,3,16;
 1/14=-1,18=20,19=15,26=3/3(-5);
 2/9=110/2;
 6/7=2,8=2,9=2,10=2,19=2,28=1/1;
 99/9=1/99;
 Leave Link    1 at Mon Jul 20 17:06:44 2026, MaxMem=  4026531840 cpu:         2.8
 (Enter /home/p20190052/g09/l101.exe)
 ----------------------
 Benzene b3lyp 6-31G(d)
 ----------------------
 Symbolic Z-matrix:
 Charge =  0 Multiplicity = 1
 C                    -2.19224  -0.28626  -3.89398 
 C                    -3.34831  -0.64095  -3.19581 
 C                    -1.03617   0.06843  -3.19581 
 H                    -4.24773  -0.9169   -3.73898 
 H                    -0.13674   0.34438  -3.73898 
 C                    -3.34831  -0.64095  -1.79948 
 C                    -1.03617   0.06843  -1.79948 
 H                    -4.24773  -0.9169   -1.25631 
 H                    -0.13674   0.34438  -1.25631 
 C                    -2.19224  -0.28626  -1.10132 
 H                    -2.19224  -0.28626  -0.01497 
 H                    -2.19224  -0.28626  -4.98032 
 
 NAtoms=     12 NQM=       12 NQMF=       0 NMMI=      0 NMMIF=      0
                NMic=       0 NMicF=      0.
                    Isotopes and Nuclear Properties:
 (Nuclear quadrupole moments (NQMom) in fm**2, nuclear magnetic moments (NMagM)
  in nuclear magnetons)

  Atom         1           2           3           4           5           6           7           8           9          10
 IAtWgt=          12          12          12           1           1          12          12           1           1          12
 AtmWgt=  12.0000000  12.0000000  12.0000000   1.0078250   1.0078250  12.0000000  12.0000000   1.0078250   1.0078250  12.0000000
 NucSpn=           0           0           0           1           1           0           0           1           1           0
 AtZEff=   0.0000000   0.0000000   0.0000000   0.0000000   0.0000000   0.0000000   0.0000000   0.0000000   0.0000000   0.0000000
 NQMom=    0.0000000   0.0000000   0.0000000   0.0000000   0.0000000   0.0000000   0.0000000   0.0000000   0.0000000   0.0000000
 NMagM=    0.0000000   0.0000000   0.0000000   2.7928460   2.7928460   0.0000000   0.0000000   2.7928460   2.7928460   0.0000000
 AtZNuc=   6.0000000   6.0000000   6.0000000   1.0000000   1.0000000   6.0000000   6.0000000   1.0000000   1.0000000   6.0000000

  Atom        11          12
 IAtWgt=           1           1
 AtmWgt=   1.0078250   1.0078250
 NucSpn=           1           1
 AtZEff=   0.0000000   0.0000000
 NQMom=    0.0000000   0.0000000
 NMagM=    2.7928460   2.7928460
 AtZNuc=   1.0000000   1.0000000
 Leave Link  101 at Mon Jul 20 17:06:45 2026, MaxMem=  4026531840 cpu:        12.5
 (Enter /home/p20190052/g09/l103.exe)

 GradGradGradGradGradGradGradGradGradGradGradGradGradGradGradGradGradGrad
 Berny optimization.
 Initialization pass.
                           ----------------------------
                           !    Initial Parameters    !
                           ! (Angstroms and Degrees)  !
 --------------------------                            --------------------------
 ! Name  Definition              Value          Derivative Info.                !
 --------------------------------------------------------------------------------
 ! R1    R(1,2)                  1.3963         estimate D2E/DX2                !
 ! R2    R(1,3)                  1.3963         estimate D2E/DX2                !
 ! R3    R(1,12)                 1.0863         estimate D2E/DX2                !
 ! R4    R(2,4)                  1.0863         estimate D2E/DX2                !
 ! R5    R(2,6)                  1.3963         estimate D2E/DX2                !
 ! R6    R(3,5)                  1.0863         estimate D2E/DX2                !
 ! R7    R(3,7)                  1.3963         estimate D2E/DX2                !
 ! R8    R(6,8)                  1.0863         estimate D2E/DX2                !
 ! R9    R(6,10)                 1.3963         estimate D2E/DX2                !
 ! R10   R(7,9)                  1.0863         estimate D2E/DX2                !
 ! R11   R(7,10)                 1.3963         estimate D2E/DX2                !
 ! R12   R(10,11)                1.0863         estimate D2E/DX2                !
 ! A1    A(2,1,3)              120.0            estimate D2E/DX2                !
 ! A2    A(2,1,12)             120.0            estimate D2E/DX2                !
 ! A3    A(3,1,12)             120.0            estimate D2E/DX2                !
 ! A4    A(1,2,4)              120.0001         estimate D2E/DX2                !
 ! A5    A(1,2,6)              120.0            estimate D2E/DX2                !
 ! A6    A(4,2,6)              120.0            estimate D2E/DX2                !
 ! A7    A(1,3,5)              120.0001         estimate D2E/DX2                !
 ! A8    A(1,3,7)              120.0            estimate D2E/DX2                !
 ! A9    A(5,3,7)              120.0            estimate D2E/DX2                !
 ! A10   A(2,6,8)              120.0            estimate D2E/DX2                !
 ! A11   A(2,6,10)             120.0            estimate D2E/DX2                !
 ! A12   A(8,6,10)             120.0001         estimate D2E/DX2                !
 ! A13   A(3,7,9)              120.0            estimate D2E/DX2                !
 ! A14   A(3,7,10)             120.0            estimate D2E/DX2                !
 ! A15   A(9,7,10)             120.0001         estimate D2E/DX2                !
 ! A16   A(6,10,7)             120.0            estimate D2E/DX2                !
 ! A17   A(6,10,11)            120.0            estimate D2E/DX2                !
 ! A18   A(7,10,11)            120.0            estimate D2E/DX2                !
 ! D1    D(3,1,2,4)            180.0            estimate D2E/DX2                !
 ! D2    D(3,1,2,6)              0.0            estimate D2E/DX2                !
 ! D3    D(12,1,2,4)             0.0            estimate D2E/DX2                !
 ! D4    D(12,1,2,6)           180.0            estimate D2E/DX2                !
 ! D5    D(2,1,3,5)            180.0            estimate D2E/DX2                !
 ! D6    D(2,1,3,7)              0.0            estimate D2E/DX2                !
 ! D7    D(12,1,3,5)             0.0            estimate D2E/DX2                !
 ! D8    D(12,1,3,7)           180.0            estimate D2E/DX2                !
 ! D9    D(1,2,6,8)            180.0            estimate D2E/DX2                !
 ! D10   D(1,2,6,10)             0.0            estimate D2E/DX2                !
 ! D11   D(4,2,6,8)              0.0            estimate D2E/DX2                !
 ! D12   D(4,2,6,10)           180.0            estimate D2E/DX2                !
 ! D13   D(1,3,7,9)            180.0            estimate D2E/DX2                !
 ! D14   D(1,3,7,10)             0.0            estimate D2E/DX2                !
 ! D15   D(5,3,7,9)              0.0            estimate D2E/DX2                !
 ! D16   D(5,3,7,10)          -180.0            estimate D2E/DX2                !
 ! D17   D(2,6,10,7)             0.0            estimate D2E/DX2                !
 ! D18   D(2,6,10,11)          180.0            estimate D2E/DX2                !
 ! D19   D(8,6,10,7)           180.0            estimate D2E/DX2                !
 ! D20   D(8,6,10,11)            0.0            estimate D2E/DX2                !
 ! D21   D(3,7,10,6)             0.0            estimate D2E/DX2                !
 ! D22   D(3,7,10,11)          180.0            estimate D2E/DX2                !
 ! D23   D(9,7,10,6)           180.0            estimate D2E/DX2                !
 ! D24   D(9,7,10,11)            0.0            estimate D2E/DX2                !
 --------------------------------------------------------------------------------
 Trust Radius=3.00D-01 FncErr=1.00D-07 GrdErr=1.00D-06
 Number of steps in this run=     64 maximum allowed number of steps=    100.
 GradGradGradGradGradGradGradGradGradGradGradGradGradGradGradGradGradGrad

 Leave Link  103 at Mon Jul 20 17:06:45 2026, MaxMem=  4026531840 cpu:         0.3
 (Enter /home/p20190052/g09/l202.exe)
                          Input orientation:                          
 ---------------------------------------------------------------------
 Center     Atomic      Atomic             Coordinates (Angstroms)
 Number     Number       Type             X           Y           Z
 ---------------------------------------------------------------------
      1          6           0       -2.192237   -0.286263   -3.893975
      2          6           0       -3.348306   -0.640953   -3.195811
      3          6           0       -1.036169    0.068428   -3.195811
      4          1           0       -4.247731   -0.916903   -3.738984
      5          1           0       -0.136743    0.344378   -3.738984
      6          6           0       -3.348306   -0.640953   -1.799481
      7          6           0       -1.036169    0.068428   -1.799481
      8          1           0       -4.247731   -0.916903   -1.256308
      9          1           0       -0.136743    0.344378   -1.256308
     10          6           0       -2.192237   -0.286263   -1.101317
     11          1           0       -2.192237   -0.286263   -0.014970
     12          1           0       -2.192237   -0.286263   -4.980322
 ---------------------------------------------------------------------
                    Distance matrix (angstroms):
                    1          2          3          4          5
     1  C    0.000000
     2  C    1.396328   0.000000
     3  C    1.396328   2.418512   0.000000
     4  H    2.155640   1.086348   3.402947   0.000000
     5  H    2.155640   3.402947   1.086348   4.300122   0.000000
     6  C    2.418513   1.396330   2.792658   2.155640   3.879005
     7  C    2.418513   2.792658   1.396330   3.879005   2.155640
     8  H    3.402947   2.155640   3.879005   2.482676   4.965353
     9  H    3.402947   3.879005   2.155640   4.965353   2.482676
    10  C    2.792658   2.418513   2.418513   3.402947   3.402947
    11  H    3.879005   3.402947   3.402947   4.300121   4.300121
    12  H    1.086347   2.155639   2.155639   2.482676   2.482676
                    6          7          8          9         10
     6  C    0.000000
     7  C    2.418512   0.000000
     8  H    1.086348   3.402947   0.000000
     9  H    3.402947   1.086348   4.300122   0.000000
    10  C    1.396328   1.396328   2.155640   2.155640   0.000000
    11  H    2.155639   2.155639   2.482676   2.482676   1.086347
    12  H    3.402947   3.402947   4.300121   4.300121   3.879005
                   11         12
    11  H    0.000000
    12  H    4.965352   0.000000
 Stoichiometry    C6H6
 Framework group  C3V[3SGV(C2H2)]
 Deg. of freedom     7
 Full point group                 C3V     NOp   6
 Largest Abelian subgroup         CS      NOp   2
 Largest concise Abelian subgroup CS      NOp   2
                         Standard orientation:                         
 ---------------------------------------------------------------------
 Center     Atomic      Atomic             Coordinates (Angstroms)
 Number     Number       Type             X           Y           Z
 ---------------------------------------------------------------------
      1          6           0       -0.000000    1.396329    0.000000
      2          6           0        1.209256    0.698164    0.000000
      3          6           0       -1.209256    0.698164    0.000000
      4          1           0        2.150061    1.241338    0.000000
      5          1           0       -2.150061    1.241338    0.000000
      6          6           0        1.209256   -0.698165    0.000000
      7          6           0       -1.209256   -0.698164    0.000000
      8          1           0        2.150061   -1.241338    0.000000
      9          1           0       -2.150061   -1.241338    0.000000
     10          6           0       -0.000000   -1.396329    0.000000
     11          1           0       -0.000000   -2.482676    0.000000
     12          1           0        0.000000    2.482676    0.000000
 ---------------------------------------------------------------------
 Rotational constants (GHZ):      5.6895274      5.6895274      2.8447637
 Leave Link  202 at Mon Jul 20 17:06:45 2026, MaxMem=  4026531840 cpu:         0.8
 (Enter /home/p20190052/g09/l301.exe)
 Standard basis: 6-31G(d) (6D, 7F)
 Ernie: Thresh=  0.10000D-02 Tol=  0.10000D-05 Strict=F.
 There are    60 symmetry adapted cartesian basis functions of A'  symmetry.
 There are    42 symmetry adapted cartesian basis functions of A"  symmetry.
 There are    60 symmetry adapted basis functions of A'  symmetry.
 There are    42 symmetry adapted basis functions of A"  symmetry.
   102 basis functions,   192 primitive gaussians,   102 cartesian basis functions
    21 alpha electrons       21 beta electrons
       nuclear repulsion energy       203.2409254978 Hartrees.
 IExCor=  402 DFT=T Ex+Corr=B3LYP ExCW=0 ScaHFX=  0.200000
 ScaDFX=  0.800000  0.720000  1.000000  0.810000 ScalE2=  1.000000  1.000000
 IRadAn=      0 IRanWt=     -1 IRanGd=            0 ICorTp=0 IEmpDi=  4
 NAtoms=   12 NActive=   12 NUniq=    4 SFac= 4.00D+00 NAtFMM=   60 NAOKFM=F Big=F
 Integral buffers will be    131072 words long.
 Raffenetti 2 integral format.
 Two-electron integral symmetry is turned on.
 Leave Link  301 at Mon Jul 20 17:06:45 2026, MaxMem=  4026531840 cpu:         2.0
 (Enter /home/p20190052/g09/l302.exe)
 NPDir=0 NMtPBC=     1 NCelOv=     1 NCel=       1 NClECP=     1 NCelD=      1
         NCelK=      1 NCelE2=     1 NClLst=     1 CellRange=     0.0.
 One-electron integrals computed using PRISM.
 One-electron integral symmetry used in STVInt
 NBasis=   102 RedAO= T EigKep=  4.40D-04  NBF=    60    42
 NBsUse=   102 1.00D-06 EigRej= -1.00D+00 NBFU=    60    42
 Precomputing XC quadrature grid using
 IXCGrd= 4 IRadAn=           0 IRanWt=          -1 IRanGd=           0 AccXCQ= 0.00D+00.
 Generated NRdTot=       0 NPtTot=           0 NUsed=           0 NTot=          32
 NSgBfM=   102   102   102   102   102 MxSgAt=    12 MxSgA2=    12.
 Leave Link  302 at Mon Jul 20 17:06:45 2026, MaxMem=  4026531840 cpu:        14.8
 (Enter /home/p20190052/g09/l303.exe)
 DipDrv:  MaxL=1.
 Leave Link  303 at Mon Jul 20 17:06:45 2026, MaxMem=  4026531840 cpu:         3.4
 (Enter /home/p20190052/g09/l401.exe)
 ExpMin= 1.61D-01 ExpMax= 3.05D+03 ExpMxC= 4.57D+02 IAcc=1 IRadAn=         1 AccDes= 0.00D+00
 Harris functional with IExCor=  402 and IRadAn=       1 diagonalized for initial guess.
 HarFok:  IExCor=  402 AccDes= 0.00D+00 IRadAn=         1 IDoV= 1 UseB2=F ITyADJ=14
 ICtDFT=  3500011 ScaDFX=  1.000000  1.000000  1.000000  1.000000
 FoFCou: FMM=F IPFlag=           0 FMFlag=      100000 FMFlg1=           0
         NFxFlg=           0 DoJE=T BraDBF=F KetDBF=T FulRan=T
         wScrn=  0.000000 ICntrl=     500 IOpCl=  0 I1Cent=   200000004 NGrid=           0
         NMat0=    1 NMatS0=      1 NMatT0=    0 NMatD0=    1 NMtDS0=    0 NMtDT0=    0
 Petite list used in FoFCou.
 Harris En= -232.278963681837    
 JPrj=0 DoOrth=F DoCkMO=F.
 Initial guess orbital symmetries:
       Occupied  (A1) (E) (E) (E) (E) (A1) (A1) (E) (E) (E) (E)
                 (A1) (A2) (A1) (E) (E) (A1) (E) (E) (E) (E)
       Virtual   (E) (E) (A1) (A1) (E) (E) (E) (E) (A1) (E) (E)
                 (E) (E) (A2) (A1) (A1) (A2) (A1) (E) (E) (A1)
                 (E) (E) (E) (E) (E) (E) (A1) (A1) (E) (E) (E)
                 (E) (A1) (E) (E) (A2) (E) (E) (E) (E) (A1) (A2)
                 (A1) (E) (E) (E) (E) (E) (E) (A1) (A2) (A1) (A1)
                 (E) (E) (E) (E) (E) (E) (E) (E) (E) (E) (A1) (E)
                 (E) (A2) (E) (E) (E) (E) (A1) (A2) (A1) (A1) (E)
                 (E) (E) (E) (A1)
 The electronic state of the initial guess is 1-A1.
 Leave Link  401 at Mon Jul 20 17:06:46 2026, MaxMem=  4026531840 cpu:        16.6
 (Enter /home/p20190052/g09/l502.exe)
 Closed shell SCF:
 Using DIIS extrapolation, IDIIS=  1040.
 Integral symmetry usage will be decided dynamically.
 Keep R1 ints in memory in symmetry-blocked form, NReq=20778530.
 IVT=       54902 IEndB=       54902 NGot=  4026531840 MDV=  4019553044
 LenX=  4019553044 LenY=  4019542199
 Requested convergence on RMS density matrix=1.00D-08 within 128 cycles.
 Requested convergence on MAX density matrix=1.00D-06.
 Requested convergence on             energy=1.00D-06.
 No special actions if energy rises.
 FoFCou: FMM=F IPFlag=           0 FMFlag=           0 FMFlg1=           0
         NFxFlg=           0 DoJE=F BraDBF=F KetDBF=F FulRan=T
         wScrn=  0.000000 ICntrl=     600 IOpCl=  0 I1Cent=           0 NGrid=           0
         NMat0=    1 NMatS0=   5253 NMatT0=    0 NMatD0=    1 NMtDS0=    0 NMtDT0=    0
 Petite list used in FoFCou.
 Integral accuracy reduced to 1.0D-05 until final iterations.

 Cycle   1  Pass 0  IDiag  1:
 E= -232.093774120520    
 DIIS: error= 3.60D-02 at cycle   1 NSaved=   1.
 NSaved= 1 IEnMin= 1 EnMin= -232.093774120520     IErMin= 1 ErrMin= 3.60D-02
 ErrMax= 3.60D-02  0.00D+00 EMaxC= 1.00D-01 BMatC= 1.35D-01 BMatP= 1.35D-01
 IDIUse=3 WtCom= 6.40D-01 WtEn= 3.60D-01
 Coeff-Com:  0.100D+01
 Coeff-En:   0.100D+01
 Coeff:      0.100D+01
 Gap=     0.250 Goal=   None    Shift=    0.000
 GapD=    0.250 DampG=1.000 DampE=0.500 DampFc=0.5000 IDamp=-1.
 Damping current iteration by 5.00D-01
 RMSDP=8.38D-03 MaxDP=1.14D-01              OVMax= 1.57D-01

 Cycle   2  Pass 0  IDiag  1:
 E= -232.167413209367     Delta-E=       -0.073639088846 Rises=F Damp=T
 DIIS: error= 8.36D-03 at cycle   2 NSaved=   2.
 NSaved= 2 IEnMin= 2 EnMin= -232.167413209367     IErMin= 2 ErrMin= 8.36D-03
 ErrMax= 8.36D-03  0.00D+00 EMaxC= 1.00D-01 BMatC= 6.52D-03 BMatP= 1.35D-01
 IDIUse=3 WtCom= 9.16D-01 WtEn= 8.36D-02
 Coeff-Com:  0.623D-02 0.994D+00
 Coeff-En:   0.447D-02 0.996D+00
 Coeff:      0.608D-02 0.994D+00
 Gap=     0.253 Goal=   None    Shift=    0.000
 RMSDP=1.76D-03 MaxDP=1.81D-02 DE=-7.36D-02 OVMax= 9.13D-02

 Cycle   3  Pass 0  IDiag  1:
 E= -232.247742458162     Delta-E=       -0.080329248795 Rises=F Damp=F
 DIIS: error= 4.54D-03 at cycle   3 NSaved=   3.
 NSaved= 3 IEnMin= 3 EnMin= -232.247742458162     IErMin= 3 ErrMin= 4.54D-03
 ErrMax= 4.54D-03  0.00D+00 EMaxC= 1.00D-01 BMatC= 1.00D-03 BMatP= 6.52D-03
 IDIUse=3 WtCom= 9.55D-01 WtEn= 4.54D-02
 Coeff-Com: -0.387D-01 0.240D+00 0.799D+00
 Coeff-En:   0.000D+00 0.000D+00 0.100D+01
 Coeff:     -0.369D-01 0.229D+00 0.808D+00
 Gap=     0.250 Goal=   None    Shift=    0.000
 RMSDP=4.37D-04 MaxDP=3.58D-03 DE=-8.03D-02 OVMax= 7.77D-03

 Cycle   4  Pass 0  IDiag  1:
 E= -232.248646052047     Delta-E=       -0.000903593885 Rises=F Damp=F
 DIIS: error= 5.72D-04 at cycle   4 NSaved=   4.
 NSaved= 4 IEnMin= 4 EnMin= -232.248646052047     IErMin= 4 ErrMin= 5.72D-04
 ErrMax= 5.72D-04  0.00D+00 EMaxC= 1.00D-01 BMatC= 3.01D-05 BMatP= 1.00D-03
 IDIUse=3 WtCom= 9.94D-01 WtEn= 5.72D-03
 Coeff-Com: -0.856D-02 0.176D-01 0.183D+00 0.808D+00
 Coeff-En:   0.000D+00 0.000D+00 0.000D+00 0.100D+01
 Coeff:     -0.851D-02 0.175D-01 0.182D+00 0.809D+00
 Gap=     0.250 Goal=   None    Shift=    0.000
 RMSDP=5.64D-05 MaxDP=4.32D-04 DE=-9.04D-04 OVMax= 9.86D-04

 Cycle   5  Pass 0  IDiag  1:
 E= -232.248673263963     Delta-E=       -0.000027211916 Rises=F Damp=F
 DIIS: error= 1.62D-05 at cycle   5 NSaved=   5.
 NSaved= 5 IEnMin= 5 EnMin= -232.248673263963     IErMin= 5 ErrMin= 1.62D-05
 ErrMax= 1.62D-05  0.00D+00 EMaxC= 1.00D-01 BMatC= 2.61D-08 BMatP= 3.01D-05
 IDIUse=1 WtCom= 1.00D+00 WtEn= 0.00D+00
 Coeff-Com: -0.302D-03-0.322D-03 0.664D-02 0.515D-01 0.942D+00
 Coeff:     -0.302D-03-0.322D-03 0.664D-02 0.515D-01 0.942D+00
 Gap=     0.250 Goal=   None    Shift=    0.000
 RMSDP=2.96D-06 MaxDP=2.52D-05 DE=-2.72D-05 OVMax= 3.97D-05

 Initial convergence to 1.0D-05 achieved.  Increase integral accuracy.
 Cycle   6  Pass 1  IDiag  1:
 E= -232.248655383741     Delta-E=        0.000017880222 Rises=F Damp=F
 DIIS: error= 4.26D-05 at cycle   1 NSaved=   1.
 NSaved= 1 IEnMin= 1 EnMin= -232.248655383741     IErMin= 1 ErrMin= 4.26D-05
 ErrMax= 4.26D-05  0.00D+00 EMaxC= 1.00D-01 BMatC= 3.63D-08 BMatP= 3.63D-08
 IDIUse=1 WtCom= 1.00D+00 WtEn= 0.00D+00
 Coeff-Com:  0.100D+01
 Coeff:      0.100D+01
 Gap=     0.250 Goal=   None    Shift=    0.000
 RMSDP=2.96D-06 MaxDP=2.52D-05 DE= 1.79D-05 OVMax= 1.12D-04

 Cycle   7  Pass 1  IDiag  1:
 E= -232.248655435504     Delta-E=       -0.000000051763 Rises=F Damp=F
 DIIS: error= 2.93D-06 at cycle   2 NSaved=   2.
 NSaved= 2 IEnMin= 2 EnMin= -232.248655435504     IErMin= 2 ErrMin= 2.93D-06
 ErrMax= 2.93D-06  0.00D+00 EMaxC= 1.00D-01 BMatC= 4.40D-10 BMatP= 3.63D-08
 IDIUse=1 WtCom= 1.00D+00 WtEn= 0.00D+00
 Coeff-Com: -0.216D-01 0.102D+01
 Coeff:     -0.216D-01 0.102D+01
 Gap=     0.250 Goal=   None    Shift=    0.000
 RMSDP=5.72D-07 MaxDP=5.22D-06 DE=-5.18D-08 OVMax= 9.47D-06

 Cycle   8  Pass 1  IDiag  1:
 E= -232.248655435682     Delta-E=       -0.000000000179 Rises=F Damp=F
 DIIS: error= 1.94D-06 at cycle   3 NSaved=   3.
 NSaved= 3 IEnMin= 3 EnMin= -232.248655435682     IErMin= 3 ErrMin= 1.94D-06
 ErrMax= 1.94D-06  0.00D+00 EMaxC= 1.00D-01 BMatC= 3.13D-10 BMatP= 4.40D-10
 IDIUse=1 WtCom= 1.00D+00 WtEn= 0.00D+00
 Coeff-Com: -0.167D-01 0.473D+00 0.544D+00
 Coeff:     -0.167D-01 0.473D+00 0.544D+00
 Gap=     0.250 Goal=   None    Shift=    0.000
 RMSDP=2.06D-07 MaxDP=2.86D-06 DE=-1.79D-10 OVMax= 5.30D-06

 Cycle   9  Pass 1  IDiag  1:
 E= -232.248655435974     Delta-E=       -0.000000000292 Rises=F Damp=F
 DIIS: error= 3.76D-07 at cycle   4 NSaved=   4.
 NSaved= 4 IEnMin= 4 EnMin= -232.248655435974     IErMin= 4 ErrMin= 3.76D-07
 ErrMax= 3.76D-07  0.00D+00 EMaxC= 1.00D-01 BMatC= 1.50D-11 BMatP= 3.13D-10
 IDIUse=1 WtCom= 1.00D+00 WtEn= 0.00D+00
 Coeff-Com: -0.566D-02 0.125D+00 0.224D+00 0.657D+00
 Coeff:     -0.566D-02 0.125D+00 0.224D+00 0.657D+00
 Gap=     0.250 Goal=   None    Shift=    0.000
 RMSDP=3.68D-08 MaxDP=7.55D-07 DE=-2.92D-10 OVMax= 1.34D-06

 Cycle  10  Pass 1  IDiag  1:
 E= -232.248655435988     Delta-E=       -0.000000000014 Rises=F Damp=F
 DIIS: error= 1.15D-07 at cycle   5 NSaved=   5.
 NSaved= 5 IEnMin= 5 EnMin= -232.248655435988     IErMin= 5 ErrMin= 1.15D-07
 ErrMax= 1.15D-07  0.00D+00 EMaxC= 1.00D-01 BMatC= 1.28D-12 BMatP= 1.50D-11
 IDIUse=1 WtCom= 1.00D+00 WtEn= 0.00D+00
 Coeff-Com: -0.157D-02 0.280D-01 0.640D-01 0.284D+00 0.626D+00
 Coeff:     -0.157D-02 0.280D-01 0.640D-01 0.284D+00 0.626D+00
 Gap=     0.250 Goal=   None    Shift=    0.000
 RMSDP=1.22D-08 MaxDP=2.55D-07 DE=-1.45D-11 OVMax= 5.43D-07

 Cycle  11  Pass 1  IDiag  1:
 E= -232.248655435989     Delta-E=       -0.000000000001 Rises=F Damp=F
 DIIS: error= 3.64D-08 at cycle   6 NSaved=   6.
 NSaved= 6 IEnMin= 6 EnMin= -232.248655435989     IErMin= 6 ErrMin= 3.64D-08
 ErrMax= 3.64D-08  0.00D+00 EMaxC= 1.00D-01 BMatC= 1.44D-13 BMatP= 1.28D-12
 IDIUse=1 WtCom= 1.00D+00 WtEn= 0.00D+00
 Coeff-Com: -0.162D-03 0.774D-03 0.782D-02 0.604D-01 0.306D+00 0.625D+00
 Coeff:     -0.162D-03 0.774D-03 0.782D-02 0.604D-01 0.306D+00 0.625D+00
 Gap=     0.250 Goal=   None    Shift=    0.000
 RMSDP=3.63D-09 MaxDP=5.11D-08 DE=-8.53D-13 OVMax= 6.90D-08

 SCF Done:  E(RB3LYP) =  -232.248655436     A.U. after   11 cycles
            NFock= 11  Conv=0.36D-08     -V/T= 2.0101
 KE= 2.299356650956D+02 PE=-9.438274248658D+02 EE= 2.784021788365D+02
 Leave Link  502 at Mon Jul 20 17:06:46 2026, MaxMem=  4026531840 cpu:        20.3
 (Enter /home/p20190052/g09/l601.exe)
 Copying SCF densities to generalized density rwf, IOpCl= 0 IROHF=0.

 **********************************************************************

            Population analysis using the SCF density.

 **********************************************************************

 Orbital symmetries:
       Occupied  (A1) (E) (E) (E) (E) (A1) (A1) (E) (E) (E) (E)
                 (A1) (A1) (A2) (E) (E) (A1) (E) (E) (E) (E)
       Virtual   (E) (E) (A1) (E) (E) (A1) (E) (E) (A1) (E) (E)
                 (E) (E) (A2) (A1) (A1) (A1) (A2) (A1) (E) (E)
                 (E) (E) (E) (E) (E) (E) (A1) (E) (E) (A1) (E)
                 (E) (E) (E) (A1) (A2) (E) (E) (E) (E) (A1) (A2)
                 (A1) (E) (E) (E) (E) (E) (E) (A1) (A2) (A1) (A1)
                 (E) (E) (E) (E) (E) (E) (E) (E) (E) (E) (A1) (E)
                 (E) (A2) (E) (E) (E) (E) (A1) (A2) (A1) (A1) (E)
                 (E) (E) (E) (A1)
 The electronic state is 1-A1.
 Alpha  occ. eigenvalues --  -10.18757 -10.18731 -10.18731 -10.18675 -10.18675
 Alpha  occ. eigenvalues --  -10.18649  -0.84645  -0.73993  -0.73993  -0.59760
 Alpha  occ. eigenvalues --   -0.59760  -0.51873  -0.45940  -0.43816  -0.41735
 Alpha  occ. eigenvalues --   -0.41735  -0.35947  -0.34030  -0.34030  -0.24631
 Alpha  occ. eigenvalues --   -0.24631
 Alpha virt. eigenvalues --    0.00369   0.00369   0.09096   0.14487   0.14487
 Alpha virt. eigenvalues --    0.16410   0.18203   0.18203   0.19052   0.30283
 Alpha virt. eigenvalues --    0.30283   0.31929   0.31929   0.47482   0.52734
 Alpha virt. eigenvalues --    0.54945   0.55036   0.56425   0.59249   0.60201
 Alpha virt. eigenvalues --    0.60201   0.60226   0.60226   0.62690   0.62690
 Alpha virt. eigenvalues --    0.66759   0.66759   0.74495   0.84045   0.84045
 Alpha virt. eigenvalues --    0.84151   0.86535   0.86535   0.93917   0.93917
 Alpha virt. eigenvalues --    0.94107   0.95828   1.08263   1.08263   1.14258
 Alpha virt. eigenvalues --    1.14258   1.20133   1.26192   1.39613   1.43684
 Alpha virt. eigenvalues --    1.43684   1.48708   1.48708   1.51543   1.51543
 Alpha virt. eigenvalues --    1.75709   1.79011   1.85802   1.89632   1.97443
 Alpha virt. eigenvalues --    1.97443   2.06654   2.06654   2.15184   2.15184
 Alpha virt. eigenvalues --    2.15487   2.15487   2.30980   2.30980   2.32200
 Alpha virt. eigenvalues --    2.54617   2.54617   2.65750   2.70636   2.70636
 Alpha virt. eigenvalues --    2.72224   2.72224   2.76050   3.01730   3.41154
 Alpha virt. eigenvalues --    4.08570   4.11797   4.11797   4.33055   4.33055
 Alpha virt. eigenvalues --    4.66631
          Condensed to atoms (all electrons):
               1          2          3          4          5          6
     1  C    4.848686   0.551598   0.551598  -0.043855  -0.043855  -0.031890
     2  C    0.551598   4.848584  -0.031901   0.358978   0.004799   0.551598
     3  C    0.551598  -0.031901   4.848584   0.004799   0.358978  -0.040991
     4  H   -0.043855   0.358978   0.004799   0.602187  -0.000183  -0.043855
     5  H   -0.043855   0.004799   0.358978  -0.000183   0.602187   0.000581
     6  C   -0.031890   0.551598  -0.040991  -0.043855   0.000581   4.848686
     7  C   -0.031890  -0.040991   0.551598   0.000581  -0.043855  -0.031890
     8  H    0.004799  -0.043851   0.000581  -0.005892   0.000016   0.358978
     9  H    0.004799   0.000581  -0.043851   0.000016  -0.005892   0.004799
    10  C   -0.040991  -0.031901  -0.031901   0.004799   0.004799   0.551598
    11  H    0.000581   0.004799   0.004799  -0.000183  -0.000183  -0.043855
    12  H    0.358978  -0.043851  -0.043851  -0.005892  -0.005892   0.004799
               7          8          9         10         11         12
     1  C   -0.031890   0.004799   0.004799  -0.040991   0.000581   0.358978
     2  C   -0.040991  -0.043851   0.000581  -0.031901   0.004799  -0.043851
     3  C    0.551598   0.000581  -0.043851  -0.031901   0.004799  -0.043851
     4  H    0.000581  -0.005892   0.000016   0.004799  -0.000183  -0.005892
     5  H   -0.043855   0.000016  -0.005892   0.004799  -0.000183  -0.005892
     6  C   -0.031890   0.358978   0.004799   0.551598  -0.043855   0.004799
     7  C    4.848686   0.004799   0.358978   0.551598  -0.043855   0.004799
     8  H    0.004799   0.602183  -0.000183  -0.043851  -0.005892  -0.000183
     9  H    0.358978  -0.000183   0.602183  -0.043851  -0.005892  -0.000183
    10  C    0.551598  -0.043851  -0.043851   4.848584   0.358978   0.000581
    11  H   -0.043855  -0.005892  -0.005892   0.358978   0.602187   0.000016
    12  H    0.004799  -0.000183  -0.000183   0.000581   0.000016   0.602183
 Mulliken charges:
               1
     1  C   -0.128556
     2  C   -0.128441
     3  C   -0.128441
     4  H    0.128500
     5  H    0.128500
     6  C   -0.128556
     7  C   -0.128556
     8  H    0.128497
     9  H    0.128497
    10  C   -0.128441
    11  H    0.128500
    12  H    0.128497
 Sum of Mulliken charges =  -0.00000
 Mulliken charges with hydrogens summed into heavy atoms:
               1
     1  C   -0.000059
     2  C    0.000059
     3  C    0.000059
     6  C   -0.000059
     7  C   -0.000059
    10  C    0.000059
 Electronic spatial extent (au):  <R**2>=            458.1059
 Charge=             -0.0000 electrons
 Dipole moment (field-independent basis, Debye):
    X=              0.0000    Y=             -0.0000    Z=             -0.0000  Tot=              0.0000
 Quadrupole moment (field-independent basis, Debye-Ang):
   XX=            -31.4018   YY=            -31.4018   ZZ=            -38.5929
   XY=              0.0000   XZ=             -0.0000   YZ=             -0.0000
 Traceless Quadrupole moment (field-independent basis, Debye-Ang):
   XX=              2.3970   YY=              2.3970   ZZ=             -4.7941
   XY=              0.0000   XZ=             -0.0000   YZ=             -0.0000
 Octapole moment (field-independent basis, Debye-Ang**2):
  XXX=              0.0000  YYY=             -0.0003  ZZZ=             -0.0000  XYY=              0.0000
  XXY=              0.0003  XXZ=              0.0000  XZZ=              0.0000  YZZ=              0.0000
  YYZ=              0.0000  XYZ=              0.0000
 Hexadecapole moment (field-independent basis, Debye-Ang**3):
 XXXX=           -270.0184 YYYY=           -270.0184 ZZZZ=            -40.0394 XXXY=              0.0000
 XXXZ=             -0.0000 YYYX=              0.0000 YYYZ=             -0.0000 ZZZX=             -0.0000
 ZZZY=             -0.0000 XXYY=            -90.0061 XXZZ=            -60.3288 YYZZ=            -60.3288
 XXYZ=              0.0000 YYXZ=             -0.0000 ZZXY=             -0.0000
 N-N= 2.032409254978D+02 E-N=-9.438274206192D+02  KE= 2.299356650956D+02
 Symmetry A'   KE= 1.499458569733D+02
 Symmetry A"   KE= 7.998980812226D+01
 No NMR shielding tensors so no spin-rotation constants.
 Leave Link  601 at Mon Jul 20 17:06:47 2026, MaxMem=  4026531840 cpu:        19.3
 (Enter /home/p20190052/g09/l701.exe)
 Compute integral first derivatives.
 ... and contract with generalized density number  0.
 Leave Link  701 at Mon Jul 20 17:06:47 2026, MaxMem=  4026531840 cpu:        15.4
 (Enter /home/p20190052/g09/l702.exe)
 L702 exits ... SP integral derivatives will be done elsewhere.
 Leave Link  702 at Mon Jul 20 17:06:47 2026, MaxMem=  4026531840 cpu:         0.7
 (Enter /home/p20190052/g09/l703.exe)
 Compute integral first derivatives, UseDBF=F ICtDFT=           0.
 Integral derivatives from FoFJK, PRISM(SPDF).
 Calling FoFJK, ICntrl=      2127 FMM=F ISym2X=1 I1Cent= 0 IOpClX= 0 NMat=1 NMatS=1 NMatT=0.
 FoFJK:  IHMeth= 1 ICntrl=    2127 DoSepK=F KAlg= 0 I1Cent=   0 FoldK=F
 IRaf=         0 NMat=   1 IRICut=       1 DoRegI=T DoRafI=F ISym2E= 1.
 FoFCou: FMM=F IPFlag=           0 FMFlag=      100000 FMFlg1=         800
         NFxFlg=           0 DoJE=F BraDBF=F KetDBF=F FulRan=T
         wScrn=  0.000000 ICntrl=    2127 IOpCl=  0 I1Cent=           0 NGrid=           0
         NMat0=    1 NMatS0=      1 NMatT0=    0 NMatD0=    1 NMtDS0=    0 NMtDT0=    0
 Petite list used in FoFCou.
 Leave Link  703 at Mon Jul 20 17:06:48 2026, MaxMem=  4026531840 cpu:         9.4
 (Enter /home/p20190052/g09/l716.exe)
 Dipole        = 5.70550968D-15 0.00000000D+00-5.93582659D-16
 ***** Axes restored to original set *****
 -------------------------------------------------------------------
 Center     Atomic                   Forces (Hartrees/Bohr)
 Number     Number              X              Y              Z
 -------------------------------------------------------------------
      1        6          -0.000000000    0.000000000    0.000172502
      2        6           0.000144785    0.000044421    0.000087437
      3        6          -0.000144785   -0.000044421    0.000087437
      4        1          -0.000381735   -0.000117119   -0.000230535
      5        1           0.000381735    0.000117119   -0.000230535
      6        6           0.000142820    0.000043818   -0.000086251
      7        6          -0.000142820   -0.000043818   -0.000086251
      8        1          -0.000382680   -0.000117409    0.000231105
      9        1           0.000382680    0.000117409    0.000231105
     10        6           0.000000000   -0.000000000   -0.000174875
     11        1           0.000000000   -0.000000000    0.000461069
     12        1          -0.000000000    0.000000000   -0.000462211
 -------------------------------------------------------------------
 Cartesian Forces:  Max     0.000462211 RMS     0.000201362
 Leave Link  716 at Mon Jul 20 17:06:48 2026, MaxMem=  4026531840 cpu:         0.8
 (Enter /home/p20190052/g09/l103.exe)

 GradGradGradGradGradGradGradGradGradGradGradGradGradGradGradGradGradGrad
 Berny optimization.
 FormGI is forming the generalized inverse of G from B-inverse, IUseBI=4.
 Internal  Forces:  Max     0.000462211 RMS     0.000181362
 Search for a local minimum.
 Step number   1 out of a maximum of   64
 All quantities printed in internal units (Hartrees-Bohrs-Radians)
 RMS Force = .18136D-03 SwitMx=.10000D-02 MixMth= 2
 Mixed Optimization -- En-DIIS/RFO-DIIS
 Second derivative matrix not updated -- first step.
 ITU=  0
     Eigenvalues ---    0.02137   0.02137   0.02137   0.02137   0.02137
     Eigenvalues ---    0.02137   0.02137   0.02137   0.02137   0.16000
     Eigenvalues ---    0.16000   0.16000   0.16000   0.16000   0.16000
     Eigenvalues ---    0.22000   0.22000   0.22000   0.35238   0.35238
     Eigenvalues ---    0.35238   0.35238   0.35238   0.35238   0.41939
     Eigenvalues ---    0.41939   0.46234   0.46234   0.46234   0.46234
 RFO step:  Lambda=-4.70471974D-06 EMin= 2.13731658D-02
 Linear search not attempted -- first point.
 Iteration  1 RMS(Cart)=  0.00067690 RMS(Int)=  0.00000001
 Iteration  2 RMS(Cart)=  0.00000000 RMS(Int)=  0.00000001
 ITry= 1 IFail=0 DXMaxC= 1.94D-03 DCOld= 1.00D+10 DXMaxT= 3.00D-01 DXLimC= 3.00D+00 Rises=F
 ClnCor:  largest displacement from symmetrization is 1.78D-08 for atom     5.
 Variable       Old X    -DE/DX   Delta X   Delta X   Delta X     New X
                                 (Linear)    (Quad)   (Total)
    R1        2.63868   0.00029   0.00000   0.00062   0.00062   2.63930
    R2        2.63868   0.00029   0.00000   0.00062   0.00062   2.63930
    R3        2.05290   0.00046   0.00000   0.00131   0.00131   2.05421
    R4        2.05290   0.00046   0.00000   0.00131   0.00131   2.05421
    R5        2.63868   0.00029   0.00000   0.00062   0.00062   2.63930
    R6        2.05290   0.00046   0.00000   0.00131   0.00131   2.05421
    R7        2.63868   0.00029   0.00000   0.00062   0.00062   2.63930
    R8        2.05290   0.00046   0.00000   0.00131   0.00131   2.05421
    R9        2.63868   0.00029   0.00000   0.00062   0.00062   2.63930
   R10        2.05290   0.00046   0.00000   0.00131   0.00131   2.05421
   R11        2.63868   0.00029   0.00000   0.00062   0.00062   2.63930
   R12        2.05290   0.00046   0.00000   0.00131   0.00131   2.05421
    A1        2.09439  -0.00000   0.00000  -0.00000  -0.00000   2.09439
    A2        2.09440   0.00000   0.00000   0.00000   0.00000   2.09440
    A3        2.09440   0.00000   0.00000   0.00000   0.00000   2.09440
    A4        2.09440  -0.00000   0.00000  -0.00000  -0.00000   2.09439
    A5        2.09440   0.00000   0.00000   0.00000   0.00000   2.09440
    A6        2.09440  -0.00000   0.00000  -0.00000  -0.00000   2.09439
    A7        2.09440  -0.00000   0.00000  -0.00000  -0.00000   2.09439
    A8        2.09440   0.00000   0.00000   0.00000   0.00000   2.09440
    A9        2.09440  -0.00000   0.00000  -0.00000  -0.00000   2.09439
   A10        2.09440   0.00000   0.00000   0.00000   0.00000   2.09440
   A11        2.09439  -0.00000   0.00000  -0.00000  -0.00000   2.09439
   A12        2.09440   0.00000   0.00000   0.00000   0.00000   2.09440
   A13        2.09440   0.00000   0.00000   0.00000   0.00000   2.09440
   A14        2.09439  -0.00000   0.00000  -0.00000  -0.00000   2.09439
   A15        2.09440   0.00000   0.00000   0.00000   0.00000   2.09440
   A16        2.09440   0.00000   0.00000   0.00000   0.00000   2.09440
   A17        2.09440  -0.00000   0.00000  -0.00000  -0.00000   2.09439
   A18        2.09440  -0.00000   0.00000  -0.00000  -0.00000   2.09439
    D1        3.14159   0.00000   0.00000   0.00000  -0.00000   3.14159
    D2        0.00000   0.00000   0.00000   0.00000  -0.00000   0.00000
    D3        0.00000  -0.00000   0.00000  -0.00000  -0.00000   0.00000
    D4        3.14159   0.00000   0.00000   0.00000   0.00000   3.14159
    D5        3.14159  -0.00000   0.00000  -0.00000   0.00000   3.14159
    D6       -0.00000  -0.00000   0.00000  -0.00000   0.00000   0.00000
    D7        0.00000   0.00000   0.00000   0.00000   0.00000   0.00000
    D8        3.14159  -0.00000   0.00000  -0.00000   0.00000   3.14159
    D9        3.14159  -0.00000   0.00000  -0.00000   0.00000  -3.14159
   D10       -0.00000  -0.00000   0.00000  -0.00000   0.00000   0.00000
   D11        0.00000   0.00000   0.00000   0.00000   0.00000   0.00000
   D12        3.14159  -0.00000   0.00000  -0.00000   0.00000   3.14159
   D13        3.14159   0.00000   0.00000   0.00000   0.00000   3.14159
   D14        0.00000   0.00000   0.00000   0.00000  -0.00000   0.00000
   D15       -0.00000  -0.00000   0.00000  -0.00000  -0.00000  -0.00000
   D16        3.14159   0.00000   0.00000   0.00000  -0.00000   3.14159
   D17        0.00000   0.00000   0.00000   0.00000  -0.00000   0.00000
   D18        3.14159   0.00000   0.00000   0.00000   0.00000   3.14159
   D19        3.14159   0.00000   0.00000   0.00000   0.00000   3.14159
   D20       -0.00000  -0.00000   0.00000  -0.00000   0.00000   0.00000
   D21       -0.00000  -0.00000   0.00000  -0.00000   0.00000   0.00000
   D22        3.14159  -0.00000   0.00000  -0.00000   0.00000   3.14159
   D23        3.14159  -0.00000   0.00000  -0.00000   0.00000   3.14159
   D24        0.00000   0.00000   0.00000   0.00000   0.00000   0.00000
         Item               Value     Threshold  Converged?
 Maximum Force            0.000462     0.000450     NO 
 RMS     Force            0.000181     0.000300     YES
 Maximum Displacement     0.001938     0.001800     NO 
 RMS     Displacement     0.000677     0.001200     YES
 Predicted change in Energy=-2.352360D-06
 Lowest energy point so far.  Saving SCF results.
 GradGradGradGradGradGradGradGradGradGradGradGradGradGradGradGradGradGrad

 Leave Link  103 at Mon Jul 20 17:06:48 2026, MaxMem=  4026531840 cpu:         0.9
 (Enter /home/p20190052/g09/l202.exe)
                          Input orientation:                          
 ---------------------------------------------------------------------
 Center     Atomic      Atomic             Coordinates (Angstroms)
 Number     Number       Type             X           Y           Z
 ---------------------------------------------------------------------
      1          6           0       -2.192237   -0.286263   -3.894307
      2          6           0       -3.348578   -0.641036   -3.195975
      3          6           0       -1.035897    0.068511   -3.195975
      4          1           0       -4.248576   -0.917162   -3.739495
      5          1           0       -0.135899    0.344637   -3.739495
      6          6           0       -3.348581   -0.641037   -1.799316
      7          6           0       -1.035894    0.068512   -1.799316
      8          1           0       -4.248580   -0.917164   -1.255796
      9          1           0       -0.135895    0.344638   -1.255796
     10          6           0       -2.192237   -0.286263   -1.100990
     11          1           0       -2.192237   -0.286263   -0.013950
     12          1           0       -2.192237   -0.286263   -4.981348
 ---------------------------------------------------------------------
                    Distance matrix (angstroms):
                    1          2          3          4          5
     1  C    0.000000
     2  C    1.396659   0.000000
     3  C    1.396659   2.419081   0.000000
     4  H    2.156509   1.087040   3.404155   0.000000
     5  H    2.156509   3.404155   1.087040   4.301889   0.000000
     6  C    2.419086   1.396659   2.793317   2.156509   3.880357
     7  C    2.419086   2.793317   1.396659   3.880357   2.156509
     8  H    3.404162   2.156512   3.880359   2.483699   4.967399
     9  H    3.404162   3.880359   2.156512   4.967399   2.483699
    10  C    2.793317   2.419081   2.419081   3.404155   3.404155
    11  H    3.880357   3.404155   3.404155   4.301889   4.301889
    12  H    1.087042   2.156512   2.156512   2.483699   2.483699
                    6          7          8          9         10
     6  C    0.000000
     7  C    2.419086   0.000000
     8  H    1.087042   3.404162   0.000000
     9  H    3.404162   1.087042   4.301898   0.000000
    10  C    1.396659   1.396659   2.156512   2.156512   0.000000
    11  H    2.156509   2.156509   2.483699   2.483699   1.087040
    12  H    3.404162   3.404162   4.301898   4.301898   3.880359
                   11         12
    11  H    0.000000
    12  H    4.967399   0.000000
 Stoichiometry    C6H6
 Framework group  C3V[3SGV(C2H2)]
 Deg. of freedom     7
 Full point group                 C3V     NOp   6
 RotChk:  IX=2 Diff= 1.41D+00
 Largest Abelian subgroup         CS      NOp   2
 Largest concise Abelian subgroup CS      NOp   2
                         Standard orientation:                         
 ---------------------------------------------------------------------
 Center     Atomic      Atomic             Coordinates (Angstroms)
 Number     Number       Type             X           Y           Z
 ---------------------------------------------------------------------
      1          6           0       -1.209543    0.698330   -0.000000
      2          6           0       -0.000000    1.396657    0.000000
      3          6           0       -1.209540   -0.698328    0.000000
      4          1           0       -0.000000    2.483697    0.000000
      5          1           0       -2.150944   -1.241848    0.000000
      6          6           0        1.209543    0.698330   -0.000000
      7          6           0        0.000000   -1.396660   -0.000000
      8          1           0        2.150949    1.241851   -0.000000
      9          1           0        0.000000   -2.483702   -0.000000
     10          6           0        1.209540   -0.698328    0.000000
     11          1           0        2.150944   -1.241848    0.000000
     12          1           0       -2.150949    1.241851    0.000000
 ---------------------------------------------------------------------
 Rotational constants (GHZ):      5.6864228      5.6864228      2.8432114
 Leave Link  202 at Mon Jul 20 17:06:48 2026, MaxMem=  4026531840 cpu:         0.3
 (Enter /home/p20190052/g09/l301.exe)
 Standard basis: 6-31G(d) (6D, 7F)
 Ernie: Thresh=  0.10000D-02 Tol=  0.10000D-05 Strict=F.
 There are    60 symmetry adapted cartesian basis functions of A'  symmetry.
 There are    42 symmetry adapted cartesian basis functions of A"  symmetry.
 There are    60 symmetry adapted basis functions of A'  symmetry.
 There are    42 symmetry adapted basis functions of A"  symmetry.
   102 basis functions,   192 primitive gaussians,   102 cartesian basis functions
    21 alpha electrons       21 beta electrons
       nuclear repulsion energy       203.1806511830 Hartrees.
 IExCor=  402 DFT=T Ex+Corr=B3LYP ExCW=0 ScaHFX=  0.200000
 ScaDFX=  0.800000  0.720000  1.000000  0.810000 ScalE2=  1.000000  1.000000
 IRadAn=      0 IRanWt=     -1 IRanGd=            0 ICorTp=0 IEmpDi=  4
 NAtoms=   12 NActive=   12 NUniq=    4 SFac= 4.00D+00 NAtFMM=   60 NAOKFM=F Big=F
 Integral buffers will be    131072 words long.
 Raffenetti 2 integral format.
 Two-electron integral symmetry is turned on.
 Leave Link  301 at Mon Jul 20 17:06:48 2026, MaxMem=  4026531840 cpu:         2.2
 (Enter /home/p20190052/g09/l302.exe)
 NPDir=0 NMtPBC=     1 NCelOv=     1 NCel=       1 NClECP=     1 NCelD=      1
         NCelK=      1 NCelE2=     1 NClLst=     1 CellRange=     0.0.
 One-electron integrals computed using PRISM.
 One-electron integral symmetry used in STVInt
 NBasis=   102 RedAO= T EigKep=  4.41D-04  NBF=    60    42
 NBsUse=   102 1.00D-06 EigRej= -1.00D+00 NBFU=    60    42
 Precomputing XC quadrature grid using
 IXCGrd= 4 IRadAn=           0 IRanWt=          -1 IRanGd=           0 AccXCQ= 0.00D+00.
 Generated NRdTot=       0 NPtTot=           0 NUsed=           0 NTot=          32
 NSgBfM=   102   102   102   102   102 MxSgAt=    12 MxSgA2=    12.
 Leave Link  302 at Mon Jul 20 17:06:48 2026, MaxMem=  4026531840 cpu:        15.0
 (Enter /home/p20190052/g09/l303.exe)
 DipDrv:  MaxL=1.
 Leave Link  303 at Mon Jul 20 17:06:48 2026, MaxMem=  4026531840 cpu:         2.4
 (Enter /home/p20190052/g09/l401.exe)
 Initial guess from the checkpoint file:  "Benzene_b3lyp_6-31g_d.chk"
 B after Tr=     0.000000    0.000000   -0.000000
         Rot=    0.866025    0.000000   -0.000000   -0.500000 Ang= -60.00 deg.
 Guess basis will be translated and rotated to current coordinates.
 JPrj=2 DoOrth=T DoCkMO=T.
 Initial guess orbital symmetries:
       Occupied  (?A) (?A) (?A) (?A) (?A) (?A) (?A) (?A) (?A) (?A)
                 (?A) (?A) (?A) (?A) (?A) (?A) (?B) (?A) (?A) (?C)
                 (?C)
       Virtual   (?A) (?A) (?A) (?B) (?A) (?A) (?C) (?A) (?A) (?B)
                 (?C) (?A) (?A) (?A) (?B) (?A) (?A) (?A) (?A) (?A)
                 (?A) (?B) (?C) (?A) (?A) (?A) (?B) (?A) (?C) (?A)
                 (?B) (?C) (?A) (?A) (?C) (?A) (?A) (?A) (?A) (?A)
                 (?A) (?A) (?A) (?A) (?A) (?A) (?A) (?A) (?A) (?A)
                 (?A) (?A) (?C) (?B) (?A) (?A) (?C) (?A) (?C) (?A)
                 (?B) (?A) (?A) (?A) (?C) (?A) (?A) (?B) (?A) (?A)
                 (?B) (?A) (?A) (?A) (?A) (?A) (?A) (?A) (?B) (?A)
                 (?A)
 Leave Link  401 at Mon Jul 20 17:06:49 2026, MaxMem=  4026531840 cpu:         3.1
 (Enter /home/p20190052/g09/l502.exe)
 Closed shell SCF:
 Using DIIS extrapolation, IDIIS=  1040.
 Integral symmetry usage will be decided dynamically.
 Keep R1 ints in memory in symmetry-blocked form, NReq=20778530.
 IVT=       54902 IEndB=       54902 NGot=  4026531840 MDV=  4019553044
 LenX=  4019553044 LenY=  4019542199
 Requested convergence on RMS density matrix=1.00D-08 within 128 cycles.
 Requested convergence on MAX density matrix=1.00D-06.
 Requested convergence on             energy=1.00D-06.
 No special actions if energy rises.
 FoFCou: FMM=F IPFlag=           0 FMFlag=           0 FMFlg1=           0
         NFxFlg=           0 DoJE=F BraDBF=F KetDBF=F FulRan=T
         wScrn=  0.000000 ICntrl=     600 IOpCl=  0 I1Cent=           0 NGrid=           0
         NMat0=    1 NMatS0=   5253 NMatT0=    0 NMatD0=    1 NMtDS0=    0 NMtDT0=    0
 Petite list used in FoFCou.
 An orbital has undefined symmetry, so N**3 symmetry is turned off.

 Cycle   1  Pass 1  IDiag  1:
 E= -232.248658249364    
 DIIS: error= 5.90D-05 at cycle   1 NSaved=   1.
 NSaved= 1 IEnMin= 1 EnMin= -232.248658249364     IErMin= 1 ErrMin= 5.90D-05
 ErrMax= 5.90D-05  0.00D+00 EMaxC= 1.00D-01 BMatC= 3.67D-07 BMatP= 3.67D-07
 IDIUse=1 WtCom= 1.00D+00 WtEn= 0.00D+00
 Coeff-Com:  0.100D+01
 Coeff:      0.100D+01
 Gap=     1.694 Goal=   None    Shift=    0.000
 RMSDP=1.21D-05 MaxDP=1.45D-04              OVMax= 2.07D-04

 Cycle   2  Pass 1  IDiag  1:
 E= -232.248658625239     Delta-E=       -0.000000375876 Rises=F Damp=F
 DIIS: error= 2.94D-05 at cycle   2 NSaved=   2.
 NSaved= 2 IEnMin= 2 EnMin= -232.248658625239     IErMin= 2 ErrMin= 2.94D-05
 ErrMax= 2.94D-05  0.00D+00 EMaxC= 1.00D-01 BMatC= 9.05D-08 BMatP= 3.67D-07
 IDIUse=1 WtCom= 1.00D+00 WtEn= 0.00D+00
 Coeff-Com:  0.294D+00 0.706D+00
 Coeff:      0.294D+00 0.706D+00
 Gap=     0.250 Goal=   None    Shift=    0.000
 DSYEVD-2 returned Info=         205 IAlg= 4 N=   102 NDim=   102 NE2=    39407275 trying  DSYEV.
 RMSDP=4.77D-06 MaxDP=6.78D-05 DE=-3.76D-07 OVMax= 8.74D-05

 Cycle   3  Pass 1  IDiag  1:
 E= -232.248658711101     Delta-E=       -0.000000085862 Rises=F Damp=F
 DIIS: error= 1.47D-05 at cycle   3 NSaved=   3.
 NSaved= 3 IEnMin= 3 EnMin= -232.248658711101     IErMin= 3 ErrMin= 1.47D-05
 ErrMax= 1.47D-05  0.00D+00 EMaxC= 1.00D-01 BMatC= 1.64D-08 BMatP= 9.05D-08
 IDIUse=1 WtCom= 1.00D+00 WtEn= 0.00D+00
 Coeff-Com:  0.451D-01 0.307D+00 0.648D+00
 Coeff:      0.451D-01 0.307D+00 0.648D+00
 Gap=     0.250 Goal=   None    Shift=    0.000
 DSYEVD-2 returned Info=         205 IAlg= 4 N=   102 NDim=   102 NE2=    39407275 trying  DSYEV.
 RMSDP=1.57D-06 MaxDP=1.77D-05 DE=-8.59D-08 OVMax= 3.37D-05

 Cycle   4  Pass 1  IDiag  1:
 E= -232.248658728065     Delta-E=       -0.000000016964 Rises=F Damp=F
 DIIS: error= 2.42D-06 at cycle   4 NSaved=   4.
 NSaved= 4 IEnMin= 4 EnMin= -232.248658728065     IErMin= 4 ErrMin= 2.42D-06
 ErrMax= 2.42D-06  0.00D+00 EMaxC= 1.00D-01 BMatC= 3.60D-10 BMatP= 1.64D-08
 IDIUse=1 WtCom= 1.00D+00 WtEn= 0.00D+00
 Coeff-Com: -0.236D-02 0.559D-01 0.190D+00 0.756D+00
 Coeff:     -0.236D-02 0.559D-01 0.190D+00 0.756D+00
 Gap=     0.250 Goal=   None    Shift=    0.000
 DSYEVD-2 returned Info=         205 IAlg= 4 N=   102 NDim=   102 NE2=    39407275 trying  DSYEV.
 RMSDP=2.25D-07 MaxDP=1.67D-06 DE=-1.70D-08 OVMax= 3.40D-06

 Cycle   5  Pass 1  IDiag  1:
 E= -232.248658728387     Delta-E=       -0.000000000322 Rises=F Damp=F
 DIIS: error= 1.57D-07 at cycle   5 NSaved=   5.
 NSaved= 5 IEnMin= 5 EnMin= -232.248658728387     IErMin= 5 ErrMin= 1.57D-07
 ErrMax= 1.57D-07  0.00D+00 EMaxC= 1.00D-01 BMatC= 2.93D-12 BMatP= 3.60D-10
 IDIUse=1 WtCom= 1.00D+00 WtEn= 0.00D+00
 Coeff-Com: -0.125D-02 0.392D-02 0.195D-01 0.121D+00 0.857D+00
 Coeff:     -0.125D-02 0.392D-02 0.195D-01 0.121D+00 0.857D+00
 Gap=     0.250 Goal=   None    Shift=    0.000
 RMSDP=2.50D-08 MaxDP=4.92D-07 DE=-3.22D-10 OVMax= 1.10D-06

 Cycle   6  Pass 1  IDiag  1:
 E= -232.248658728387     Delta-E=       -0.000000000000 Rises=F Damp=F
 DIIS: error= 1.73D-07 at cycle   6 NSaved=   6.
 NSaved= 6 IEnMin= 6 EnMin= -232.248658728387     IErMin= 5 ErrMin= 1.57D-07
 ErrMax= 1.73D-07  0.00D+00 EMaxC= 1.00D-01 BMatC= 2.33D-12 BMatP= 2.93D-12
 IDIUse=1 WtCom= 1.00D+00 WtEn= 0.00D+00
 Coeff-Com: -0.670D-03-0.206D-03 0.300D-02 0.382D-01 0.512D+00 0.448D+00
 Coeff:     -0.670D-03-0.206D-03 0.300D-02 0.382D-01 0.512D+00 0.448D+00
 Gap=     0.250 Goal=   None    Shift=    0.000
 RMSDP=1.15D-08 MaxDP=2.28D-07 DE=-1.71D-13 OVMax= 5.28D-07

 Cycle   7  Pass 1  IDiag  1:
 E= -232.248658728390     Delta-E=       -0.000000000002 Rises=F Damp=F
 DIIS: error= 2.21D-09 at cycle   7 NSaved=   7.
 NSaved= 7 IEnMin= 7 EnMin= -232.248658728390     IErMin= 7 ErrMin= 2.21D-09
 ErrMax= 2.21D-09  0.00D+00 EMaxC= 1.00D-01 BMatC= 5.46D-16 BMatP= 2.33D-12
 IDIUse=1 WtCom= 1.00D+00 WtEn= 0.00D+00
 Coeff-Com:  0.123D-04-0.833D-04-0.469D-03-0.186D-02-0.490D-02 0.306D-02
 Coeff-Com:  0.100D+01
 Coeff:      0.123D-04-0.833D-04-0.469D-03-0.186D-02-0.490D-02 0.306D-02
 Coeff:      0.100D+01
 Gap=     0.250 Goal=   None    Shift=    0.000
 DSYEVD-2 returned Info=         205 IAlg= 4 N=   102 NDim=   102 NE2=    39407275 trying  DSYEV.
 RMSDP=4.61D-10 MaxDP=6.44D-09 DE=-2.44D-12 OVMax= 1.44D-08

 SCF Done:  E(RB3LYP) =  -232.248658728     A.U. after    7 cycles
            NFock=  7  Conv=0.46D-09     -V/T= 2.0101
 KE= 2.299250055580D+02 PE=-9.436981206828D+02 EE= 2.783438052135D+02
 Leave Link  502 at Mon Jul 20 17:06:49 2026, MaxMem=  4026531840 cpu:        19.7
 (Enter /home/p20190052/g09/l701.exe)
 Compute integral first derivatives.
 ... and contract with generalized density number  0.
 Leave Link  701 at Mon Jul 20 17:06:50 2026, MaxMem=  4026531840 cpu:        19.2
 (Enter /home/p20190052/g09/l702.exe)
 L702 exits ... SP integral derivatives will be done elsewhere.
 Leave Link  702 at Mon Jul 20 17:06:50 2026, MaxMem=  4026531840 cpu:         0.7
 (Enter /home/p20190052/g09/l703.exe)
 Compute integral first derivatives, UseDBF=F ICtDFT=           0.
 Integral derivatives from FoFJK, PRISM(SPDF).
 Calling FoFJK, ICntrl=      2127 FMM=F ISym2X=1 I1Cent= 0 IOpClX= 0 NMat=1 NMatS=1 NMatT=0.
 FoFJK:  IHMeth= 1 ICntrl=    2127 DoSepK=F KAlg= 0 I1Cent=   0 FoldK=F
 IRaf=         0 NMat=   1 IRICut=       1 DoRegI=T DoRafI=F ISym2E= 1.
 FoFCou: FMM=F IPFlag=           0 FMFlag=      100000 FMFlg1=         800
         NFxFlg=           0 DoJE=F BraDBF=F KetDBF=F FulRan=T
         wScrn=  0.000000 ICntrl=    2127 IOpCl=  0 I1Cent=           0 NGrid=           0
         NMat0=    1 NMatS0=      1 NMatT0=    0 NMatD0=    1 NMtDS0=    0 NMtDT0=    0
 Petite list used in FoFCou.
 Leave Link  703 at Mon Jul 20 17:06:50 2026, MaxMem=  4026531840 cpu:        11.5
 (Enter /home/p20190052/g09/l716.exe)
 Dipole        =-2.66453526D-15 1.11022302D-14-2.15391663D-15
 ***** Axes restored to original set *****
 -------------------------------------------------------------------
 Center     Atomic                   Forces (Hartrees/Bohr)
 Number     Number              X              Y              Z
 -------------------------------------------------------------------
      1        6          -0.000000000    0.000000000    0.000031176
      2        6           0.000022088    0.000006777    0.000013339
      3        6          -0.000022088   -0.000006777    0.000013339
      4        1           0.000013132    0.000004029    0.000007931
      5        1          -0.000013132   -0.000004029    0.000007931
      6        6           0.000025812    0.000007919   -0.000015588
      7        6          -0.000025812   -0.000007919   -0.000015588
      8        1           0.000015158    0.000004651   -0.000009154
      9        1          -0.000015158   -0.000004651   -0.000009154
     10        6           0.000000000   -0.000000000   -0.000026678
     11        1           0.000000000   -0.000000000   -0.000015861
     12        1          -0.000000000    0.000000000    0.000018309
 -------------------------------------------------------------------
 Cartesian Forces:  Max     0.000031176 RMS     0.000013755
 Leave Link  716 at Mon Jul 20 17:06:50 2026, MaxMem=  4026531840 cpu:         0.7
 (Enter /home/p20190052/g09/l103.exe)

 GradGradGradGradGradGradGradGradGradGradGradGradGradGradGradGradGradGrad
 Berny optimization.
 Using GEDIIS/GDIIS optimizer.
 FormGI is forming the generalized inverse of G from B-inverse, IUseBI=4.
 Internal  Forces:  Max     0.000046012 RMS     0.000016381
 Search for a local minimum.
 Step number   2 out of a maximum of   64
 All quantities printed in internal units (Hartrees-Bohrs-Radians)
 RMS Force = .16381D-04 SwitMx=.10000D-02 MixMth= 2
 Mixed Optimization -- En-DIIS/RFO-DIIS
 Swapping is turned off.
 Update second derivatives using D2CorX and points    1    2
 DE= -3.29D-06 DEPred=-2.35D-06 R= 1.40D+00
 TightC=F SS=  1.41D+00  RLast= 3.55D-03 DXNew= 5.0454D-01 1.0659D-02
 Trust test= 1.40D+00 RLast= 3.55D-03 DXMaxT set to 3.00D-01
 ITU=  1  0
     Eigenvalues ---    0.02137   0.02137   0.02137   0.02137   0.02137
     Eigenvalues ---    0.02137   0.02137   0.02137   0.02137   0.16000
     Eigenvalues ---    0.16000   0.16000   0.16000   0.16000   0.16000
     Eigenvalues ---    0.22000   0.22000   0.22000   0.35124   0.35238
     Eigenvalues ---    0.35238   0.35238   0.35238   0.35270   0.41940
     Eigenvalues ---    0.41940   0.46234   0.46234   0.46234   0.49361
 En-DIIS/RFO-DIIS IScMMF=        0 using points:     2    1
 RFO step:  Lambda=-2.07909064D-08.
 NNeg= 0 NP= 2 Switch=  2.50D-03 Rises=F DC=  3.29D-06 SmlDif=  1.00D-05
 RMS Error=  0.2352232426D-04 NUsed= 2 EDIIS=F
 DidBck=F Rises=F RFO-DIIS coefs:    0.93887    0.06113
 Iteration  1 RMS(Cart)=  0.00005439 RMS(Int)=  0.00000001
 Iteration  2 RMS(Cart)=  0.00000000 RMS(Int)=  0.00000000
 ITry= 1 IFail=0 DXMaxC= 1.43D-04 DCOld= 1.00D+10 DXMaxT= 3.00D-01 DXLimC= 3.00D+00 Rises=F
 ClnCor:  largest displacement from symmetrization is 2.54D-08 for atom     5.
 Variable       Old X    -DE/DX   Delta X   Delta X   Delta X     New X
                                 (Linear)    (Quad)   (Total)
    R1        2.63930  -0.00005  -0.00004  -0.00005  -0.00009   2.63921
    R2        2.63930  -0.00005  -0.00004  -0.00005  -0.00009   2.63921
    R3        2.05421  -0.00002  -0.00008   0.00003  -0.00005   2.05417
    R4        2.05421  -0.00002  -0.00008   0.00004  -0.00004   2.05417
    R5        2.63930  -0.00005  -0.00004  -0.00005  -0.00009   2.63921
    R6        2.05421  -0.00002  -0.00008   0.00004  -0.00004   2.05417
    R7        2.63930  -0.00005  -0.00004  -0.00005  -0.00009   2.63921
    R8        2.05421  -0.00002  -0.00008   0.00003  -0.00005   2.05417
    R9        2.63930  -0.00005  -0.00004  -0.00005  -0.00009   2.63921
   R10        2.05421  -0.00002  -0.00008   0.00003  -0.00005   2.05417
   R11        2.63930  -0.00005  -0.00004  -0.00005  -0.00009   2.63921
   R12        2.05421  -0.00002  -0.00008   0.00004  -0.00004   2.05417
    A1        2.09439   0.00000   0.00000   0.00001   0.00001   2.09440
    A2        2.09440  -0.00000  -0.00000  -0.00000  -0.00000   2.09439
    A3        2.09440  -0.00000  -0.00000  -0.00000  -0.00000   2.09439
    A4        2.09439   0.00000   0.00000   0.00000   0.00000   2.09440
    A5        2.09440  -0.00000  -0.00000  -0.00001  -0.00001   2.09439
    A6        2.09439   0.00000   0.00000   0.00000   0.00000   2.09440
    A7        2.09439   0.00000   0.00000   0.00000   0.00000   2.09440
    A8        2.09440  -0.00000  -0.00000  -0.00001  -0.00001   2.09439
    A9        2.09439   0.00000   0.00000   0.00000   0.00000   2.09440
   A10        2.09440  -0.00000  -0.00000  -0.00000  -0.00000   2.09439
   A11        2.09439   0.00000   0.00000   0.00001   0.00001   2.09440
   A12        2.09440  -0.00000  -0.00000  -0.00000  -0.00000   2.09439
   A13        2.09440  -0.00000  -0.00000  -0.00000  -0.00000   2.09439
   A14        2.09439   0.00000   0.00000   0.00001   0.00001   2.09440
   A15        2.09440  -0.00000  -0.00000  -0.00000  -0.00000   2.09439
   A16        2.09440  -0.00000  -0.00000  -0.00001  -0.00001   2.09439
   A17        2.09439   0.00000   0.00000   0.00000   0.00000   2.09440
   A18        2.09439   0.00000   0.00000   0.00000   0.00000   2.09440
    D1       -3.14159   0.00000  -0.00000   0.00000  -0.00000   3.14159
    D2        0.00000   0.00000   0.00000   0.00000  -0.00000   0.00000
    D3        0.00000  -0.00000   0.00000  -0.00000   0.00000   0.00000
    D4        3.14159   0.00000   0.00000  -0.00000   0.00000  -3.14159
    D5        3.14159  -0.00000   0.00000  -0.00000   0.00000   3.14159
    D6       -0.00000  -0.00000   0.00000  -0.00000   0.00000   0.00000
    D7        0.00000   0.00000   0.00000   0.00000  -0.00000   0.00000
    D8        3.14159  -0.00000   0.00000   0.00000   0.00000   3.14159
    D9        3.14159  -0.00000   0.00000  -0.00000   0.00000   3.14159
   D10       -0.00000  -0.00000   0.00000  -0.00000   0.00000   0.00000
   D11       -0.00000   0.00000   0.00000  -0.00000   0.00000   0.00000
   D12        3.14159  -0.00000   0.00000  -0.00000   0.00000   3.14159
   D13        3.14159   0.00000   0.00000  -0.00000   0.00000   3.14159
   D14        0.00000   0.00000   0.00000   0.00000  -0.00000   0.00000
   D15       -0.00000  -0.00000   0.00000  -0.00000   0.00000   0.00000
   D16        3.14159   0.00000   0.00000   0.00000   0.00000   3.14159
   D17        0.00000   0.00000  -0.00000   0.00000  -0.00000   0.00000
   D18        3.14159   0.00000   0.00000   0.00000   0.00000   3.14159
   D19        3.14159   0.00000   0.00000   0.00000   0.00000   3.14159
   D20       -0.00000  -0.00000  -0.00000   0.00000   0.00000   0.00000
   D21       -0.00000  -0.00000   0.00000  -0.00000   0.00000   0.00000
   D22        3.14159  -0.00000   0.00000  -0.00000   0.00000   3.14159
   D23       -3.14159  -0.00000  -0.00000   0.00000  -0.00000   3.14159
   D24        0.00000   0.00000   0.00000   0.00000  -0.00000   0.00000
         Item               Value     Threshold  Converged?
 Maximum Force            0.000046     0.000450     YES
 RMS     Force            0.000016     0.000300     YES
 Maximum Displacement     0.000143     0.001800     YES
 RMS     Displacement     0.000054     0.001200     YES
 Predicted change in Energy=-1.493909D-08
 Optimization completed.
    -- Stationary point found.
                           ----------------------------
                           !   Optimized Parameters   !
                           ! (Angstroms and Degrees)  !
 --------------------------                            --------------------------
 ! Name  Definition              Value          Derivative Info.                !
 --------------------------------------------------------------------------------
 ! R1    R(1,2)                  1.3967         -DE/DX =    0.0                 !
 ! R2    R(1,3)                  1.3967         -DE/DX =    0.0                 !
 ! R3    R(1,12)                 1.087          -DE/DX =    0.0                 !
 ! R4    R(2,4)                  1.087          -DE/DX =    0.0                 !
 ! R5    R(2,6)                  1.3967         -DE/DX =    0.0                 !
 ! R6    R(3,5)                  1.087          -DE/DX =    0.0                 !
 ! R7    R(3,7)                  1.3967         -DE/DX =    0.0                 !
 ! R8    R(6,8)                  1.087          -DE/DX =    0.0                 !
 ! R9    R(6,10)                 1.3967         -DE/DX =    0.0                 !
 ! R10   R(7,9)                  1.087          -DE/DX =    0.0                 !
 ! R11   R(7,10)                 1.3967         -DE/DX =    0.0                 !
 ! R12   R(10,11)                1.087          -DE/DX =    0.0                 !
 ! A1    A(2,1,3)              119.9998         -DE/DX =    0.0                 !
 ! A2    A(2,1,12)             120.0001         -DE/DX =    0.0                 !
 ! A3    A(3,1,12)             120.0001         -DE/DX =    0.0                 !
 ! A4    A(1,2,4)              119.9999         -DE/DX =    0.0                 !
 ! A5    A(1,2,6)              120.0002         -DE/DX =    0.0                 !
 ! A6    A(4,2,6)              119.9999         -DE/DX =    0.0                 !
 ! A7    A(1,3,5)              119.9999         -DE/DX =    0.0                 !
 ! A8    A(1,3,7)              120.0002         -DE/DX =    0.0                 !
 ! A9    A(5,3,7)              119.9999         -DE/DX =    0.0                 !
 ! A10   A(2,6,8)              120.0001         -DE/DX =    0.0                 !
 ! A11   A(2,6,10)             119.9998         -DE/DX =    0.0                 !
 ! A12   A(8,6,10)             120.0001         -DE/DX =    0.0                 !
 ! A13   A(3,7,9)              120.0001         -DE/DX =    0.0                 !
 ! A14   A(3,7,10)             119.9998         -DE/DX =    0.0                 !
 ! A15   A(9,7,10)             120.0001         -DE/DX =    0.0                 !
 ! A16   A(6,10,7)             120.0002         -DE/DX =    0.0                 !
 ! A17   A(6,10,11)            119.9999         -DE/DX =    0.0                 !
 ! A18   A(7,10,11)            119.9999         -DE/DX =    0.0                 !
 ! D1    D(3,1,2,4)            180.0            -DE/DX =    0.0                 !
 ! D2    D(3,1,2,6)              0.0            -DE/DX =    0.0                 !
 ! D3    D(12,1,2,4)             0.0            -DE/DX =    0.0                 !
 ! D4    D(12,1,2,6)          -180.0            -DE/DX =    0.0                 !
 ! D5    D(2,1,3,5)            180.0            -DE/DX =    0.0                 !
 ! D6    D(2,1,3,7)              0.0            -DE/DX =    0.0                 !
 ! D7    D(12,1,3,5)             0.0            -DE/DX =    0.0                 !
 ! D8    D(12,1,3,7)           180.0            -DE/DX =    0.0                 !
 ! D9    D(1,2,6,8)            180.0            -DE/DX =    0.0                 !
 ! D10   D(1,2,6,10)             0.0            -DE/DX =    0.0                 !
 ! D11   D(4,2,6,8)              0.0            -DE/DX =    0.0                 !
 ! D12   D(4,2,6,10)           180.0            -DE/DX =    0.0                 !
 ! D13   D(1,3,7,9)            180.0            -DE/DX =    0.0                 !
 ! D14   D(1,3,7,10)             0.0            -DE/DX =    0.0                 !
 ! D15   D(5,3,7,9)              0.0            -DE/DX =    0.0                 !
 ! D16   D(5,3,7,10)           180.0            -DE/DX =    0.0                 !
 ! D17   D(2,6,10,7)             0.0            -DE/DX =    0.0                 !
 ! D18   D(2,6,10,11)          180.0            -DE/DX =    0.0                 !
 ! D19   D(8,6,10,7)           180.0            -DE/DX =    0.0                 !
 ! D20   D(8,6,10,11)            0.0            -DE/DX =    0.0                 !
 ! D21   D(3,7,10,6)             0.0            -DE/DX =    0.0                 !
 ! D22   D(3,7,10,11)          180.0            -DE/DX =    0.0                 !
 ! D23   D(9,7,10,6)           180.0            -DE/DX =    0.0                 !
 ! D24   D(9,7,10,11)            0.0            -DE/DX =    0.0                 !
 --------------------------------------------------------------------------------
 Lowest energy point so far.  Saving SCF results.
 GradGradGradGradGradGradGradGradGradGradGradGradGradGradGradGradGradGrad

 Largest change from initial coordinates is atom   12       2.483 Angstoms.
 Leave Link  103 at Mon Jul 20 17:06:51 2026, MaxMem=  4026531840 cpu:        13.8
 (Enter /home/p20190052/g09/l202.exe)
                          Input orientation:                          
 ---------------------------------------------------------------------
 Center     Atomic      Atomic             Coordinates (Angstroms)
 Number     Number       Type             X           Y           Z
 ---------------------------------------------------------------------
      1          6           0       -2.192237   -0.286263   -3.894307
      2          6           0       -3.348578   -0.641036   -3.195975
      3          6           0       -1.035897    0.068511   -3.195975
      4          1           0       -4.248576   -0.917162   -3.739495
      5          1           0       -0.135899    0.344637   -3.739495
      6          6           0       -3.348581   -0.641037   -1.799316
      7          6           0       -1.035894    0.068512   -1.799316
      8          1           0       -4.248580   -0.917164   -1.255796
      9          1           0       -0.135895    0.344638   -1.255796
     10          6           0       -2.192237   -0.286263   -1.100990
     11          1           0       -2.192237   -0.286263   -0.013950
     12          1           0       -2.192237   -0.286263   -4.981348
 ---------------------------------------------------------------------
                    Distance matrix (angstroms):
                    1          2          3          4          5
     1  C    0.000000
     2  C    1.396659   0.000000
     3  C    1.396659   2.419081   0.000000
     4  H    2.156509   1.087040   3.404155   0.000000
     5  H    2.156509   3.404155   1.087040   4.301889   0.000000
     6  C    2.419086   1.396659   2.793317   2.156509   3.880357
     7  C    2.419086   2.793317   1.396659   3.880357   2.156509
     8  H    3.404162   2.156512   3.880359   2.483699   4.967399
     9  H    3.404162   3.880359   2.156512   4.967399   2.483699
    10  C    2.793317   2.419081   2.419081   3.404155   3.404155
    11  H    3.880357   3.404155   3.404155   4.301889   4.301889
    12  H    1.087042   2.156512   2.156512   2.483699   2.483699
                    6          7          8          9         10
     6  C    0.000000
     7  C    2.419086   0.000000
     8  H    1.087042   3.404162   0.000000
     9  H    3.404162   1.087042   4.301898   0.000000
    10  C    1.396659   1.396659   2.156512   2.156512   0.000000
    11  H    2.156509   2.156509   2.483699   2.483699   1.087040
    12  H    3.404162   3.404162   4.301898   4.301898   3.880359
                   11         12
    11  H    0.000000
    12  H    4.967399   0.000000
 Stoichiometry    C6H6
 Framework group  D3H[3C2(HC.CH)]
 Deg. of freedom     4
 Full point group                 D3H     NOp  12
 Omega: Change in point group or standard orientation.

 Old FWG=C03V [3SGV(C2H2)]
 New FWG=D03H [3C2(H1C1.C1H1)]
 RotChk:  IX=2 Diff= 1.28D-15
 Largest Abelian subgroup         C2V     NOp   4
 Largest concise Abelian subgroup C2      NOp   2
                         Standard orientation:                         
 ---------------------------------------------------------------------
 Center     Atomic      Atomic             Coordinates (Angstroms)
 Number     Number       Type             X           Y           Z
 ---------------------------------------------------------------------
      1          6           0       -1.209543    0.698330    0.000000
      2          6           0       -0.000000    1.396657    0.000000
      3          6           0       -1.209540   -0.698328    0.000000
      4          1           0       -0.000000    2.483697    0.000000
      5          1           0       -2.150944   -1.241848    0.000000
      6          6           0        1.209543    0.698330    0.000000
      7          6           0        0.000000   -1.396660   -0.000000
      8          1           0        2.150949    1.241851    0.000000
      9          1           0        0.000000   -2.483702    0.000000
     10          6           0        1.209540   -0.698328    0.000000
     11          1           0        2.150944   -1.241848    0.000000
     12          1           0       -2.150949    1.241851   -0.000000
 ---------------------------------------------------------------------
 Rotational constants (GHZ):      5.6864228      5.6864228      2.8432114
 Leave Link  202 at Mon Jul 20 17:06:51 2026, MaxMem=  4026531840 cpu:         1.6
 (Enter /home/p20190052/g09/l601.exe)
 Copying SCF densities to generalized density rwf, IOpCl= 0 IROHF=0.

 **********************************************************************

            Population analysis using the SCF density.

 **********************************************************************

 Orbital symmetries:
       Occupied  (?A) (?B) (?B) (?C) (?C) (?A) (?A) (?B) (?B) (?C)
                 (?C) (?A) (?A) (?A) (?B) (?B) (?D) (?C) (?C) (?E)
                 (?E)
       Virtual   (?F) (?F) (?A) (?B) (?B) (?D) (?C) (?C) (?A) (?C)
                 (?C) (?B) (?B) (?A) (?D) (?A) (?A) (?A) (?A) (?E)
                 (?E) (?C) (?C) (?B) (?B) (?F) (?F) (?D) (?C) (?C)
                 (?A) (?B) (?B) (?B) (?B) (?A) (?A) (?C) (?C) (?B)
                 (?B) (?A) (?D) (?D) (?C) (?C) (?F) (?F) (?E) (?E)
                 (?A) (?A) (?A) (?A) (?B) (?B) (?C) (?C) (?F) (?F)
                 (?B) (?B) (?E) (?E) (?D) (?C) (?C) (?D) (?C) (?C)
                 (?B) (?B) (?A) (?A) (?A) (?A) (?B) (?B) (?C) (?C)
                 (?A)
 Unable to determine electronic state:  an orbital has unidentified symmetry.
 Alpha  occ. eigenvalues --  -10.18775 -10.18749 -10.18749 -10.18694 -10.18694
 Alpha  occ. eigenvalues --  -10.18667  -0.84631  -0.73982  -0.73982  -0.59748
 Alpha  occ. eigenvalues --   -0.59748  -0.51854  -0.45929  -0.43810  -0.41725
 Alpha  occ. eigenvalues --   -0.41725  -0.35939  -0.34027  -0.34027  -0.24629
 Alpha  occ. eigenvalues --   -0.24629
 Alpha virt. eigenvalues --    0.00361   0.00361   0.09074   0.14468   0.14468
 Alpha virt. eigenvalues --    0.16392   0.18184   0.18184   0.19024   0.30264
 Alpha virt. eigenvalues --    0.30264   0.31912   0.31912   0.47489   0.52734
 Alpha virt. eigenvalues --    0.54899   0.55028   0.56393   0.59251   0.60201
 Alpha virt. eigenvalues --    0.60201   0.60204   0.60204   0.62678   0.62678
 Alpha virt. eigenvalues --    0.66753   0.66753   0.74486   0.83999   0.83999
 Alpha virt. eigenvalues --    0.84107   0.86500   0.86500   0.93902   0.93902
 Alpha virt. eigenvalues --    0.94060   0.95795   1.08260   1.08260   1.14237
 Alpha virt. eigenvalues --    1.14237   1.20097   1.26189   1.39630   1.43635
 Alpha virt. eigenvalues --    1.43635   1.48696   1.48696   1.51542   1.51542
 Alpha virt. eigenvalues --    1.75688   1.78983   1.85724   1.89555   1.97348
 Alpha virt. eigenvalues --    1.97348   2.06594   2.06594   2.15161   2.15161
 Alpha virt. eigenvalues --    2.15436   2.15436   2.30945   2.30945   2.32158
 Alpha virt. eigenvalues --    2.54571   2.54571   2.65683   2.70532   2.70532
 Alpha virt. eigenvalues --    2.72188   2.72188   2.76003   3.01693   3.41004
 Alpha virt. eigenvalues --    4.08514   4.11772   4.11772   4.33033   4.33033
 Alpha virt. eigenvalues --    4.66585
          Condensed to atoms (all electrons):
               1          2          3          4          5          6
     1  C    4.848839   0.551478   0.551478  -0.043769  -0.043769  -0.031950
     2  C    0.551478   4.848942  -0.031939   0.358896   0.004783   0.551478
     3  C    0.551478  -0.031939   4.848942   0.004783   0.358896  -0.040899
     4  H   -0.043769   0.358896   0.004783   0.602028  -0.000182  -0.043769
     5  H   -0.043769   0.004783   0.358896  -0.000182   0.602028   0.000578
     6  C   -0.031950   0.551478  -0.040899  -0.043769   0.000578   4.848839
     7  C   -0.031950  -0.040899   0.551478   0.000578  -0.043769  -0.031950
     8  H    0.004783  -0.043772   0.000578  -0.005870   0.000016   0.358896
     9  H    0.004783   0.000578  -0.043772   0.000016  -0.005870   0.004783
    10  C   -0.040899  -0.031939  -0.031939   0.004783   0.004783   0.551478
    11  H    0.000578   0.004783   0.004783  -0.000182  -0.000182  -0.043769
    12  H    0.358896  -0.043772  -0.043772  -0.005870  -0.005870   0.004783
               7          8          9         10         11         12
     1  C   -0.031950   0.004783   0.004783  -0.040899   0.000578   0.358896
     2  C   -0.040899  -0.043772   0.000578  -0.031939   0.004783  -0.043772
     3  C    0.551478   0.000578  -0.043772  -0.031939   0.004783  -0.043772
     4  H    0.000578  -0.005870   0.000016   0.004783  -0.000182  -0.005870
     5  H   -0.043769   0.000016  -0.005870   0.004783  -0.000182  -0.005870
     6  C   -0.031950   0.358896   0.004783   0.551478  -0.043769   0.004783
     7  C    4.848839   0.004783   0.358896   0.551478  -0.043769   0.004783
     8  H    0.004783   0.602030  -0.000182  -0.043772  -0.005870  -0.000182
     9  H    0.358896  -0.000182   0.602030  -0.043772  -0.005870  -0.000182
    10  C    0.551478  -0.043772  -0.043772   4.848942   0.358896   0.000578
    11  H   -0.043769  -0.005870  -0.005870   0.358896   0.602028   0.000016
    12  H    0.004783  -0.000182  -0.000182   0.000578   0.000016   0.602030
 Mulliken charges:
               1
     1  C   -0.128500
     2  C   -0.128618
     3  C   -0.128618
     4  H    0.128557
     5  H    0.128557
     6  C   -0.128500
     7  C   -0.128500
     8  H    0.128561
     9  H    0.128561
    10  C   -0.128618
    11  H    0.128557
    12  H    0.128561
 Sum of Mulliken charges =  -0.00000
 Mulliken charges with hydrogens summed into heavy atoms:
               1
     1  C    0.000061
     2  C   -0.000061
     3  C   -0.000061
     6  C    0.000061
     7  C    0.000061
    10  C   -0.000061
 Electronic spatial extent (au):  <R**2>=            458.3405
 Charge=             -0.0000 electrons
 Dipole moment (field-independent basis, Debye):
    X=              0.0000    Y=             -0.0000    Z=              0.0000  Tot=              0.0000
 Quadrupole moment (field-independent basis, Debye-Ang):
   XX=            -31.4025   YY=            -31.4025   ZZ=            -38.6016
   XY=              0.0000   XZ=              0.0000   YZ=              0.0000
 Traceless Quadrupole moment (field-independent basis, Debye-Ang):
   XX=              2.3997   YY=              2.3997   ZZ=             -4.7994
   XY=              0.0000   XZ=              0.0000   YZ=              0.0000
 Octapole moment (field-independent basis, Debye-Ang**2):
  XXX=              0.0000  YYY=             -0.0004  ZZZ=             -0.0000  XYY=              0.0000
  XXY=              0.0004  XXZ=              0.0000  XZZ=             -0.0000  YZZ=             -0.0000
  YYZ=              0.0000  XYZ=              0.0000
 Hexadecapole moment (field-independent basis, Debye-Ang**3):
 XXXX=           -270.1719 YYYY=           -270.1719 ZZZZ=            -40.0535 XXXY=              0.0000
 XXXZ=              0.0000 YYYX=              0.0000 YYYZ=              0.0000 ZZZX=              0.0000
 ZZZY=             -0.0000 XXYY=            -90.0573 XXZZ=            -60.3751 YYZZ=            -60.3751
 XXYZ=             -0.0000 YYXZ=              0.0000 ZZXY=              0.0000
 N-N= 2.031806511830D+02 E-N=-9.436981203794D+02  KE= 2.299250055580D+02
 Symmetry A'   KE= 1.499396339623D+02
 Symmetry A"   KE= 7.998537159564D+01
 No NMR shielding tensors so no spin-rotation constants.
 Leave Link  601 at Mon Jul 20 17:06:51 2026, MaxMem=  4026531840 cpu:        16.8
 (Enter /home/p20190052/g09/l9999.exe)
 1\1\ WCSS.PL-BEM-NODE1\FOpt\RB3LYP\6-31G(d)\C6H6\P20190052\20-Jul-2026
 \0\\#p opt b3lyp/6-31g(d)\\Benzene b3lyp 6-31G(d)\\0,1\C,-2.1922372551
 ,-0.2862627404,-3.894306686\C,-3.3485777583,-0.6410364928,-3.195974904
 7\C,-1.0358967517,0.0685110121,-3.1959749049\H,-4.2485756928,-0.917162
 464,-3.7394948625\H,-0.1358988173,0.3446369832,-3.7394948629\C,-3.3485
 805354,-0.6410373448,-1.7993163739\C,-1.0358939743,0.0685118643,-1.799
 3163741\H,-4.2485798188,-0.9171637299,-1.2557956011\H,-0.1358946907,0.
 3446382493,-1.2557956016\C,-2.1922372548,-0.2862627403,-1.1009896244\H
 ,-2.1922372547,-0.2862627402,-0.0139497086\H,-2.1922372552,-0.28626274
 04,-4.9813482313\\Version=ES64L-G09RevE.01\HF=-232.2486587\RMSD=4.610e
 -10\RMSF=1.376e-05\Dipole=0.,0.,0.\Quadrupole=1.3236504,-3.1077799,1.7
 841295,1.5008737,0.,0.\PG=D03H [3C2(H1C1.C1H1)]\\@


 WAR ES EIN GOTT DER DIESE ZEICHEN SCHRIEB?
          - LUDWIG BOLTZMANN, QUOTING GOETHE, ABOUT MAXWELL'S EQUATIONS.
 Job cpu time:       0 days  0 hours  4 minutes 14.2 seconds.
 File lengths (MBytes):  RWF=      7 Int=      0 D2E=      0 Chk=      2 Scr=      1
 Normal termination of Gaussian 09 at Mon Jul 20 17:06:51 2026.
