 Entering Gaussian System, Link 0=g09
 Input=Cyclopropane-b3lyp-sto3g.gjf
 Output=Cyclopropane-b3lyp-sto3g.log
 Initial command:
 /home/p20190052/g09/l1.exe "/home/p20190052/g09/scratch/Gau-60577.inp" -scrdir="/home/p20190052/g09/scratch/"
 Entering Link 1 = /home/p20190052/g09/l1.exe PID=     60578.
  
 Copyright (c) 1988,1990,1992,1993,1995,1998,2003,2009,2015,
            Gaussian, Inc.  All Rights Reserved.
  
 This is part of the Gaussian(R) 09 program.  It is based on
 the Gaussian(R) 03 system (copyright 2003, Gaussian, Inc.),
 the Gaussian(R) 98 system (copyright 1998, Gaussian, Inc.),
 the Gaussian(R) 94 system (copyright 1995, Gaussian, Inc.),
 the Gaussian 92(TM) system (copyright 1992, Gaussian, Inc.),
 the Gaussian 90(TM) system (copyright 1990, Gaussian, Inc.),
 the Gaussian 88(TM) system (copyright 1988, Gaussian, Inc.),
 the Gaussian 86(TM) system (copyright 1986, Carnegie Mellon
 University), and the Gaussian 82(TM) system (copyright 1983,
 Carnegie Mellon University). Gaussian is a federally registered
 trademark of Gaussian, Inc.
  
 This software contains proprietary and confidential information,
 including trade secrets, belonging to Gaussian, Inc.
  
 This software is provided under written license and may be
 used, copied, transmitted, or stored only in accord with that
 written license.
  
 The following legend is applicable only to US Government
 contracts under FAR:
  
                    RESTRICTED RIGHTS LEGEND
  
 Use, reproduction and disclosure by the US Government is
 subject to restrictions as set forth in subparagraphs (a)
 and (c) of the Commercial Computer Software - Restricted
 Rights clause in FAR 52.227-19.
  
 Gaussian, Inc.
 340 Quinnipiac St., Bldg. 40, Wallingford CT 06492
  
  
 ---------------------------------------------------------------
 Warning -- This program may not be used in any manner that
 competes with the business of Gaussian, Inc. or will provide
 assistance to any competitor of Gaussian, Inc.  The licensee
 of this program is prohibited from giving any competitor of
 Gaussian, Inc. access to this program.  By using this program,
 the user acknowledges that Gaussian, Inc. is engaged in the
 business of creating and licensing software in the field of
 computational chemistry and represents and warrants to the
 licensee that it is not a competitor of Gaussian, Inc. and that
 it will not use this program in any manner prohibited above.
 ---------------------------------------------------------------
  

 Cite this work as:
 Gaussian 09, Revision E.01,
 M. J. Frisch, G. W. Trucks, H. B. Schlegel, G. E. Scuseria, 
 M. A. Robb, J. R. Cheeseman, G. Scalmani, V. Barone, B. Mennucci, 
 G. A. Petersson, H. Nakatsuji, M. Caricato, X. Li, H. P. Hratchian, 
 A. F. Izmaylov, J. Bloino, G. Zheng, J. L. Sonnenberg, M. Hada, 
 M. Ehara, K. Toyota, R. Fukuda, J. Hasegawa, M. Ishida, T. Nakajima, 
 Y. Honda, O. Kitao, H. Nakai, T. Vreven, J. A. Montgomery, Jr., 
 J. E. Peralta, F. Ogliaro, M. Bearpark, J. J. Heyd, E. Brothers, 
 K. N. Kudin, V. N. Staroverov, T. Keith, R. Kobayashi, J. Normand, 
 K. Raghavachari, A. Rendell, J. C. Burant, S. S. Iyengar, J. Tomasi, 
 M. Cossi, N. Rega, J. M. Millam, M. Klene, J. E. Knox, J. B. Cross, 
 V. Bakken, C. Adamo, J. Jaramillo, R. Gomperts, R. E. Stratmann, 
 O. Yazyev, A. J. Austin, R. Cammi, C. Pomelli, J. W. Ochterski, 
 R. L. Martin, K. Morokuma, V. G. Zakrzewski, G. A. Voth, 
 P. Salvador, J. J. Dannenberg, S. Dapprich, A. D. Daniels, 
 O. Farkas, J. B. Foresman, J. V. Ortiz, J. Cioslowski, 
 and D. J. Fox, Gaussian, Inc., Wallingford CT, 2013.
 
 ******************************************
 Gaussian 09:  ES64L-G09RevE.01 30-Nov-2015
                20-Jul-2026 
 ******************************************
 %mem=30GB
 %nprocs=40
 Will use up to   40 processors via shared memory.
 %chk=Cyclopropane_b3lyp_sto-3g.chk
 -------------------
 #p opt b3lyp/sto-3g
 -------------------
 1/14=-1,18=20,19=15,26=3,38=1/1,3;
 2/9=110,12=2,17=6,18=5,40=1/2;
 3/6=3,11=2,16=1,25=1,30=1,71=1,74=-5/1,2,3;
 4//1;
 5/5=2,38=5/2;
 6/7=2,8=2,9=2,10=2,28=1/1;
 7//1,2,3,16;
 1/14=-1,18=20,19=15,26=3/3(2);
 2/9=110/2;
 99//99;
 2/9=110/2;
 3/6=3,11=2,16=1,25=1,30=1,71=1,74=-5/1,2,3;
 4/5=5,16=3,69=1/1;
 5/5=2,38=5/2;
 7//1,2,3,16;
 1/14=-1,18=20,19=15,26=3/3(-5);
 2/9=110/2;
 6/7=2,8=2,9=2,10=2,19=2,28=1/1;
 99/9=1/99;
 Leave Link    1 at Mon Jul 20 17:07:18 2026, MaxMem=  4026531840 cpu:         1.4
 (Enter /home/p20190052/g09/l101.exe)
 -------------------------
 Cyclopropane b3lyp sto-3g
 -------------------------
 Symbolic Z-matrix:
 Charge =  0 Multiplicity = 1
 C                    -2.89657  -0.13148  -2.32959 
 C                    -3.63473  -0.28593  -1.02337 
 C                    -2.15841   0.02297  -1.02337 
 H                    -2.71009  -1.02273  -2.92109 
 H                    -3.08305   0.75977  -2.92109 
 H                    -3.94965  -1.28209  -0.72761 
 H                    -4.32261   0.50041  -0.72761 
 H                    -1.84349   1.01913  -0.72761 
 H                    -1.47053  -0.76338  -0.72761 
 
 NAtoms=      9 NQM=        9 NQMF=       0 NMMI=      0 NMMIF=      0
                NMic=       0 NMicF=      0.
                    Isotopes and Nuclear Properties:
 (Nuclear quadrupole moments (NQMom) in fm**2, nuclear magnetic moments (NMagM)
  in nuclear magnetons)

  Atom         1           2           3           4           5           6           7           8           9
 IAtWgt=          12          12          12           1           1           1           1           1           1
 AtmWgt=  12.0000000  12.0000000  12.0000000   1.0078250   1.0078250   1.0078250   1.0078250   1.0078250   1.0078250
 NucSpn=           0           0           0           1           1           1           1           1           1
 AtZEff=   0.0000000   0.0000000   0.0000000   0.0000000   0.0000000   0.0000000   0.0000000   0.0000000   0.0000000
 NQMom=    0.0000000   0.0000000   0.0000000   0.0000000   0.0000000   0.0000000   0.0000000   0.0000000   0.0000000
 NMagM=    0.0000000   0.0000000   0.0000000   2.7928460   2.7928460   2.7928460   2.7928460   2.7928460   2.7928460
 AtZNuc=   6.0000000   6.0000000   6.0000000   1.0000000   1.0000000   1.0000000   1.0000000   1.0000000   1.0000000
 Leave Link  101 at Mon Jul 20 17:07:18 2026, MaxMem=  4026531840 cpu:        12.3
 (Enter /home/p20190052/g09/l103.exe)

 GradGradGradGradGradGradGradGradGradGradGradGradGradGradGradGradGradGrad
 Berny optimization.
 Initialization pass.
                           ----------------------------
                           !    Initial Parameters    !
                           ! (Angstroms and Degrees)  !
 --------------------------                            --------------------------
 ! Name  Definition              Value          Derivative Info.                !
 --------------------------------------------------------------------------------
 ! R1    R(1,2)                  1.5083         estimate D2E/DX2                !
 ! R2    R(1,3)                  1.5083         estimate D2E/DX2                !
 ! R3    R(1,4)                  1.0858         estimate D2E/DX2                !
 ! R4    R(1,5)                  1.0858         estimate D2E/DX2                !
 ! R5    R(2,3)                  1.5083         estimate D2E/DX2                !
 ! R6    R(2,6)                  1.0858         estimate D2E/DX2                !
 ! R7    R(2,7)                  1.0858         estimate D2E/DX2                !
 ! R8    R(3,8)                  1.0858         estimate D2E/DX2                !
 ! R9    R(3,9)                  1.0858         estimate D2E/DX2                !
 ! A1    A(2,1,4)              118.1497         estimate D2E/DX2                !
 ! A2    A(2,1,5)              118.1497         estimate D2E/DX2                !
 ! A3    A(3,1,4)              118.1497         estimate D2E/DX2                !
 ! A4    A(3,1,5)              118.1497         estimate D2E/DX2                !
 ! A5    A(4,1,5)              113.9834         estimate D2E/DX2                !
 ! A6    A(1,2,6)              118.1497         estimate D2E/DX2                !
 ! A7    A(1,2,7)              118.1497         estimate D2E/DX2                !
 ! A8    A(3,2,6)              118.1497         estimate D2E/DX2                !
 ! A9    A(3,2,7)              118.1497         estimate D2E/DX2                !
 ! A10   A(6,2,7)              113.9834         estimate D2E/DX2                !
 ! A11   A(1,3,8)              118.1497         estimate D2E/DX2                !
 ! A12   A(1,3,9)              118.1497         estimate D2E/DX2                !
 ! A13   A(2,3,8)              118.1497         estimate D2E/DX2                !
 ! A14   A(2,3,9)              118.1497         estimate D2E/DX2                !
 ! A15   A(8,3,9)              113.9834         estimate D2E/DX2                !
 ! D1    D(4,1,2,6)              0.0            estimate D2E/DX2                !
 ! D2    D(4,1,2,7)           -144.0117         estimate D2E/DX2                !
 ! D3    D(5,1,2,6)            144.0117         estimate D2E/DX2                !
 ! D4    D(5,1,2,7)              0.0            estimate D2E/DX2                !
 ! D5    D(4,1,3,8)            144.0117         estimate D2E/DX2                !
 ! D6    D(4,1,3,9)              0.0            estimate D2E/DX2                !
 ! D7    D(5,1,3,8)              0.0            estimate D2E/DX2                !
 ! D8    D(5,1,3,9)           -144.0117         estimate D2E/DX2                !
 ! D9    D(6,2,3,8)           -144.0116         estimate D2E/DX2                !
 ! D10   D(6,2,3,9)              0.0            estimate D2E/DX2                !
 ! D11   D(7,2,3,8)              0.0            estimate D2E/DX2                !
 ! D12   D(7,2,3,9)            144.0116         estimate D2E/DX2                !
 --------------------------------------------------------------------------------
 Trust Radius=3.00D-01 FncErr=1.00D-07 GrdErr=1.00D-06
 Number of steps in this run=     46 maximum allowed number of steps=    100.
 GradGradGradGradGradGradGradGradGradGradGradGradGradGradGradGradGradGrad

 Leave Link  103 at Mon Jul 20 17:07:18 2026, MaxMem=  4026531840 cpu:         0.2
 (Enter /home/p20190052/g09/l202.exe)
                          Input orientation:                          
 ---------------------------------------------------------------------
 Center     Atomic      Atomic             Coordinates (Angstroms)
 Number     Number       Type             X           Y           Z
 ---------------------------------------------------------------------
      1          6           0       -2.896570   -0.131481   -2.329587
      2          6           0       -3.634732   -0.285929   -1.023368
      3          6           0       -2.158409    0.022966   -1.023368
      4          1           0       -2.710091   -1.022734   -2.921094
      5          1           0       -3.083050    0.759771   -2.921094
      6          1           0       -3.949655   -1.282091   -0.727614
      7          1           0       -4.322613    0.500413   -0.727614
      8          1           0       -1.843486    1.019128   -0.727614
      9          1           0       -1.470528   -0.763376   -0.727614
 ---------------------------------------------------------------------
                    Distance matrix (angstroms):
                    1          2          3          4          5
     1  C    0.000000
     2  C    1.508292   0.000000
     3  C    1.508292   1.508292   0.000000
     4  H    1.085811   2.235890   2.235890   0.000000
     5  H    1.085811   2.235890   2.235890   1.821104   0.000000
     6  H    2.235891   1.085811   2.235890   2.532812   3.119545
     7  H    2.235891   1.085811   2.235890   3.119545   2.532812
     8  H    2.235891   2.235890   1.085811   3.119545   2.532812
     9  H    2.235891   2.235890   1.085811   2.532812   3.119545
                    6          7          8          9
     6  H    0.000000
     7  H    1.821104   0.000000
     8  H    3.119544   2.532812   0.000000
     9  H    2.532812   3.119544   1.821104   0.000000
 Stoichiometry    C3H6
 Framework group  D3H[3C2(C),3SGV(H2)]
 Deg. of freedom     3
 Full point group                 D3H     NOp  12
 Largest Abelian subgroup         C2V     NOp   4
 Largest concise Abelian subgroup C2V     NOp   4
                         Standard orientation:                         
 ---------------------------------------------------------------------
 Center     Atomic      Atomic             Coordinates (Angstroms)
 Number     Number       Type             X           Y           Z
 ---------------------------------------------------------------------
      1          6           0       -0.000000    0.870813   -0.000000
      2          6           0        0.754146   -0.435406   -0.000000
      3          6           0       -0.754146   -0.435406   -0.000000
      4          1           0       -0.000000    1.462320    0.910552
      5          1           0        0.000000    1.462320   -0.910552
      6          1           0        1.266406   -0.731160    0.910552
      7          1           0        1.266406   -0.731160   -0.910552
      8          1           0       -1.266406   -0.731160   -0.910552
      9          1           0       -1.266406   -0.731160    0.910552
 ---------------------------------------------------------------------
 Rotational constants (GHZ):     20.1117381     20.1117381     12.5622403
 Leave Link  202 at Mon Jul 20 17:07:18 2026, MaxMem=  4026531840 cpu:         0.4
 (Enter /home/p20190052/g09/l301.exe)
 Standard basis: STO-3G (5D, 7F)
 Ernie: Thresh=  0.10000D-02 Tol=  0.10000D-05 Strict=F.
 There are     9 symmetry adapted cartesian basis functions of A1  symmetry.
 There are     2 symmetry adapted cartesian basis functions of A2  symmetry.
 There are     6 symmetry adapted cartesian basis functions of B1  symmetry.
 There are     4 symmetry adapted cartesian basis functions of B2  symmetry.
 There are     9 symmetry adapted basis functions of A1  symmetry.
 There are     2 symmetry adapted basis functions of A2  symmetry.
 There are     6 symmetry adapted basis functions of B1  symmetry.
 There are     4 symmetry adapted basis functions of B2  symmetry.
    21 basis functions,    63 primitive gaussians,    21 cartesian basis functions
    12 alpha electrons       12 beta electrons
       nuclear repulsion energy        75.6197795831 Hartrees.
 IExCor=  402 DFT=T Ex+Corr=B3LYP ExCW=0 ScaHFX=  0.200000
 ScaDFX=  0.800000  0.720000  1.000000  0.810000 ScalE2=  1.000000  1.000000
 IRadAn=      0 IRanWt=     -1 IRanGd=            0 ICorTp=0 IEmpDi=  4
 NAtoms=    9 NActive=    9 NUniq=    2 SFac= 4.00D+00 NAtFMM=   60 NAOKFM=F Big=F
 Integral buffers will be    131072 words long.
 Raffenetti 2 integral format.
 Two-electron integral symmetry is turned on.
 Leave Link  301 at Mon Jul 20 17:07:19 2026, MaxMem=  4026531840 cpu:         2.0
 (Enter /home/p20190052/g09/l302.exe)
 NPDir=0 NMtPBC=     1 NCelOv=     1 NCel=       1 NClECP=     1 NCelD=      1
         NCelK=      1 NCelE2=     1 NClLst=     1 CellRange=     0.0.
 One-electron integrals computed using PRISM.
 One-electron integral symmetry used in STVInt
 NBasis=    21 RedAO= T EigKep=  1.75D-01  NBF=     9     2     6     4
 NBsUse=    21 1.00D-06 EigRej= -1.00D+00 NBFU=     9     2     6     4
 Precomputing XC quadrature grid using
 IXCGrd= 4 IRadAn=           0 IRanWt=          -1 IRanGd=           0 AccXCQ= 0.00D+00.
 Generated NRdTot=       0 NPtTot=           0 NUsed=           0 NTot=          32
 NSgBfM=    21    21    21    21    21 MxSgAt=     9 MxSgA2=     9.
 Leave Link  302 at Mon Jul 20 17:07:19 2026, MaxMem=  4026531840 cpu:        10.6
 (Enter /home/p20190052/g09/l303.exe)
 DipDrv:  MaxL=1.
 Leave Link  303 at Mon Jul 20 17:07:19 2026, MaxMem=  4026531840 cpu:         2.5
 (Enter /home/p20190052/g09/l401.exe)
 ExpMin= 1.69D-01 ExpMax= 7.16D+01 ExpMxC= 7.16D+01 IAcc=1 IRadAn=         1 AccDes= 0.00D+00
 Harris functional with IExCor=  402 and IRadAn=       1 diagonalized for initial guess.
 HarFok:  IExCor=  402 AccDes= 0.00D+00 IRadAn=         1 IDoV= 1 UseB2=F ITyADJ=14
 ICtDFT=  3500011 ScaDFX=  1.000000  1.000000  1.000000  1.000000
 FoFCou: FMM=F IPFlag=           0 FMFlag=      100000 FMFlg1=           0
         NFxFlg=           0 DoJE=T BraDBF=F KetDBF=T FulRan=T
         wScrn=  0.000000 ICntrl=     500 IOpCl=  0 I1Cent=   200000004 NGrid=           0
         NMat0=    1 NMatS0=      1 NMatT0=    0 NMatD0=    1 NMtDS0=    0 NMtDT0=    0
 Petite list used in FoFCou.
 Harris En= -116.459576569030    
 JPrj=0 DoOrth=F DoCkMO=F.
 Initial guess orbital symmetries:
       Occupied  (E') (E') (A1') (A1') (E') (E') (A2") (A1') (E")
                 (E") (E') (E')
       Virtual   (A2') (A2") (E') (E') (A1') (E') (E') (E") (E")
 The electronic state of the initial guess is 1-A1'.
 Leave Link  401 at Mon Jul 20 17:07:19 2026, MaxMem=  4026531840 cpu:        11.0
 (Enter /home/p20190052/g09/l502.exe)
 Closed shell SCF:
 Using DIIS extrapolation, IDIIS=  1040.
 Integral symmetry usage will be decided dynamically.
 Keep R1 ints in memory in symmetry-blocked form, NReq=908384.
 IVT=       21097 IEndB=       21097 NGot=  4026531840 MDV=  4026502643
 LenX=  4026502643 LenY=  4026501761
 Requested convergence on RMS density matrix=1.00D-08 within 128 cycles.
 Requested convergence on MAX density matrix=1.00D-06.
 Requested convergence on             energy=1.00D-06.
 No special actions if energy rises.
 FoFCou: FMM=F IPFlag=           0 FMFlag=           0 FMFlg1=           0
         NFxFlg=           0 DoJE=F BraDBF=F KetDBF=F FulRan=T
         wScrn=  0.000000 ICntrl=     600 IOpCl=  0 I1Cent=           0 NGrid=           0
         NMat0=    1 NMatS0=    231 NMatT0=    0 NMatD0=    1 NMtDS0=    0 NMtDT0=    0
 Petite list used in FoFCou.
 Integral accuracy reduced to 1.0D-05 until final iterations.

 Cycle   1  Pass 0  IDiag  1:
 E= -116.442890420931    
 DIIS: error= 3.33D-02 at cycle   1 NSaved=   1.
 NSaved= 1 IEnMin= 1 EnMin= -116.442890420931     IErMin= 1 ErrMin= 3.33D-02
 ErrMax= 3.33D-02  0.00D+00 EMaxC= 1.00D-01 BMatC= 2.46D-02 BMatP= 2.46D-02
 IDIUse=3 WtCom= 6.67D-01 WtEn= 3.33D-01
 Coeff-Com:  0.100D+01
 Coeff-En:   0.100D+01
 Coeff:      0.100D+01
 Gap=     0.530 Goal=   None    Shift=    0.000
 GapD=    0.530 DampG=2.000 DampE=0.500 DampFc=1.0000 IDamp=-1.
 RMSDP=1.72D-02 MaxDP=9.98D-02              OVMax= 0.00D+00

 Cycle   2  Pass 0  IDiag  1:
 E= -116.460658834967     Delta-E=       -0.017768414036 Rises=F Damp=F
 DIIS: error= 2.26D-02 at cycle   2 NSaved=   2.
 NSaved= 2 IEnMin= 2 EnMin= -116.460658834967     IErMin= 2 ErrMin= 2.26D-02
 ErrMax= 2.26D-02  0.00D+00 EMaxC= 1.00D-01 BMatC= 1.08D-02 BMatP= 2.46D-02
 IDIUse=3 WtCom= 7.74D-01 WtEn= 2.26D-01
 Coeff-Com:  0.397D+00 0.603D+00
 Coeff-En:   0.250D+00 0.750D+00
 Coeff:      0.364D+00 0.636D+00
 Gap=     0.525 Goal=   None    Shift=    0.000
 RMSDP=7.41D-03 MaxDP=4.26D-02 DE=-1.78D-02 OVMax= 0.00D+00

 Cycle   3  Pass 0  IDiag  1:
 E= -116.474867236760     Delta-E=       -0.014208401793 Rises=F Damp=F
 DIIS: error= 1.60D-03 at cycle   3 NSaved=   3.
 NSaved= 3 IEnMin= 3 EnMin= -116.474867236760     IErMin= 3 ErrMin= 1.60D-03
 ErrMax= 1.60D-03  0.00D+00 EMaxC= 1.00D-01 BMatC= 5.20D-05 BMatP= 1.08D-02
 IDIUse=3 WtCom= 9.84D-01 WtEn= 1.60D-02
 Coeff-Com:  0.104D-02 0.660D-01 0.933D+00
 Coeff-En:   0.000D+00 0.000D+00 0.100D+01
 Coeff:      0.102D-02 0.650D-01 0.934D+00
 Gap=     0.524 Goal=   None    Shift=    0.000
 RMSDP=4.85D-04 MaxDP=2.95D-03 DE=-1.42D-02 OVMax= 0.00D+00

 Cycle   4  Pass 0  IDiag  1:
 E= -116.474935826915     Delta-E=       -0.000068590155 Rises=F Damp=F
 DIIS: error= 1.99D-05 at cycle   4 NSaved=   4.
 NSaved= 4 IEnMin= 4 EnMin= -116.474935826915     IErMin= 4 ErrMin= 1.99D-05
 ErrMax= 1.99D-05  0.00D+00 EMaxC= 1.00D-01 BMatC= 8.81D-09 BMatP= 5.20D-05
 IDIUse=1 WtCom= 1.00D+00 WtEn= 0.00D+00
 Coeff-Com: -0.181D-03 0.437D-02 0.772D-01 0.919D+00
 Coeff:     -0.181D-03 0.437D-02 0.772D-01 0.919D+00
 Gap=     0.524 Goal=   None    Shift=    0.000
 RMSDP=6.78D-06 MaxDP=3.80D-05 DE=-6.86D-05 OVMax= 0.00D+00

 Initial convergence to 1.0D-05 achieved.  Increase integral accuracy.
 Cycle   5  Pass 1  IDiag  1:
 E= -116.474925468319     Delta-E=        0.000010358596 Rises=F Damp=F
 DIIS: error= 2.13D-06 at cycle   1 NSaved=   1.
 NSaved= 1 IEnMin= 1 EnMin= -116.474925468319     IErMin= 1 ErrMin= 2.13D-06
 ErrMax= 2.13D-06  0.00D+00 EMaxC= 1.00D-01 BMatC= 8.87D-11 BMatP= 8.87D-11
 IDIUse=1 WtCom= 1.00D+00 WtEn= 0.00D+00
 Coeff-Com:  0.100D+01
 Coeff:      0.100D+01
 Gap=     0.524 Goal=   None    Shift=    0.000
 RMSDP=6.78D-06 MaxDP=3.80D-05 DE= 1.04D-05 OVMax= 0.00D+00

 Cycle   6  Pass 1  IDiag  1:
 E= -116.474925468501     Delta-E=       -0.000000000182 Rises=F Damp=F
 DIIS: error= 5.30D-07 at cycle   2 NSaved=   2.
 NSaved= 2 IEnMin= 2 EnMin= -116.474925468501     IErMin= 2 ErrMin= 5.30D-07
 ErrMax= 5.30D-07  0.00D+00 EMaxC= 1.00D-01 BMatC= 4.66D-12 BMatP= 8.87D-11
 IDIUse=1 WtCom= 1.00D+00 WtEn= 0.00D+00
 Coeff-Com:  0.859D-01 0.914D+00
 Coeff:      0.859D-01 0.914D+00
 Gap=     0.524 Goal=   None    Shift=    0.000
 RMSDP=2.10D-07 MaxDP=1.38D-06 DE=-1.82D-10 OVMax= 0.00D+00

 Cycle   7  Pass 1  IDiag  1:
 E= -116.474925468506     Delta-E=       -0.000000000005 Rises=F Damp=F
 DIIS: error= 2.40D-07 at cycle   3 NSaved=   3.
 NSaved= 3 IEnMin= 3 EnMin= -116.474925468506     IErMin= 3 ErrMin= 2.40D-07
 ErrMax= 2.40D-07  0.00D+00 EMaxC= 1.00D-01 BMatC= 1.19D-12 BMatP= 4.66D-12
 IDIUse=1 WtCom= 1.00D+00 WtEn= 0.00D+00
 Coeff-Com: -0.181D-01 0.317D+00 0.701D+00
 Coeff:     -0.181D-01 0.317D+00 0.701D+00
 Gap=     0.524 Goal=   None    Shift=    0.000
 RMSDP=7.65D-08 MaxDP=4.25D-07 DE=-4.72D-12 OVMax= 0.00D+00

 Cycle   8  Pass 1  IDiag  1:
 E= -116.474925468507     Delta-E=       -0.000000000001 Rises=F Damp=F
 DIIS: error= 9.15D-09 at cycle   4 NSaved=   4.
 NSaved= 4 IEnMin= 4 EnMin= -116.474925468507     IErMin= 4 ErrMin= 9.15D-09
 ErrMax= 9.15D-09  0.00D+00 EMaxC= 1.00D-01 BMatC= 2.70D-15 BMatP= 1.19D-12
 IDIUse=1 WtCom= 1.00D+00 WtEn= 0.00D+00
 Coeff-Com: -0.267D-02 0.160D-01 0.747D-01 0.912D+00
 Coeff:     -0.267D-02 0.160D-01 0.747D-01 0.912D+00
 Gap=     0.524 Goal=   None    Shift=    0.000
 RMSDP=4.04D-09 MaxDP=1.90D-08 DE=-1.48D-12 OVMax= 0.00D+00

 SCF Done:  E(RB3LYP) =  -116.474925469     A.U. after    8 cycles
            NFock=  8  Conv=0.40D-08     -V/T= 2.0166
 KE= 1.145722627037D+02 PE=-4.199401992362D+02 EE= 1.132732314809D+02
 Leave Link  502 at Mon Jul 20 17:07:20 2026, MaxMem=  4026531840 cpu:         8.3
 (Enter /home/p20190052/g09/l601.exe)
 Copying SCF densities to generalized density rwf, IOpCl= 0 IROHF=0.

 **********************************************************************

            Population analysis using the SCF density.

 **********************************************************************

 Orbital symmetries:
       Occupied  (E') (E') (A1') (A1') (E') (E') (A2") (A1') (E")
                 (E") (E') (E')
       Virtual   (A2') (A2") (A1') (E') (E') (E') (E') (E") (E")
 The electronic state is 1-A1'.
 Alpha  occ. eigenvalues --  -10.00899 -10.00899 -10.00792  -0.81082  -0.56503
 Alpha  occ. eigenvalues --   -0.56503  -0.46300  -0.43090  -0.33131  -0.33131
 Alpha  occ. eigenvalues --   -0.25299  -0.25299
 Alpha virt. eigenvalues --    0.27138   0.34008   0.42898   0.45125   0.45125
 Alpha virt. eigenvalues --    0.51335   0.51335   0.57093   0.57093
          Condensed to atoms (all electrons):
               1          2          3          4          5          6
     1  C    4.852887   0.298025   0.298025   0.388897   0.388897  -0.015005
     2  C    0.298025   4.852887   0.298025  -0.015005  -0.015005   0.388897
     3  C    0.298025   0.298025   4.852887  -0.015005  -0.015005  -0.015005
     4  H    0.388897  -0.015005  -0.015005   0.584803  -0.021658  -0.003743
     5  H    0.388897  -0.015005  -0.015005  -0.021658   0.584803   0.001049
     6  H   -0.015005   0.388897  -0.015005  -0.003743   0.001049   0.584803
     7  H   -0.015005   0.388897  -0.015005   0.001049  -0.003743  -0.021658
     8  H   -0.015005  -0.015005   0.388897   0.001049  -0.003743   0.001049
     9  H   -0.015005  -0.015005   0.388897  -0.003743   0.001049  -0.003743
               7          8          9
     1  C   -0.015005  -0.015005  -0.015005
     2  C    0.388897  -0.015005  -0.015005
     3  C   -0.015005   0.388897   0.388897
     4  H    0.001049   0.001049  -0.003743
     5  H   -0.003743  -0.003743   0.001049
     6  H   -0.021658   0.001049  -0.003743
     7  H    0.584803  -0.003743   0.001049
     8  H   -0.003743   0.584803  -0.021658
     9  H    0.001049  -0.021658   0.584803
 Mulliken charges:
               1
     1  C   -0.166710
     2  C   -0.166710
     3  C   -0.166710
     4  H    0.083355
     5  H    0.083355
     6  H    0.083355
     7  H    0.083355
     8  H    0.083355
     9  H    0.083355
 Sum of Mulliken charges =   0.00000
 Mulliken charges with hydrogens summed into heavy atoms:
               1
     1  C   -0.000000
     2  C   -0.000000
     3  C    0.000000
 Electronic spatial extent (au):  <R**2>=            153.9175
 Charge=              0.0000 electrons
 Dipole moment (field-independent basis, Debye):
    X=             -0.0000    Y=             -0.0000    Z=             -0.0000  Tot=              0.0000
 Quadrupole moment (field-independent basis, Debye-Ang):
   XX=            -19.2457   YY=            -19.2457   ZZ=            -17.4500
   XY=             -0.0000   XZ=             -0.0000   YZ=             -0.0000
 Traceless Quadrupole moment (field-independent basis, Debye-Ang):
   XX=             -0.5986   YY=             -0.5986   ZZ=              1.1972
   XY=             -0.0000   XZ=             -0.0000   YZ=             -0.0000
 Octapole moment (field-independent basis, Debye-Ang**2):
  XXX=              0.0000  YYY=              1.6615  ZZZ=             -0.0000  XYY=              0.0000
  XXY=             -1.6615  XXZ=             -0.0000  XZZ=              0.0000  YZZ=              0.0000
  YYZ=             -0.0000  XYZ=              0.0000
 Hexadecapole moment (field-independent basis, Debye-Ang**3):
 XXXX=            -78.3293 YYYY=            -78.3293 ZZZZ=            -34.7427 XXXY=              0.0000
 XXXZ=             -0.0000 YYYX=              0.0000 YYYZ=             -0.0000 ZZZX=             -0.0000
 ZZZY=             -0.0000 XXYY=            -26.1098 XXZZ=            -16.7076 YYZZ=            -16.7076
 XXYZ=              0.0000 YYXZ=             -0.0000 ZZXY=              0.0000
 N-N= 7.561977958308D+01 E-N=-4.199401987958D+02  KE= 1.145722627037D+02
 Symmetry A1   KE= 7.236531173640D+01
 Symmetry A2   KE= 2.095229016215D+00
 Symmetry B1   KE= 3.631959196663D+01
 Symmetry B2   KE= 3.792129984478D+00
 No NMR shielding tensors so no spin-rotation constants.
 Leave Link  601 at Mon Jul 20 17:07:20 2026, MaxMem=  4026531840 cpu:        14.7
 (Enter /home/p20190052/g09/l701.exe)
 Compute integral first derivatives.
 ... and contract with generalized density number  0.
 Leave Link  701 at Mon Jul 20 17:07:20 2026, MaxMem=  4026531840 cpu:        11.8
 (Enter /home/p20190052/g09/l702.exe)
 L702 exits ... SP integral derivatives will be done elsewhere.
 Leave Link  702 at Mon Jul 20 17:07:21 2026, MaxMem=  4026531840 cpu:         0.7
 (Enter /home/p20190052/g09/l703.exe)
 Compute integral first derivatives, UseDBF=F ICtDFT=           0.
 Integral derivatives from FoFJK, PRISM(SPDF).
 Calling FoFJK, ICntrl=      2127 FMM=F ISym2X=1 I1Cent= 0 IOpClX= 0 NMat=1 NMatS=1 NMatT=0.
 FoFJK:  IHMeth= 1 ICntrl=    2127 DoSepK=F KAlg= 0 I1Cent=   0 FoldK=F
 IRaf=         0 NMat=   1 IRICut=       1 DoRegI=T DoRafI=F ISym2E= 1.
 FoFCou: FMM=F IPFlag=           0 FMFlag=      100000 FMFlg1=         800
         NFxFlg=           0 DoJE=F BraDBF=F KetDBF=F FulRan=T
         wScrn=  0.000000 ICntrl=    2127 IOpCl=  0 I1Cent=           0 NGrid=           0
         NMat0=    1 NMatS0=      1 NMatT0=    0 NMatD0=    1 NMtDS0=    0 NMtDT0=    0
 Petite list used in FoFCou.
 Leave Link  703 at Mon Jul 20 17:07:21 2026, MaxMem=  4026531840 cpu:         7.6
 (Enter /home/p20190052/g09/l716.exe)
 Dipole        =-4.44089210D-16-8.88178420D-16-1.11022302D-15
 ***** Axes restored to original set *****
 -------------------------------------------------------------------
 Center     Atomic                   Forces (Hartrees/Bohr)
 Number     Number              X              Y              Z
 -------------------------------------------------------------------
      1        6           0.000000001    0.000000000   -0.012689227
      2        6          -0.010756270   -0.002250566    0.006344613
      3        6           0.010756268    0.002250565    0.006344615
      4        1           0.001295484   -0.006191588   -0.004158598
      5        1          -0.001295484    0.006191588   -0.004158598
      6        1          -0.002229632   -0.006929158    0.002079299
      7        1          -0.004820600    0.005454018    0.002079299
      8        1           0.002229632    0.006929158    0.002079299
      9        1           0.004820600   -0.005454018    0.002079299
 -------------------------------------------------------------------
 Cartesian Forces:  Max     0.012689227 RMS     0.005534061
 Leave Link  716 at Mon Jul 20 17:07:21 2026, MaxMem=  4026531840 cpu:         1.0
 (Enter /home/p20190052/g09/l103.exe)

 GradGradGradGradGradGradGradGradGradGradGradGradGradGradGradGradGradGrad
 Berny optimization.
 FormGI is forming the generalized inverse of G from B-inverse, IUseBI=4.
 Internal  Forces:  Max     0.012128064 RMS     0.004669987
 Search for a local minimum.
 Step number   1 out of a maximum of   46
 All quantities printed in internal units (Hartrees-Bohrs-Radians)
 RMS Force = .46700D-02 SwitMx=.10000D-02 MixMth= 1
 Mixed Optimization -- RFO/linear search
 Second derivative matrix not updated -- first step.
 ITU=  0
     Eigenvalues ---    0.01951   0.03043   0.03043   0.03043   0.03424
     Eigenvalues ---    0.03424   0.10468   0.10468   0.10934   0.16000
     Eigenvalues ---    0.16000   0.16000   0.27816   0.27816   0.31523
     Eigenvalues ---    0.35301   0.35301   0.35301   0.35301   0.35301
     Eigenvalues ---    0.35301
 RFO step:  Lambda=-2.35708359D-03 EMin= 1.95056474D-02
 Linear search not attempted -- first point.
 Iteration  1 RMS(Cart)=  0.01686357 RMS(Int)=  0.00000142
 Iteration  2 RMS(Cart)=  0.00000132 RMS(Int)=  0.00000001
 Iteration  3 RMS(Cart)=  0.00000000 RMS(Int)=  0.00000001
 ITry= 1 IFail=0 DXMaxC= 3.39D-02 DCOld= 1.00D+10 DXMaxT= 3.00D-01 DXLimC= 3.00D+00 Rises=F
 ClnCor:  largest displacement from symmetrization is 9.27D-09 for atom     8.
 Variable       Old X    -DE/DX   Delta X   Delta X   Delta X     New X
                                 (Linear)    (Quad)   (Total)
    R1        2.85026   0.01213   0.00000   0.03819   0.03819   2.88845
    R2        2.85026   0.01213   0.00000   0.03819   0.03819   2.88845
    R3        2.05189   0.00757   0.00000   0.02130   0.02130   2.07319
    R4        2.05189   0.00757   0.00000   0.02130   0.02130   2.07319
    R5        2.85026   0.01213   0.00000   0.03819   0.03819   2.88845
    R6        2.05189   0.00757   0.00000   0.02130   0.02130   2.07319
    R7        2.05189   0.00757   0.00000   0.02130   0.02130   2.07319
    R8        2.05189   0.00757   0.00000   0.02130   0.02130   2.07319
    R9        2.05189   0.00757   0.00000   0.02130   0.02130   2.07319
    A1        2.06210   0.00001   0.00000   0.00012   0.00012   2.06223
    A2        2.06210   0.00001   0.00000   0.00012   0.00012   2.06223
    A3        2.06210   0.00001   0.00000   0.00012   0.00012   2.06223
    A4        2.06210   0.00001   0.00000   0.00012   0.00012   2.06223
    A5        1.98939  -0.00003   0.00000  -0.00030  -0.00030   1.98908
    A6        2.06210   0.00001   0.00000   0.00012   0.00012   2.06223
    A7        2.06210   0.00001   0.00000   0.00012   0.00012   2.06223
    A8        2.06210   0.00001   0.00000   0.00012   0.00012   2.06223
    A9        2.06210   0.00001   0.00000   0.00012   0.00012   2.06223
   A10        1.98939  -0.00003   0.00000  -0.00030  -0.00030   1.98908
   A11        2.06210   0.00001   0.00000   0.00012   0.00012   2.06223
   A12        2.06210   0.00001   0.00000   0.00012   0.00012   2.06223
   A13        2.06210   0.00001   0.00000   0.00012   0.00012   2.06223
   A14        2.06210   0.00001   0.00000   0.00012   0.00012   2.06223
   A15        1.98939  -0.00003   0.00000  -0.00030  -0.00030   1.98908
    D1       -0.00000   0.00000   0.00000   0.00000   0.00000   0.00000
    D2       -2.51348   0.00002   0.00000   0.00020   0.00020  -2.51328
    D3        2.51348  -0.00002   0.00000  -0.00020  -0.00020   2.51328
    D4       -0.00000  -0.00000   0.00000   0.00000  -0.00000  -0.00000
    D5        2.51348  -0.00002   0.00000  -0.00020  -0.00020   2.51328
    D6       -0.00000  -0.00000   0.00000   0.00000   0.00000   0.00000
    D7       -0.00000   0.00000   0.00000   0.00000   0.00000  -0.00000
    D8       -2.51348   0.00002   0.00000   0.00020   0.00020  -2.51328
    D9       -2.51348   0.00002   0.00000   0.00020   0.00020  -2.51328
   D10       -0.00000   0.00000   0.00000   0.00000   0.00000   0.00000
   D11       -0.00000  -0.00000   0.00000   0.00000   0.00000   0.00000
   D12        2.51348  -0.00002   0.00000  -0.00020  -0.00020   2.51328
         Item               Value     Threshold  Converged?
 Maximum Force            0.012128     0.000450     NO 
 RMS     Force            0.004670     0.000300     NO 
 Maximum Displacement     0.033916     0.001800     NO 
 RMS     Displacement     0.016864     0.001200     NO 
 Predicted change in Energy=-1.186907D-03
 Lowest energy point so far.  Saving SCF results.
 GradGradGradGradGradGradGradGradGradGradGradGradGradGradGradGradGradGrad

 Leave Link  103 at Mon Jul 20 17:07:21 2026, MaxMem=  4026531840 cpu:         1.9
 (Enter /home/p20190052/g09/l202.exe)
                          Input orientation:                          
 ---------------------------------------------------------------------
 Center     Atomic      Atomic             Coordinates (Angstroms)
 Number     Number       Type             X           Y           Z
 ---------------------------------------------------------------------
      1          6           0       -2.896570   -0.131481   -2.341254
      2          6           0       -3.644622   -0.287998   -1.017534
      3          6           0       -2.148519    0.025035   -1.017534
      4          1           0       -2.708174   -1.031898   -2.939042
      5          1           0       -3.084967    0.768935   -2.939042
      6          1           0       -3.962951   -1.294438   -0.718641
      7          1           0       -4.339745    0.506394   -0.718641
      8          1           0       -1.830190    1.031475   -0.718640
      9          1           0       -1.453396   -0.769357   -0.718640
 ---------------------------------------------------------------------
                    Distance matrix (angstroms):
                    1          2          3          4          5
     1  C    0.000000
     2  C    1.528500   0.000000
     3  C    1.528500   1.528500   0.000000
     4  H    1.097084   2.263297   2.263297   0.000000
     5  H    1.097084   2.263297   2.263297   1.839829   0.000000
     6  H    2.263297   1.097084   2.263297   2.563899   3.155716
     7  H    2.263297   1.097084   2.263297   3.155716   2.563899
     8  H    2.263297   2.263297   1.097084   3.155716   2.563899
     9  H    2.263297   2.263297   1.097084   2.563899   3.155716
                    6          7          8          9
     6  H    0.000000
     7  H    1.839829   0.000000
     8  H    3.155716   2.563899   0.000000
     9  H    2.563899   3.155716   1.839829   0.000000
 Stoichiometry    C3H6
 Framework group  D3H[3C2(C),3SGV(H2)]
 Deg. of freedom     3
 Full point group                 D3H     NOp  12
 RotChk:  IX=0 Diff= 2.90D-15
 Largest Abelian subgroup         C2V     NOp   4
 Largest concise Abelian subgroup C2V     NOp   4
                         Standard orientation:                         
 ---------------------------------------------------------------------
 Center     Atomic      Atomic             Coordinates (Angstroms)
 Number     Number       Type             X           Y           Z
 ---------------------------------------------------------------------
      1          6           0        0.000000    0.882480   -0.000000
      2          6           0        0.764250   -0.441240   -0.000000
      3          6           0       -0.764250   -0.441240   -0.000000
      4          1           0        0.000000    1.480268    0.919914
      5          1           0        0.000000    1.480268   -0.919914
      6          1           0        1.281949   -0.740134    0.919914
      7          1           0        1.281949   -0.740134   -0.919914
      8          1           0       -1.281949   -0.740134   -0.919914
      9          1           0       -1.281949   -0.740134    0.919914
 ---------------------------------------------------------------------
 Rotational constants (GHZ):     19.6186885     19.6186885     12.2409915
 Leave Link  202 at Mon Jul 20 17:07:21 2026, MaxMem=  4026531840 cpu:         0.4
 (Enter /home/p20190052/g09/l301.exe)
 Standard basis: STO-3G (5D, 7F)
 Ernie: Thresh=  0.10000D-02 Tol=  0.10000D-05 Strict=F.
 There are     9 symmetry adapted cartesian basis functions of A1  symmetry.
 There are     2 symmetry adapted cartesian basis functions of A2  symmetry.
 There are     6 symmetry adapted cartesian basis functions of B1  symmetry.
 There are     4 symmetry adapted cartesian basis functions of B2  symmetry.
 There are     9 symmetry adapted basis functions of A1  symmetry.
 There are     2 symmetry adapted basis functions of A2  symmetry.
 There are     6 symmetry adapted basis functions of B1  symmetry.
 There are     4 symmetry adapted basis functions of B2  symmetry.
    21 basis functions,    63 primitive gaussians,    21 cartesian basis functions
    12 alpha electrons       12 beta electrons
       nuclear repulsion energy        74.6964586341 Hartrees.
 IExCor=  402 DFT=T Ex+Corr=B3LYP ExCW=0 ScaHFX=  0.200000
 ScaDFX=  0.800000  0.720000  1.000000  0.810000 ScalE2=  1.000000  1.000000
 IRadAn=      0 IRanWt=     -1 IRanGd=            0 ICorTp=0 IEmpDi=  4
 NAtoms=    9 NActive=    9 NUniq=    2 SFac= 4.00D+00 NAtFMM=   60 NAOKFM=F Big=F
 Integral buffers will be    131072 words long.
 Raffenetti 2 integral format.
 Two-electron integral symmetry is turned on.
 Leave Link  301 at Mon Jul 20 17:07:21 2026, MaxMem=  4026531840 cpu:         1.9
 (Enter /home/p20190052/g09/l302.exe)
 NPDir=0 NMtPBC=     1 NCelOv=     1 NCel=       1 NClECP=     1 NCelD=      1
         NCelK=      1 NCelE2=     1 NClLst=     1 CellRange=     0.0.
 One-electron integrals computed using PRISM.
 One-electron integral symmetry used in STVInt
 NBasis=    21 RedAO= T EigKep=  1.81D-01  NBF=     9     2     6     4
 NBsUse=    21 1.00D-06 EigRej= -1.00D+00 NBFU=     9     2     6     4
 Precomputing XC quadrature grid using
 IXCGrd= 4 IRadAn=           0 IRanWt=          -1 IRanGd=           0 AccXCQ= 0.00D+00.
 Generated NRdTot=       0 NPtTot=           0 NUsed=           0 NTot=          32
 NSgBfM=    21    21    21    21    21 MxSgAt=     9 MxSgA2=     9.
 Leave Link  302 at Mon Jul 20 17:07:21 2026, MaxMem=  4026531840 cpu:        10.3
 (Enter /home/p20190052/g09/l303.exe)
 DipDrv:  MaxL=1.
 Leave Link  303 at Mon Jul 20 17:07:22 2026, MaxMem=  4026531840 cpu:         0.8
 (Enter /home/p20190052/g09/l401.exe)
 Initial guess from the checkpoint file:  "Cyclopropane_b3lyp_sto-3g.chk"
 B after Tr=    -0.000000    0.000000    0.000000
         Rot=    1.000000    0.000000    0.000000   -0.000000 Ang=   0.00 deg.
 Guess basis will be translated and rotated to current coordinates.
 JPrj=2 DoOrth=T DoCkMO=T.
 Initial guess orbital symmetries:
       Occupied  (E') (E') (A1') (A1') (E') (E') (A2") (A1') (E")
                 (E") (E') (E')
       Virtual   (?A) (?A) (?A) (?B) (?A) (?A) (?A) (?B) (?B)
 The electronic state of the initial guess is 1-A1'.
 Generating alternative initial guess.
 ExpMin= 1.69D-01 ExpMax= 7.16D+01 ExpMxC= 7.16D+01 IAcc=1 IRadAn=         1 AccDes= 0.00D+00
 Harris functional with IExCor=  402 and IRadAn=       1 diagonalized for initial guess.
 HarFok:  IExCor=  402 AccDes= 0.00D+00 IRadAn=         1 IDoV= 1 UseB2=F ITyADJ=14
 ICtDFT=  3500011 ScaDFX=  1.000000  1.000000  1.000000  1.000000
 FoFCou: FMM=F IPFlag=           0 FMFlag=      100000 FMFlg1=           0
         NFxFlg=           0 DoJE=T BraDBF=F KetDBF=T FulRan=T
         wScrn=  0.000000 ICntrl=     500 IOpCl=  0 I1Cent=   200000004 NGrid=           0
         NMat0=    1 NMatS0=      1 NMatT0=    0 NMatD0=    1 NMtDS0=    0 NMtDT0=    0
 Petite list used in FoFCou.
 Harris En= -116.459612557143    
 Leave Link  401 at Mon Jul 20 17:07:22 2026, MaxMem=  4026531840 cpu:        17.1
 (Enter /home/p20190052/g09/l502.exe)
 Closed shell SCF:
 Using DIIS extrapolation, IDIIS=  1040.
 Integral symmetry usage will be decided dynamically.
 Keep R1 ints in memory in symmetry-blocked form, NReq=908384.
 IVT=       21097 IEndB=       21097 NGot=  4026531840 MDV=  4026502643
 LenX=  4026502643 LenY=  4026501761
 Requested convergence on RMS density matrix=1.00D-08 within 128 cycles.
 Requested convergence on MAX density matrix=1.00D-06.
 Requested convergence on             energy=1.00D-06.
 No special actions if energy rises.
 FoFCou: FMM=F IPFlag=           0 FMFlag=           0 FMFlg1=           0
         NFxFlg=           0 DoJE=F BraDBF=F KetDBF=F FulRan=T
         wScrn=  0.000000 ICntrl=     600 IOpCl=  0 I1Cent=           0 NGrid=           0
         NMat0=    1 NMatS0=    231 NMatT0=    0 NMatD0=    1 NMtDS0=    0 NMtDT0=    0
 Petite list used in FoFCou.
 Integral accuracy reduced to 1.0D-05 until final iterations.

 Cycle   1  Pass 0  IDiag  1:
 E= -116.475876497008    
 DIIS: error= 1.96D-03 at cycle   1 NSaved=   1.
 NSaved= 1 IEnMin= 1 EnMin= -116.475876497008     IErMin= 1 ErrMin= 1.96D-03
 ErrMax= 1.96D-03  0.00D+00 EMaxC= 1.00D-01 BMatC= 1.06D-04 BMatP= 1.06D-04
 IDIUse=3 WtCom= 9.80D-01 WtEn= 1.96D-02
 Coeff-Com:  0.100D+01
 Coeff-En:   0.100D+01
 Coeff:      0.100D+01
 Gap=     0.581 Goal=   None    Shift=    0.000
 GapD=    0.581 DampG=2.000 DampE=1.000 DampFc=2.0000 IDamp=-1.
 RMSDP=7.60D-04 MaxDP=4.46D-03              OVMax= 0.00D+00

 Cycle   2  Pass 0  IDiag  1:
 E= -116.475973374336     Delta-E=       -0.000096877329 Rises=F Damp=F
 DIIS: error= 6.82D-04 at cycle   2 NSaved=   2.
 NSaved= 2 IEnMin= 2 EnMin= -116.475973374336     IErMin= 2 ErrMin= 6.82D-04
 ErrMax= 6.82D-04  0.00D+00 EMaxC= 1.00D-01 BMatC= 1.04D-05 BMatP= 1.06D-04
 IDIUse=3 WtCom= 9.93D-01 WtEn= 6.82D-03
 Coeff-Com:  0.147D+00 0.853D+00
 Coeff-En:   0.000D+00 0.100D+01
 Coeff:      0.146D+00 0.854D+00
 Gap=     0.511 Goal=   None    Shift=    0.000
 RMSDP=3.14D-04 MaxDP=1.73D-03 DE=-9.69D-05 OVMax= 0.00D+00

 Cycle   3  Pass 0  IDiag  1:
 E= -116.475984430781     Delta-E=       -0.000011056444 Rises=F Damp=F
 DIIS: error= 3.17D-04 at cycle   3 NSaved=   3.
 NSaved= 3 IEnMin= 3 EnMin= -116.475984430781     IErMin= 3 ErrMin= 3.17D-04
 ErrMax= 3.17D-04  0.00D+00 EMaxC= 1.00D-01 BMatC= 2.01D-06 BMatP= 1.04D-05
 IDIUse=3 WtCom= 9.97D-01 WtEn= 3.17D-03
 Coeff-Com: -0.103D-01 0.300D+00 0.710D+00
 Coeff-En:   0.000D+00 0.180D-01 0.982D+00
 Coeff:     -0.103D-01 0.299D+00 0.711D+00
 Gap=     0.511 Goal=   None    Shift=    0.000
 RMSDP=9.44D-05 MaxDP=5.85D-04 DE=-1.11D-05 OVMax= 0.00D+00

 Cycle   4  Pass 0  IDiag  1:
 E= -116.475987130055     Delta-E=       -0.000002699274 Rises=F Damp=F
 DIIS: error= 3.25D-06 at cycle   4 NSaved=   4.
 NSaved= 4 IEnMin= 4 EnMin= -116.475987130055     IErMin= 4 ErrMin= 3.25D-06
 ErrMax= 3.25D-06  0.00D+00 EMaxC= 1.00D-01 BMatC= 2.46D-10 BMatP= 2.01D-06
 IDIUse=1 WtCom= 1.00D+00 WtEn= 0.00D+00
 Coeff-Com: -0.790D-04-0.174D-01-0.304D-01 0.105D+01
 Coeff:     -0.790D-04-0.174D-01-0.304D-01 0.105D+01
 Gap=     0.511 Goal=   None    Shift=    0.000
 RMSDP=1.54D-06 MaxDP=1.41D-05 DE=-2.70D-06 OVMax= 0.00D+00

 Initial convergence to 1.0D-05 achieved.  Increase integral accuracy.
 Cycle   5  Pass 1  IDiag  1:
 E= -116.475972595496     Delta-E=        0.000014534559 Rises=F Damp=F
 DIIS: error= 2.22D-06 at cycle   1 NSaved=   1.
 NSaved= 1 IEnMin= 1 EnMin= -116.475972595496     IErMin= 1 ErrMin= 2.22D-06
 ErrMax= 2.22D-06  0.00D+00 EMaxC= 1.00D-01 BMatC= 8.39D-11 BMatP= 8.39D-11
 IDIUse=1 WtCom= 1.00D+00 WtEn= 0.00D+00
 Coeff-Com:  0.100D+01
 Coeff:      0.100D+01
 Gap=     0.511 Goal=   None    Shift=    0.000
 RMSDP=1.54D-06 MaxDP=1.41D-05 DE= 1.45D-05 OVMax= 0.00D+00

 Cycle   6  Pass 1  IDiag  1:
 E= -116.475972595677     Delta-E=       -0.000000000181 Rises=F Damp=F
 DIIS: error= 5.50D-07 at cycle   2 NSaved=   2.
 NSaved= 2 IEnMin= 2 EnMin= -116.475972595677     IErMin= 2 ErrMin= 5.50D-07
 ErrMax= 5.50D-07  0.00D+00 EMaxC= 1.00D-01 BMatC= 5.27D-12 BMatP= 8.39D-11
 IDIUse=1 WtCom= 1.00D+00 WtEn= 0.00D+00
 Coeff-Com:  0.109D+00 0.891D+00
 Coeff:      0.109D+00 0.891D+00
 Gap=     0.511 Goal=   None    Shift=    0.000
 RMSDP=2.20D-07 MaxDP=1.42D-06 DE=-1.81D-10 OVMax= 0.00D+00

 Cycle   7  Pass 1  IDiag  1:
 E= -116.475972595683     Delta-E=       -0.000000000006 Rises=F Damp=F
 DIIS: error= 2.40D-07 at cycle   3 NSaved=   3.
 NSaved= 3 IEnMin= 3 EnMin= -116.475972595683     IErMin= 3 ErrMin= 2.40D-07
 ErrMax= 2.40D-07  0.00D+00 EMaxC= 1.00D-01 BMatC= 1.21D-12 BMatP= 5.27D-12
 IDIUse=1 WtCom= 1.00D+00 WtEn= 0.00D+00
 Coeff-Com: -0.137D-01 0.305D+00 0.708D+00
 Coeff:     -0.137D-01 0.305D+00 0.708D+00
 Gap=     0.511 Goal=   None    Shift=    0.000
 RMSDP=7.75D-08 MaxDP=4.28D-07 DE=-5.91D-12 OVMax= 0.00D+00

 Cycle   8  Pass 1  IDiag  1:
 E= -116.475972595685     Delta-E=       -0.000000000002 Rises=F Damp=F
 DIIS: error= 1.12D-08 at cycle   4 NSaved=   4.
 NSaved= 4 IEnMin= 4 EnMin= -116.475972595685     IErMin= 4 ErrMin= 1.12D-08
 ErrMax= 1.12D-08  0.00D+00 EMaxC= 1.00D-01 BMatC= 3.80D-15 BMatP= 1.21D-12
 IDIUse=1 WtCom= 1.00D+00 WtEn= 0.00D+00
 Coeff-Com: -0.290D-02 0.107D-01 0.749D-01 0.917D+00
 Coeff:     -0.290D-02 0.107D-01 0.749D-01 0.917D+00
 Gap=     0.511 Goal=   None    Shift=    0.000
 RMSDP=4.89D-09 MaxDP=2.22D-08 DE=-1.53D-12 OVMax= 0.00D+00

 SCF Done:  E(RB3LYP) =  -116.475972596     A.U. after    8 cycles
            NFock=  8  Conv=0.49D-08     -V/T= 2.0175
 KE= 1.144767607812D+02 PE=-4.181187524231D+02 EE= 1.124695604121D+02
 Leave Link  502 at Mon Jul 20 17:07:22 2026, MaxMem=  4026531840 cpu:         9.3
 (Enter /home/p20190052/g09/l701.exe)
 Compute integral first derivatives.
 ... and contract with generalized density number  0.
 Leave Link  701 at Mon Jul 20 17:07:23 2026, MaxMem=  4026531840 cpu:        11.3
 (Enter /home/p20190052/g09/l702.exe)
 L702 exits ... SP integral derivatives will be done elsewhere.
 Leave Link  702 at Mon Jul 20 17:07:23 2026, MaxMem=  4026531840 cpu:         0.8
 (Enter /home/p20190052/g09/l703.exe)
 Compute integral first derivatives, UseDBF=F ICtDFT=           0.
 Integral derivatives from FoFJK, PRISM(SPDF).
 Calling FoFJK, ICntrl=      2127 FMM=F ISym2X=1 I1Cent= 0 IOpClX= 0 NMat=1 NMatS=1 NMatT=0.
 FoFJK:  IHMeth= 1 ICntrl=    2127 DoSepK=F KAlg= 0 I1Cent=   0 FoldK=F
 IRaf=         0 NMat=   1 IRICut=       1 DoRegI=T DoRafI=F ISym2E= 1.
 FoFCou: FMM=F IPFlag=           0 FMFlag=      100000 FMFlg1=         800
         NFxFlg=           0 DoJE=F BraDBF=F KetDBF=F FulRan=T
         wScrn=  0.000000 ICntrl=    2127 IOpCl=  0 I1Cent=           0 NGrid=           0
         NMat0=    1 NMatS0=      1 NMatT0=    0 NMatD0=    1 NMtDS0=    0 NMtDT0=    0
 Petite list used in FoFCou.
 Leave Link  703 at Mon Jul 20 17:07:23 2026, MaxMem=  4026531840 cpu:         6.0
 (Enter /home/p20190052/g09/l716.exe)
 Dipole        = 1.33226763D-15-1.33226763D-15 4.44089210D-16
 ***** Axes restored to original set *****
 -------------------------------------------------------------------
 Center     Atomic                   Forces (Hartrees/Bohr)
 Number     Number              X              Y              Z
 -------------------------------------------------------------------
      1        6           0.000000000    0.000000000   -0.001318249
      2        6          -0.001117440   -0.000233805    0.000659124
      3        6           0.001117439    0.000233805    0.000659125
      4        1          -0.000181465    0.000867287    0.001090045
      5        1           0.000181465   -0.000867287    0.001090045
      6        1           0.000742533    0.001060618   -0.000545022
      7        1           0.001105463   -0.000673956   -0.000545022
      8        1          -0.000742533   -0.001060618   -0.000545023
      9        1          -0.001105463    0.000673956   -0.000545023
 -------------------------------------------------------------------
 Cartesian Forces:  Max     0.001318249 RMS     0.000794733
 Leave Link  716 at Mon Jul 20 17:07:23 2026, MaxMem=  4026531840 cpu:         0.9
 (Enter /home/p20190052/g09/l103.exe)

 GradGradGradGradGradGradGradGradGradGradGradGradGradGradGradGradGradGrad
 Berny optimization.
 Using GEDIIS/GDIIS optimizer.
 FormGI is forming the generalized inverse of G from B-inverse, IUseBI=4.
 Internal  Forces:  Max     0.001336928 RMS     0.000587457
 Search for a local minimum.
 Step number   2 out of a maximum of   46
 All quantities printed in internal units (Hartrees-Bohrs-Radians)
 RMS Force = .58746D-03 SwitMx=.10000D-02 MixMth= 2
 Mixed Optimization -- En-DIIS/RFO-DIIS
 Update second derivatives using D2CorX and points    1    2
 DE= -1.05D-03 DEPred=-1.19D-03 R= 8.82D-01
 TightC=F SS=  1.41D+00  RLast= 8.43D-02 DXNew= 5.0454D-01 2.5276D-01
 Trust test= 8.82D-01 RLast= 8.43D-02 DXMaxT set to 3.00D-01
 ITU=  1  0
 Use linear search instead of GDIIS.
     Eigenvalues ---    0.01951   0.03044   0.03044   0.03044   0.03424
     Eigenvalues ---    0.03424   0.10479   0.10479   0.10924   0.16000
     Eigenvalues ---    0.16000   0.16000   0.27894   0.27894   0.30956
     Eigenvalues ---    0.35301   0.35301   0.35301   0.35301   0.35301
     Eigenvalues ---    0.39751
 RFO step:  Lambda=-1.57510142D-05 EMin= 1.95063989D-02
 Quartic linear search produced a step of -0.09172.
 Iteration  1 RMS(Cart)=  0.00216487 RMS(Int)=  0.00000210
 Iteration  2 RMS(Cart)=  0.00000195 RMS(Int)=  0.00000046
 Iteration  3 RMS(Cart)=  0.00000000 RMS(Int)=  0.00000046
 ITry= 1 IFail=0 DXMaxC= 5.15D-03 DCOld= 1.00D+10 DXMaxT= 3.00D-01 DXLimC= 3.00D+00 Rises=F
 ClnCor:  largest displacement from symmetrization is 5.28D-09 for atom     8.
 Variable       Old X    -DE/DX   Delta X   Delta X   Delta X     New X
                                 (Linear)    (Quad)   (Total)
    R1        2.88845  -0.00050  -0.00350   0.00221  -0.00130   2.88715
    R2        2.88845  -0.00050  -0.00350   0.00221  -0.00130   2.88715
    R3        2.07319  -0.00134  -0.00195  -0.00140  -0.00336   2.06983
    R4        2.07319  -0.00134  -0.00195  -0.00140  -0.00336   2.06983
    R5        2.88845  -0.00050  -0.00350   0.00221  -0.00130   2.88715
    R6        2.07319  -0.00134  -0.00195  -0.00140  -0.00336   2.06983
    R7        2.07319  -0.00134  -0.00195  -0.00140  -0.00336   2.06983
    R8        2.07319  -0.00134  -0.00195  -0.00140  -0.00336   2.06983
    R9        2.07319  -0.00134  -0.00195  -0.00140  -0.00336   2.06983
    A1        2.06223  -0.00015  -0.00001  -0.00121  -0.00122   2.06100
    A2        2.06223  -0.00015  -0.00001  -0.00121  -0.00122   2.06100
    A3        2.06223  -0.00015  -0.00001  -0.00121  -0.00122   2.06100
    A4        2.06223  -0.00015  -0.00001  -0.00121  -0.00122   2.06100
    A5        1.98908   0.00036   0.00003   0.00294   0.00296   1.99205
    A6        2.06223  -0.00015  -0.00001  -0.00121  -0.00122   2.06100
    A7        2.06223  -0.00015  -0.00001  -0.00121  -0.00122   2.06100
    A8        2.06223  -0.00015  -0.00001  -0.00121  -0.00122   2.06100
    A9        2.06223  -0.00015  -0.00001  -0.00121  -0.00122   2.06100
   A10        1.98908   0.00036   0.00003   0.00294   0.00296   1.99205
   A11        2.06223  -0.00015  -0.00001  -0.00121  -0.00122   2.06100
   A12        2.06223  -0.00015  -0.00001  -0.00121  -0.00122   2.06100
   A13        2.06223  -0.00015  -0.00001  -0.00121  -0.00122   2.06100
   A14        2.06223  -0.00015  -0.00001  -0.00121  -0.00122   2.06100
   A15        1.98908   0.00036   0.00003   0.00294   0.00296   1.99205
    D1        0.00000   0.00000  -0.00000  -0.00000  -0.00000   0.00000
    D2       -2.51328  -0.00023  -0.00002  -0.00189  -0.00191  -2.51519
    D3        2.51328   0.00023   0.00002   0.00189   0.00191   2.51519
    D4        0.00000  -0.00000   0.00000  -0.00000   0.00000   0.00000
    D5        2.51328   0.00023   0.00002   0.00189   0.00191   2.51519
    D6        0.00000  -0.00000   0.00000  -0.00000  -0.00000   0.00000
    D7       -0.00000   0.00000  -0.00000  -0.00000   0.00000   0.00000
    D8       -2.51328  -0.00023  -0.00002  -0.00189  -0.00191  -2.51519
    D9       -2.51328  -0.00023  -0.00002  -0.00189  -0.00191  -2.51519
   D10        0.00000  -0.00000   0.00000  -0.00000   0.00000   0.00000
   D11       -0.00000   0.00000   0.00000  -0.00000   0.00000   0.00000
   D12        2.51328   0.00023   0.00002   0.00189   0.00191   2.51519
         Item               Value     Threshold  Converged?
 Maximum Force            0.001337     0.000450     NO 
 RMS     Force            0.000587     0.000300     NO 
 Maximum Displacement     0.005151     0.001800     NO 
 RMS     Displacement     0.002165     0.001200     NO 
 Predicted change in Energy=-1.805319D-05
 Lowest energy point so far.  Saving SCF results.
 GradGradGradGradGradGradGradGradGradGradGradGradGradGradGradGradGradGrad

 Leave Link  103 at Mon Jul 20 17:07:23 2026, MaxMem=  4026531840 cpu:         2.3
 (Enter /home/p20190052/g09/l202.exe)
                          Input orientation:                          
 ---------------------------------------------------------------------
 Center     Atomic      Atomic             Coordinates (Angstroms)
 Number     Number       Type             X           Y           Z
 ---------------------------------------------------------------------
      1          6           0       -2.896570   -0.131481   -2.340858
      2          6           0       -3.644286   -0.287928   -1.017732
      3          6           0       -2.148855    0.024965   -1.017732
      4          1           0       -2.708298   -1.031305   -2.936316
      5          1           0       -3.084843    0.768342   -2.936316
      6          1           0       -3.960765   -1.293362   -0.720004
      7          1           0       -4.337310    0.506285   -0.720004
      8          1           0       -1.832376    1.030399   -0.720003
      9          1           0       -1.455831   -0.769248   -0.720003
 ---------------------------------------------------------------------
                    Distance matrix (angstroms):
                    1          2          3          4          5
     1  C    0.000000
     2  C    1.527814   0.000000
     3  C    1.527814   1.527814   0.000000
     4  H    1.095307   2.260453   2.260453   0.000000
     5  H    1.095307   2.260453   2.260453   1.838618   0.000000
     6  H    2.260453   1.095307   2.260453   2.559177   3.151175
     7  H    2.260453   1.095307   2.260453   3.151175   2.559177
     8  H    2.260453   2.260453   1.095307   3.151175   2.559177
     9  H    2.260453   2.260453   1.095307   2.559177   3.151175
                    6          7          8          9
     6  H    0.000000
     7  H    1.838618   0.000000
     8  H    3.151175   2.559177   0.000000
     9  H    2.559177   3.151175   1.838618   0.000000
 Stoichiometry    C3H6
 Framework group  D3H[3C2(C),3SGV(H2)]
 Deg. of freedom     3
 Full point group                 D3H     NOp  12
 RotChk:  IX=0 Diff= 1.91D-15
 Largest Abelian subgroup         C2V     NOp   4
 Largest concise Abelian subgroup C2V     NOp   4
                         Standard orientation:                         
 ---------------------------------------------------------------------
 Center     Atomic      Atomic             Coordinates (Angstroms)
 Number     Number       Type             X           Y           Z
 ---------------------------------------------------------------------
      1          6           0       -0.000000    0.882084   -0.000000
      2          6           0        0.763907   -0.441042   -0.000000
      3          6           0       -0.763907   -0.441042    0.000000
      4          1           0       -0.000000    1.477542    0.919309
      5          1           0        0.000000    1.477542   -0.919309
      6          1           0        1.279589   -0.738771    0.919309
      7          1           0        1.279589   -0.738771   -0.919309
      8          1           0       -1.279589   -0.738771   -0.919309
      9          1           0       -1.279589   -0.738771    0.919309
 ---------------------------------------------------------------------
 Rotational constants (GHZ):     19.6520233     19.6520233     12.2629479
 Leave Link  202 at Mon Jul 20 17:07:23 2026, MaxMem=  4026531840 cpu:         0.4
 (Enter /home/p20190052/g09/l301.exe)
 Standard basis: STO-3G (5D, 7F)
 Ernie: Thresh=  0.10000D-02 Tol=  0.10000D-05 Strict=F.
 There are     9 symmetry adapted cartesian basis functions of A1  symmetry.
 There are     2 symmetry adapted cartesian basis functions of A2  symmetry.
 There are     6 symmetry adapted cartesian basis functions of B1  symmetry.
 There are     4 symmetry adapted cartesian basis functions of B2  symmetry.
 There are     9 symmetry adapted basis functions of A1  symmetry.
 There are     2 symmetry adapted basis functions of A2  symmetry.
 There are     6 symmetry adapted basis functions of B1  symmetry.
 There are     4 symmetry adapted basis functions of B2  symmetry.
    21 basis functions,    63 primitive gaussians,    21 cartesian basis functions
    12 alpha electrons       12 beta electrons
       nuclear repulsion energy        74.7668926130 Hartrees.
 IExCor=  402 DFT=T Ex+Corr=B3LYP ExCW=0 ScaHFX=  0.200000
 ScaDFX=  0.800000  0.720000  1.000000  0.810000 ScalE2=  1.000000  1.000000
 IRadAn=      0 IRanWt=     -1 IRanGd=            0 ICorTp=0 IEmpDi=  4
 NAtoms=    9 NActive=    9 NUniq=    2 SFac= 4.00D+00 NAtFMM=   60 NAOKFM=F Big=F
 Integral buffers will be    131072 words long.
 Raffenetti 2 integral format.
 Two-electron integral symmetry is turned on.
 Leave Link  301 at Mon Jul 20 17:07:23 2026, MaxMem=  4026531840 cpu:         2.1
 (Enter /home/p20190052/g09/l302.exe)
 NPDir=0 NMtPBC=     1 NCelOv=     1 NCel=       1 NClECP=     1 NCelD=      1
         NCelK=      1 NCelE2=     1 NClLst=     1 CellRange=     0.0.
 One-electron integrals computed using PRISM.
 One-electron integral symmetry used in STVInt
 NBasis=    21 RedAO= T EigKep=  1.80D-01  NBF=     9     2     6     4
 NBsUse=    21 1.00D-06 EigRej= -1.00D+00 NBFU=     9     2     6     4
 Precomputing XC quadrature grid using
 IXCGrd= 4 IRadAn=           0 IRanWt=          -1 IRanGd=           0 AccXCQ= 0.00D+00.
 Generated NRdTot=       0 NPtTot=           0 NUsed=           0 NTot=          32
 NSgBfM=    21    21    21    21    21 MxSgAt=     9 MxSgA2=     9.
 Leave Link  302 at Mon Jul 20 17:07:24 2026, MaxMem=  4026531840 cpu:        10.9
 (Enter /home/p20190052/g09/l303.exe)
 DipDrv:  MaxL=1.
 Leave Link  303 at Mon Jul 20 17:07:24 2026, MaxMem=  4026531840 cpu:         0.8
 (Enter /home/p20190052/g09/l401.exe)
 Initial guess from the checkpoint file:  "Cyclopropane_b3lyp_sto-3g.chk"
 B after Tr=     0.000000   -0.000000   -0.000000
         Rot=    1.000000   -0.000000    0.000000   -0.000000 Ang=   0.00 deg.
 Guess basis will be translated and rotated to current coordinates.
 JPrj=2 DoOrth=T DoCkMO=T.
 Initial guess orbital symmetries:
       Occupied  (E') (E') (A1') (A1') (E') (E') (A2") (A1') (E")
                 (E") (E') (E')
       Virtual   (?A) (?A) (?A) (?B) (?A) (?A) (?A) (?B) (?B)
 The electronic state of the initial guess is 1-A1'.
 Leave Link  401 at Mon Jul 20 17:07:24 2026, MaxMem=  4026531840 cpu:         2.8
 (Enter /home/p20190052/g09/l502.exe)
 Closed shell SCF:
 Using DIIS extrapolation, IDIIS=  1040.
 Integral symmetry usage will be decided dynamically.
 Keep R1 ints in memory in symmetry-blocked form, NReq=908384.
 IVT=       21097 IEndB=       21097 NGot=  4026531840 MDV=  4026502643
 LenX=  4026502643 LenY=  4026501761
 Requested convergence on RMS density matrix=1.00D-08 within 128 cycles.
 Requested convergence on MAX density matrix=1.00D-06.
 Requested convergence on             energy=1.00D-06.
 No special actions if energy rises.
 FoFCou: FMM=F IPFlag=           0 FMFlag=           0 FMFlg1=           0
         NFxFlg=           0 DoJE=F BraDBF=F KetDBF=F FulRan=T
         wScrn=  0.000000 ICntrl=     600 IOpCl=  0 I1Cent=           0 NGrid=           0
         NMat0=    1 NMatS0=    231 NMatT0=    0 NMatD0=    1 NMtDS0=    0 NMtDT0=    0
 Petite list used in FoFCou.

 Cycle   1  Pass 1  IDiag  1:
 E= -116.475991384205    
 DIIS: error= 1.74D-04 at cycle   1 NSaved=   1.
 NSaved= 1 IEnMin= 1 EnMin= -116.475991384205     IErMin= 1 ErrMin= 1.74D-04
 ErrMax= 1.74D-04  0.00D+00 EMaxC= 1.00D-01 BMatC= 8.54D-07 BMatP= 8.54D-07
 IDIUse=3 WtCom= 9.98D-01 WtEn= 1.74D-03
 Coeff-Com:  0.100D+01
 Coeff-En:   0.100D+01
 Coeff:      0.100D+01
 Gap=     0.582 Goal=   None    Shift=    0.000
 RMSDP=9.33D-05 MaxDP=4.58D-04              OVMax= 0.00D+00

 Cycle   2  Pass 1  IDiag  1:
 E= -116.475992309268     Delta-E=       -0.000000925063 Rises=F Damp=F
 DIIS: error= 7.12D-05 at cycle   2 NSaved=   2.
 NSaved= 2 IEnMin= 2 EnMin= -116.475992309268     IErMin= 2 ErrMin= 7.12D-05
 ErrMax= 7.12D-05  0.00D+00 EMaxC= 1.00D-01 BMatC= 1.20D-07 BMatP= 8.54D-07
 IDIUse=1 WtCom= 1.00D+00 WtEn= 0.00D+00
 Coeff-Com:  0.197D+00 0.803D+00
 Coeff:      0.197D+00 0.803D+00
 Gap=     0.511 Goal=   None    Shift=    0.000
 RMSDP=3.12D-05 MaxDP=1.75D-04 DE=-9.25D-07 OVMax= 0.00D+00

 Cycle   3  Pass 1  IDiag  1:
 E= -116.475992448048     Delta-E=       -0.000000138780 Rises=F Damp=F
 DIIS: error= 2.81D-05 at cycle   3 NSaved=   3.
 NSaved= 3 IEnMin= 3 EnMin= -116.475992448048     IErMin= 3 ErrMin= 2.81D-05
 ErrMax= 2.81D-05  0.00D+00 EMaxC= 1.00D-01 BMatC= 1.50D-08 BMatP= 1.20D-07
 IDIUse=1 WtCom= 1.00D+00 WtEn= 0.00D+00
 Coeff-Com: -0.129D-01 0.252D+00 0.761D+00
 Coeff:     -0.129D-01 0.252D+00 0.761D+00
 Gap=     0.511 Goal=   None    Shift=    0.000
 RMSDP=8.36D-06 MaxDP=5.06D-05 DE=-1.39D-07 OVMax= 0.00D+00

 Cycle   4  Pass 1  IDiag  1:
 E= -116.475992468259     Delta-E=       -0.000000020212 Rises=F Damp=F
 DIIS: error= 2.53D-07 at cycle   4 NSaved=   4.
 NSaved= 4 IEnMin= 4 EnMin= -116.475992468259     IErMin= 4 ErrMin= 2.53D-07
 ErrMax= 2.53D-07  0.00D+00 EMaxC= 1.00D-01 BMatC= 1.39D-12 BMatP= 1.50D-08
 IDIUse=1 WtCom= 1.00D+00 WtEn= 0.00D+00
 Coeff-Com: -0.555D-04-0.145D-01-0.356D-01 0.105D+01
 Coeff:     -0.555D-04-0.145D-01-0.356D-01 0.105D+01
 Gap=     0.511 Goal=   None    Shift=    0.000
 RMSDP=1.48D-07 MaxDP=1.07D-06 DE=-2.02D-08 OVMax= 0.00D+00

 Cycle   5  Pass 1  IDiag  1:
 E= -116.475992468262     Delta-E=       -0.000000000003 Rises=F Damp=F
 DIIS: error= 7.18D-09 at cycle   5 NSaved=   5.
 NSaved= 5 IEnMin= 5 EnMin= -116.475992468262     IErMin= 5 ErrMin= 7.18D-09
 ErrMax= 7.18D-09  0.00D+00 EMaxC= 1.00D-01 BMatC= 7.59D-16 BMatP= 1.39D-12
 IDIUse=1 WtCom= 1.00D+00 WtEn= 0.00D+00
 Coeff-Com:  0.410D-05-0.640D-03-0.162D-02 0.444D-01 0.958D+00
 Coeff:      0.410D-05-0.640D-03-0.162D-02 0.444D-01 0.958D+00
 Gap=     0.511 Goal=   None    Shift=    0.000
 RMSDP=3.00D-09 MaxDP=1.41D-08 DE=-2.70D-12 OVMax= 0.00D+00

 SCF Done:  E(RB3LYP) =  -116.475992468     A.U. after    5 cycles
            NFock=  5  Conv=0.30D-08     -V/T= 2.0174
 KE= 1.144861074050D+02 PE=-4.182585106439D+02 EE= 1.125295181576D+02
 Leave Link  502 at Mon Jul 20 17:07:24 2026, MaxMem=  4026531840 cpu:         7.6
 (Enter /home/p20190052/g09/l701.exe)
 Compute integral first derivatives.
 ... and contract with generalized density number  0.
 Leave Link  701 at Mon Jul 20 17:07:24 2026, MaxMem=  4026531840 cpu:        12.0
 (Enter /home/p20190052/g09/l702.exe)
 L702 exits ... SP integral derivatives will be done elsewhere.
 Leave Link  702 at Mon Jul 20 17:07:24 2026, MaxMem=  4026531840 cpu:         0.8
 (Enter /home/p20190052/g09/l703.exe)
 Compute integral first derivatives, UseDBF=F ICtDFT=           0.
 Integral derivatives from FoFJK, PRISM(SPDF).
 Calling FoFJK, ICntrl=      2127 FMM=F ISym2X=1 I1Cent= 0 IOpClX= 0 NMat=1 NMatS=1 NMatT=0.
 FoFJK:  IHMeth= 1 ICntrl=    2127 DoSepK=F KAlg= 0 I1Cent=   0 FoldK=F
 IRaf=         0 NMat=   1 IRICut=       1 DoRegI=T DoRafI=F ISym2E= 1.
 FoFCou: FMM=F IPFlag=           0 FMFlag=      100000 FMFlg1=         800
         NFxFlg=           0 DoJE=F BraDBF=F KetDBF=F FulRan=T
         wScrn=  0.000000 ICntrl=    2127 IOpCl=  0 I1Cent=           0 NGrid=           0
         NMat0=    1 NMatS0=      1 NMatT0=    0 NMatD0=    1 NMtDS0=    0 NMtDT0=    0
 Petite list used in FoFCou.
 Leave Link  703 at Mon Jul 20 17:07:25 2026, MaxMem=  4026531840 cpu:         5.7
 (Enter /home/p20190052/g09/l716.exe)
 Dipole        = 1.77635684D-15 2.22044605D-16-6.66133815D-16
 ***** Axes restored to original set *****
 -------------------------------------------------------------------
 Center     Atomic                   Forces (Hartrees/Bohr)
 Number     Number              X              Y              Z
 -------------------------------------------------------------------
      1        6           0.000000000    0.000000000   -0.000279517
      2        6          -0.000236938   -0.000049575    0.000139759
      3        6           0.000236938    0.000049575    0.000139759
      4        1           0.000020972   -0.000100233    0.000136794
      5        1          -0.000020972    0.000100233    0.000136794
      6        1           0.000136928   -0.000075971   -0.000068397
      7        1           0.000094984    0.000124495   -0.000068397
      8        1          -0.000136928    0.000075971   -0.000068397
      9        1          -0.000094984   -0.000124495   -0.000068397
 -------------------------------------------------------------------
 Cartesian Forces:  Max     0.000279517 RMS     0.000123166
 Leave Link  716 at Mon Jul 20 17:07:25 2026, MaxMem=  4026531840 cpu:         0.8
 (Enter /home/p20190052/g09/l103.exe)

 GradGradGradGradGradGradGradGradGradGradGradGradGradGradGradGradGradGrad
 Berny optimization.
 Using GEDIIS/GDIIS optimizer.
 FormGI is forming the generalized inverse of G from B-inverse, IUseBI=4.
 Internal  Forces:  Max     0.000140916 RMS     0.000064553
 Search for a local minimum.
 Step number   3 out of a maximum of   46
 All quantities printed in internal units (Hartrees-Bohrs-Radians)
 RMS Force = .64553D-04 SwitMx=.10000D-02 MixMth= 2
 Mixed Optimization -- En-DIIS/RFO-DIIS
 Swapping is turned off.
 Update second derivatives using D2CorX and points    1    2    3
 DE= -1.99D-05 DEPred=-1.81D-05 R= 1.10D+00
 TightC=F SS=  1.41D+00  RLast= 1.18D-02 DXNew= 5.0454D-01 3.5328D-02
 Trust test= 1.10D+00 RLast= 1.18D-02 DXMaxT set to 3.00D-01
 ITU=  1  1  0
     Eigenvalues ---    0.01950   0.03042   0.03042   0.03042   0.03426
     Eigenvalues ---    0.03426   0.09192   0.10491   0.10491   0.16000
     Eigenvalues ---    0.16000   0.16000   0.27904   0.27904   0.30927
     Eigenvalues ---    0.35301   0.35301   0.35301   0.35301   0.35301
     Eigenvalues ---    0.42136
 En-DIIS/RFO-DIIS IScMMF=        0 using points:     3    2
 RFO step:  Lambda=-4.89918772D-07.
 NNeg= 0 NP= 2 Switch=  2.50D-03 Rises=F DC=  1.99D-05 SmlDif=  1.00D-05
 RMS Error=  0.2113698455D-03 NUsed= 2 EDIIS=F
 DidBck=F Rises=F RFO-DIIS coefs:    1.08526   -0.08526
 Iteration  1 RMS(Cart)=  0.00063896 RMS(Int)=  0.00000030
 Iteration  2 RMS(Cart)=  0.00000025 RMS(Int)=  0.00000016
 ITry= 1 IFail=0 DXMaxC= 1.34D-03 DCOld= 1.00D+10 DXMaxT= 3.00D-01 DXLimC= 3.00D+00 Rises=F
 ClnCor:  largest displacement from symmetrization is 6.91D-09 for atom     9.
 Variable       Old X    -DE/DX   Delta X   Delta X   Delta X     New X
                                 (Linear)    (Quad)   (Total)
    R1        2.88715   0.00000  -0.00011   0.00013   0.00002   2.88717
    R2        2.88715   0.00000  -0.00011   0.00013   0.00002   2.88717
    R3        2.06983   0.00001  -0.00029   0.00023  -0.00006   2.06977
    R4        2.06983   0.00001  -0.00029   0.00023  -0.00006   2.06977
    R5        2.88715   0.00000  -0.00011   0.00013   0.00002   2.88717
    R6        2.06983   0.00001  -0.00029   0.00023  -0.00006   2.06977
    R7        2.06983   0.00001  -0.00029   0.00023  -0.00006   2.06977
    R8        2.06983   0.00001  -0.00029   0.00023  -0.00006   2.06977
    R9        2.06983   0.00001  -0.00029   0.00023  -0.00006   2.06977
    A1        2.06100  -0.00006  -0.00010  -0.00052  -0.00063   2.06038
    A2        2.06100  -0.00006  -0.00010  -0.00052  -0.00063   2.06038
    A3        2.06100  -0.00006  -0.00010  -0.00052  -0.00063   2.06038
    A4        2.06100  -0.00006  -0.00010  -0.00052  -0.00063   2.06038
    A5        1.99205   0.00014   0.00025   0.00127   0.00152   1.99357
    A6        2.06100  -0.00006  -0.00010  -0.00052  -0.00063   2.06038
    A7        2.06100  -0.00006  -0.00010  -0.00052  -0.00063   2.06038
    A8        2.06100  -0.00006  -0.00010  -0.00052  -0.00063   2.06038
    A9        2.06100  -0.00006  -0.00010  -0.00052  -0.00063   2.06038
   A10        1.99205   0.00014   0.00025   0.00127   0.00152   1.99357
   A11        2.06100  -0.00006  -0.00010  -0.00052  -0.00063   2.06038
   A12        2.06100  -0.00006  -0.00010  -0.00052  -0.00063   2.06038
   A13        2.06100  -0.00006  -0.00010  -0.00052  -0.00063   2.06038
   A14        2.06100  -0.00006  -0.00010  -0.00052  -0.00063   2.06038
   A15        1.99205   0.00014   0.00025   0.00127   0.00152   1.99357
    D1        0.00000   0.00000   0.00000   0.00000  -0.00000   0.00000
    D2       -2.51519  -0.00009  -0.00016  -0.00082  -0.00098  -2.51617
    D3        2.51519   0.00009   0.00016   0.00082   0.00098   2.51617
    D4        0.00000  -0.00000   0.00000  -0.00000  -0.00000  -0.00000
    D5        2.51519   0.00009   0.00016   0.00082   0.00098   2.51617
    D6        0.00000  -0.00000   0.00000   0.00000  -0.00000   0.00000
    D7       -0.00000   0.00000  -0.00000  -0.00000   0.00000  -0.00000
    D8       -2.51519  -0.00009  -0.00016  -0.00082  -0.00098  -2.51617
    D9       -2.51519  -0.00009  -0.00016  -0.00082  -0.00098  -2.51617
   D10       -0.00000  -0.00000   0.00000   0.00000   0.00000   0.00000
   D11       -0.00000   0.00000   0.00000  -0.00000   0.00000   0.00000
   D12        2.51519   0.00009   0.00016   0.00082   0.00098   2.51617
         Item               Value     Threshold  Converged?
 Maximum Force            0.000141     0.000450     YES
 RMS     Force            0.000065     0.000300     YES
 Maximum Displacement     0.001340     0.001800     YES
 RMS     Displacement     0.000639     0.001200     YES
 Predicted change in Energy=-8.040314D-07
 Optimization completed.
    -- Stationary point found.
                           ----------------------------
                           !   Optimized Parameters   !
                           ! (Angstroms and Degrees)  !
 --------------------------                            --------------------------
 ! Name  Definition              Value          Derivative Info.                !
 --------------------------------------------------------------------------------
 ! R1    R(1,2)                  1.5278         -DE/DX =    0.0                 !
 ! R2    R(1,3)                  1.5278         -DE/DX =    0.0                 !
 ! R3    R(1,4)                  1.0953         -DE/DX =    0.0                 !
 ! R4    R(1,5)                  1.0953         -DE/DX =    0.0                 !
 ! R5    R(2,3)                  1.5278         -DE/DX =    0.0                 !
 ! R6    R(2,6)                  1.0953         -DE/DX =    0.0                 !
 ! R7    R(2,7)                  1.0953         -DE/DX =    0.0                 !
 ! R8    R(3,8)                  1.0953         -DE/DX =    0.0                 !
 ! R9    R(3,9)                  1.0953         -DE/DX =    0.0                 !
 ! A1    A(2,1,4)              118.0869         -DE/DX =   -0.0001              !
 ! A2    A(2,1,5)              118.0869         -DE/DX =   -0.0001              !
 ! A3    A(3,1,4)              118.0869         -DE/DX =   -0.0001              !
 ! A4    A(3,1,5)              118.0869         -DE/DX =   -0.0001              !
 ! A5    A(4,1,5)              114.1359         -DE/DX =    0.0001              !
 ! A6    A(1,2,6)              118.0869         -DE/DX =   -0.0001              !
 ! A7    A(1,2,7)              118.0869         -DE/DX =   -0.0001              !
 ! A8    A(3,2,6)              118.0869         -DE/DX =   -0.0001              !
 ! A9    A(3,2,7)              118.0869         -DE/DX =   -0.0001              !
 ! A10   A(6,2,7)              114.1359         -DE/DX =    0.0001              !
 ! A11   A(1,3,8)              118.0869         -DE/DX =   -0.0001              !
 ! A12   A(1,3,9)              118.0869         -DE/DX =   -0.0001              !
 ! A13   A(2,3,8)              118.0869         -DE/DX =   -0.0001              !
 ! A14   A(2,3,9)              118.0869         -DE/DX =   -0.0001              !
 ! A15   A(8,3,9)              114.1359         -DE/DX =    0.0001              !
 ! D1    D(4,1,2,6)              0.0            -DE/DX =    0.0                 !
 ! D2    D(4,1,2,7)           -144.1097         -DE/DX =   -0.0001              !
 ! D3    D(5,1,2,6)            144.1097         -DE/DX =    0.0001              !
 ! D4    D(5,1,2,7)              0.0            -DE/DX =    0.0                 !
 ! D5    D(4,1,3,8)            144.1097         -DE/DX =    0.0001              !
 ! D6    D(4,1,3,9)              0.0            -DE/DX =    0.0                 !
 ! D7    D(5,1,3,8)              0.0            -DE/DX =    0.0                 !
 ! D8    D(5,1,3,9)           -144.1097         -DE/DX =   -0.0001              !
 ! D9    D(6,2,3,8)           -144.1097         -DE/DX =   -0.0001              !
 ! D10   D(6,2,3,9)              0.0            -DE/DX =    0.0                 !
 ! D11   D(7,2,3,8)              0.0            -DE/DX =    0.0                 !
 ! D12   D(7,2,3,9)            144.1097         -DE/DX =    0.0001              !
 --------------------------------------------------------------------------------
 Lowest energy point so far.  Saving SCF results.
 GradGradGradGradGradGradGradGradGradGradGradGradGradGradGradGradGradGrad

 Largest change from initial coordinates is atom    4       0.018 Angstoms.
 Leave Link  103 at Mon Jul 20 17:07:25 2026, MaxMem=  4026531840 cpu:         0.8
 (Enter /home/p20190052/g09/l202.exe)
                          Input orientation:                          
 ---------------------------------------------------------------------
 Center     Atomic      Atomic             Coordinates (Angstroms)
 Number     Number       Type             X           Y           Z
 ---------------------------------------------------------------------
      1          6           0       -2.896570   -0.131481   -2.340858
      2          6           0       -3.644286   -0.287928   -1.017732
      3          6           0       -2.148855    0.024965   -1.017732
      4          1           0       -2.708298   -1.031305   -2.936316
      5          1           0       -3.084843    0.768342   -2.936316
      6          1           0       -3.960765   -1.293362   -0.720004
      7          1           0       -4.337310    0.506285   -0.720004
      8          1           0       -1.832376    1.030399   -0.720003
      9          1           0       -1.455831   -0.769248   -0.720003
 ---------------------------------------------------------------------
                    Distance matrix (angstroms):
                    1          2          3          4          5
     1  C    0.000000
     2  C    1.527814   0.000000
     3  C    1.527814   1.527814   0.000000
     4  H    1.095307   2.260453   2.260453   0.000000
     5  H    1.095307   2.260453   2.260453   1.838618   0.000000
     6  H    2.260453   1.095307   2.260453   2.559177   3.151175
     7  H    2.260453   1.095307   2.260453   3.151175   2.559177
     8  H    2.260453   2.260453   1.095307   3.151175   2.559177
     9  H    2.260453   2.260453   1.095307   2.559177   3.151175
                    6          7          8          9
     6  H    0.000000
     7  H    1.838618   0.000000
     8  H    3.151175   2.559177   0.000000
     9  H    2.559177   3.151175   1.838618   0.000000
 Stoichiometry    C3H6
 Framework group  D3H[3C2(C),3SGV(H2)]
 Deg. of freedom     3
 Full point group                 D3H     NOp  12
 RotChk:  IX=0 Diff= 1.21D-15
 Largest Abelian subgroup         C2V     NOp   4
 Largest concise Abelian subgroup C2V     NOp   4
                         Standard orientation:                         
 ---------------------------------------------------------------------
 Center     Atomic      Atomic             Coordinates (Angstroms)
 Number     Number       Type             X           Y           Z
 ---------------------------------------------------------------------
      1          6           0       -0.000000    0.882084   -0.000000
      2          6           0        0.763907   -0.441042    0.000000
      3          6           0       -0.763907   -0.441042   -0.000000
      4          1           0       -0.000000    1.477542    0.919309
      5          1           0        0.000000    1.477542   -0.919309
      6          1           0        1.279589   -0.738771    0.919309
      7          1           0        1.279589   -0.738771   -0.919309
      8          1           0       -1.279589   -0.738771   -0.919309
      9          1           0       -1.279589   -0.738771    0.919309
 ---------------------------------------------------------------------
 Rotational constants (GHZ):     19.6520233     19.6520233     12.2629479
 Leave Link  202 at Mon Jul 20 17:07:25 2026, MaxMem=  4026531840 cpu:         1.2
 (Enter /home/p20190052/g09/l601.exe)
 Copying SCF densities to generalized density rwf, IOpCl= 0 IROHF=0.

 **********************************************************************

            Population analysis using the SCF density.

 **********************************************************************

 Orbital symmetries:
       Occupied  (E') (E') (A1') (A1') (E') (E') (A2") (A1') (E")
                 (E") (E') (E')
       Virtual   (A2') (A2") (A1') (E') (E') (E') (E') (E") (E")
 The electronic state is 1-A1'.
 Alpha  occ. eigenvalues --  -10.00820 -10.00820 -10.00710  -0.79951  -0.56171
 Alpha  occ. eigenvalues --   -0.56171  -0.45609  -0.42446  -0.32971  -0.32971
 Alpha  occ. eigenvalues --   -0.24843  -0.24843
 Alpha virt. eigenvalues --    0.26270   0.33793   0.42030   0.43235   0.43235
 Alpha virt. eigenvalues --    0.50153   0.50153   0.55989   0.55989
          Condensed to atoms (all electrons):
               1          2          3          4          5          6
     1  C    4.856122   0.295583   0.295583   0.386285   0.386285  -0.014485
     2  C    0.295583   4.856122   0.295583  -0.014485  -0.014485   0.386285
     3  C    0.295583   0.295583   4.856122  -0.014485  -0.014485  -0.014485
     4  H    0.386285  -0.014485  -0.014485   0.588059  -0.021408  -0.003427
     5  H    0.386285  -0.014485  -0.014485  -0.021408   0.588059   0.000964
     6  H   -0.014485   0.386285  -0.014485  -0.003427   0.000964   0.588059
     7  H   -0.014485   0.386285  -0.014485   0.000964  -0.003427  -0.021408
     8  H   -0.014485  -0.014485   0.386285   0.000964  -0.003427   0.000964
     9  H   -0.014485  -0.014485   0.386285  -0.003427   0.000964  -0.003427
               7          8          9
     1  C   -0.014485  -0.014485  -0.014485
     2  C    0.386285  -0.014485  -0.014485
     3  C   -0.014485   0.386285   0.386285
     4  H    0.000964   0.000964  -0.003427
     5  H   -0.003427  -0.003427   0.000964
     6  H   -0.021408   0.000964  -0.003427
     7  H    0.588059  -0.003427   0.000964
     8  H   -0.003427   0.588059  -0.021408
     9  H    0.000964  -0.021408   0.588059
 Mulliken charges:
               1
     1  C   -0.161920
     2  C   -0.161920
     3  C   -0.161920
     4  H    0.080960
     5  H    0.080960
     6  H    0.080960
     7  H    0.080960
     8  H    0.080960
     9  H    0.080960
 Sum of Mulliken charges =  -0.00000
 Mulliken charges with hydrogens summed into heavy atoms:
               1
     1  C   -0.000000
     2  C   -0.000000
     3  C   -0.000000
 Electronic spatial extent (au):  <R**2>=            156.4499
 Charge=              0.0000 electrons
 Dipole moment (field-independent basis, Debye):
    X=              0.0000    Y=             -0.0000    Z=             -0.0000  Tot=              0.0000
 Quadrupole moment (field-independent basis, Debye-Ang):
   XX=            -19.2227   YY=            -19.2227   ZZ=            -17.4426
   XY=             -0.0000   XZ=              0.0000   YZ=             -0.0000
 Traceless Quadrupole moment (field-independent basis, Debye-Ang):
   XX=             -0.5934   YY=             -0.5934   ZZ=              1.1867
   XY=             -0.0000   XZ=              0.0000   YZ=             -0.0000
 Octapole moment (field-independent basis, Debye-Ang**2):
  XXX=             -0.0000  YYY=              1.7317  ZZZ=              0.0000  XYY=              0.0000
  XXY=             -1.7317  XXZ=              0.0000  XZZ=             -0.0000  YZZ=              0.0000
  YYZ=             -0.0000  XYZ=             -0.0000
 Hexadecapole moment (field-independent basis, Debye-Ang**3):
 XXXX=            -79.7591 YYYY=            -79.7591 ZZZZ=            -35.1312 XXXY=              0.0000
 XXXZ=              0.0000 YYYX=              0.0000 YYYZ=             -0.0000 ZZZX=              0.0000
 ZZZY=             -0.0000 XXYY=            -26.5864 XXZZ=            -16.9270 YYZZ=            -16.9270
 XXYZ=             -0.0000 YYXZ=              0.0000 ZZXY=              0.0000
 N-N= 7.476689261305D+01 E-N=-4.182585106466D+02  KE= 1.144861074050D+02
 Symmetry A1   KE= 7.232425225169D+01
 Symmetry A2   KE= 2.077876282436D+00
 Symmetry B1   KE= 3.631339363628D+01
 Symmetry B2   KE= 3.770585234590D+00
 No NMR shielding tensors so no spin-rotation constants.
 Leave Link  601 at Mon Jul 20 17:07:25 2026, MaxMem=  4026531840 cpu:        18.4
 (Enter /home/p20190052/g09/l9999.exe)
 1\1\ WCSS.PL-BEM-NODE1\FOpt\RB3LYP\STO-3G\C3H6\P20190052\20-Jul-2026\0
 \\#p opt b3lyp/sto-3g\\Cyclopropane b3lyp sto-3g\\0,1\C,-2.8965702754,
 -0.1314814693,-2.3408581668\C,-3.6442859239,-0.2879281954,-1.017732333
 1\C,-2.1488548945,0.0249652006,-1.0177321752\H,-2.7082975539,-1.031304
 7932,-2.9363158767\H,-3.0848428764,0.76834188,-2.9363158766\H,-3.96076
 45381,-1.2933621136,-0.7200035315\H,-4.3373098605,0.5062845597,-0.7200
 035314\H,-1.8323763407,1.0303991062,-0.7200032669\H,-1.4558310182,-0.7
 69247567,-0.720003267\\Version=ES64L-G09RevE.01\State=1-A1'\HF=-116.47
 59925\RMSD=2.996e-09\RMSF=1.232e-04\Dipole=0.,0.,0.\Quadrupole=-0.3856
 409,0.8267902,-0.4411493,-0.2652947,0.,0.\PG=D03H [3C2(C1),3SGV(H2)]\\
 @


 LEARN FROM YESTERDAY,
 LIVE FOR TODAY,
 LOOK TO TOMORROW,
 REST THIS AFTERNOON.

           -- SNOOPY
 Job cpu time:       0 days  0 hours  4 minutes 11.4 seconds.
 File lengths (MBytes):  RWF=      5 Int=      0 D2E=      0 Chk=      1 Scr=      1
 Normal termination of Gaussian 09 at Mon Jul 20 17:07:25 2026.
