 Entering Gaussian System, Link 0=g09
 Input=Cyclopropane-b3lyp-631gd.gjf
 Output=Cyclopropane-b3lyp-631gd.log
 Initial command:
 /home/p20190052/g09/l1.exe "/home/p20190052/g09/scratch/Gau-58311.inp" -scrdir="/home/p20190052/g09/scratch/"
 Entering Link 1 = /home/p20190052/g09/l1.exe PID=     58312.
  
 Copyright (c) 1988,1990,1992,1993,1995,1998,2003,2009,2015,
            Gaussian, Inc.  All Rights Reserved.
  
 This is part of the Gaussian(R) 09 program.  It is based on
 the Gaussian(R) 03 system (copyright 2003, Gaussian, Inc.),
 the Gaussian(R) 98 system (copyright 1998, Gaussian, Inc.),
 the Gaussian(R) 94 system (copyright 1995, Gaussian, Inc.),
 the Gaussian 92(TM) system (copyright 1992, Gaussian, Inc.),
 the Gaussian 90(TM) system (copyright 1990, Gaussian, Inc.),
 the Gaussian 88(TM) system (copyright 1988, Gaussian, Inc.),
 the Gaussian 86(TM) system (copyright 1986, Carnegie Mellon
 University), and the Gaussian 82(TM) system (copyright 1983,
 Carnegie Mellon University). Gaussian is a federally registered
 trademark of Gaussian, Inc.
  
 This software contains proprietary and confidential information,
 including trade secrets, belonging to Gaussian, Inc.
  
 This software is provided under written license and may be
 used, copied, transmitted, or stored only in accord with that
 written license.
  
 The following legend is applicable only to US Government
 contracts under FAR:
  
                    RESTRICTED RIGHTS LEGEND
  
 Use, reproduction and disclosure by the US Government is
 subject to restrictions as set forth in subparagraphs (a)
 and (c) of the Commercial Computer Software - Restricted
 Rights clause in FAR 52.227-19.
  
 Gaussian, Inc.
 340 Quinnipiac St., Bldg. 40, Wallingford CT 06492
  
  
 ---------------------------------------------------------------
 Warning -- This program may not be used in any manner that
 competes with the business of Gaussian, Inc. or will provide
 assistance to any competitor of Gaussian, Inc.  The licensee
 of this program is prohibited from giving any competitor of
 Gaussian, Inc. access to this program.  By using this program,
 the user acknowledges that Gaussian, Inc. is engaged in the
 business of creating and licensing software in the field of
 computational chemistry and represents and warrants to the
 licensee that it is not a competitor of Gaussian, Inc. and that
 it will not use this program in any manner prohibited above.
 ---------------------------------------------------------------
  

 Cite this work as:
 Gaussian 09, Revision E.01,
 M. J. Frisch, G. W. Trucks, H. B. Schlegel, G. E. Scuseria, 
 M. A. Robb, J. R. Cheeseman, G. Scalmani, V. Barone, B. Mennucci, 
 G. A. Petersson, H. Nakatsuji, M. Caricato, X. Li, H. P. Hratchian, 
 A. F. Izmaylov, J. Bloino, G. Zheng, J. L. Sonnenberg, M. Hada, 
 M. Ehara, K. Toyota, R. Fukuda, J. Hasegawa, M. Ishida, T. Nakajima, 
 Y. Honda, O. Kitao, H. Nakai, T. Vreven, J. A. Montgomery, Jr., 
 J. E. Peralta, F. Ogliaro, M. Bearpark, J. J. Heyd, E. Brothers, 
 K. N. Kudin, V. N. Staroverov, T. Keith, R. Kobayashi, J. Normand, 
 K. Raghavachari, A. Rendell, J. C. Burant, S. S. Iyengar, J. Tomasi, 
 M. Cossi, N. Rega, J. M. Millam, M. Klene, J. E. Knox, J. B. Cross, 
 V. Bakken, C. Adamo, J. Jaramillo, R. Gomperts, R. E. Stratmann, 
 O. Yazyev, A. J. Austin, R. Cammi, C. Pomelli, J. W. Ochterski, 
 R. L. Martin, K. Morokuma, V. G. Zakrzewski, G. A. Voth, 
 P. Salvador, J. J. Dannenberg, S. Dapprich, A. D. Daniels, 
 O. Farkas, J. B. Foresman, J. V. Ortiz, J. Cioslowski, 
 and D. J. Fox, Gaussian, Inc., Wallingford CT, 2013.
 
 ******************************************
 Gaussian 09:  ES64L-G09RevE.01 30-Nov-2015
                20-Jul-2026 
 ******************************************
 %mem=30GB
 %nprocs=40
 Will use up to   40 processors via shared memory.
 %chk=Cyclopropane_b3lyp_6-31g_d.chk
 ---------------------
 #p opt b3lyp/6-31g(d)
 ---------------------
 1/14=-1,18=20,19=15,26=3,38=1/1,3;
 2/9=110,12=2,17=6,18=5,40=1/2;
 3/5=1,6=6,7=1,11=2,16=1,25=1,30=1,71=1,74=-5/1,2,3;
 4//1;
 5/5=2,38=5/2;
 6/7=2,8=2,9=2,10=2,28=1/1;
 7//1,2,3,16;
 1/14=-1,18=20,19=15,26=3/3(2);
 2/9=110/2;
 99//99;
 2/9=110/2;
 3/5=1,6=6,7=1,11=2,16=1,25=1,30=1,71=1,74=-5/1,2,3;
 4/5=5,16=3,69=1/1;
 5/5=2,38=5/2;
 7//1,2,3,16;
 1/14=-1,18=20,19=15,26=3/3(-5);
 2/9=110/2;
 6/7=2,8=2,9=2,10=2,19=2,28=1/1;
 99/9=1/99;
 Leave Link    1 at Mon Jul 20 17:07:06 2026, MaxMem=  4026531840 cpu:         1.4
 (Enter /home/p20190052/g09/l101.exe)
 ---------------------------
 Cyclopropane b3lyp 6-31G(d)
 ---------------------------
 Symbolic Z-matrix:
 Charge =  0 Multiplicity = 1
 C                    -2.89657  -0.13148  -2.32959 
 C                    -3.63473  -0.28593  -1.02337 
 C                    -2.15841   0.02297  -1.02337 
 H                    -2.71009  -1.02273  -2.92109 
 H                    -3.08305   0.75977  -2.92109 
 H                    -3.94965  -1.28209  -0.72761 
 H                    -4.32261   0.50041  -0.72761 
 H                    -1.84349   1.01913  -0.72761 
 H                    -1.47053  -0.76338  -0.72761 
 
 NAtoms=      9 NQM=        9 NQMF=       0 NMMI=      0 NMMIF=      0
                NMic=       0 NMicF=      0.
                    Isotopes and Nuclear Properties:
 (Nuclear quadrupole moments (NQMom) in fm**2, nuclear magnetic moments (NMagM)
  in nuclear magnetons)

  Atom         1           2           3           4           5           6           7           8           9
 IAtWgt=          12          12          12           1           1           1           1           1           1
 AtmWgt=  12.0000000  12.0000000  12.0000000   1.0078250   1.0078250   1.0078250   1.0078250   1.0078250   1.0078250
 NucSpn=           0           0           0           1           1           1           1           1           1
 AtZEff=   0.0000000   0.0000000   0.0000000   0.0000000   0.0000000   0.0000000   0.0000000   0.0000000   0.0000000
 NQMom=    0.0000000   0.0000000   0.0000000   0.0000000   0.0000000   0.0000000   0.0000000   0.0000000   0.0000000
 NMagM=    0.0000000   0.0000000   0.0000000   2.7928460   2.7928460   2.7928460   2.7928460   2.7928460   2.7928460
 AtZNuc=   6.0000000   6.0000000   6.0000000   1.0000000   1.0000000   1.0000000   1.0000000   1.0000000   1.0000000
 Leave Link  101 at Mon Jul 20 17:07:07 2026, MaxMem=  4026531840 cpu:        12.2
 (Enter /home/p20190052/g09/l103.exe)

 GradGradGradGradGradGradGradGradGradGradGradGradGradGradGradGradGradGrad
 Berny optimization.
 Initialization pass.
                           ----------------------------
                           !    Initial Parameters    !
                           ! (Angstroms and Degrees)  !
 --------------------------                            --------------------------
 ! Name  Definition              Value          Derivative Info.                !
 --------------------------------------------------------------------------------
 ! R1    R(1,2)                  1.5083         estimate D2E/DX2                !
 ! R2    R(1,3)                  1.5083         estimate D2E/DX2                !
 ! R3    R(1,4)                  1.0858         estimate D2E/DX2                !
 ! R4    R(1,5)                  1.0858         estimate D2E/DX2                !
 ! R5    R(2,3)                  1.5083         estimate D2E/DX2                !
 ! R6    R(2,6)                  1.0858         estimate D2E/DX2                !
 ! R7    R(2,7)                  1.0858         estimate D2E/DX2                !
 ! R8    R(3,8)                  1.0858         estimate D2E/DX2                !
 ! R9    R(3,9)                  1.0858         estimate D2E/DX2                !
 ! A1    A(2,1,4)              118.1497         estimate D2E/DX2                !
 ! A2    A(2,1,5)              118.1497         estimate D2E/DX2                !
 ! A3    A(3,1,4)              118.1497         estimate D2E/DX2                !
 ! A4    A(3,1,5)              118.1497         estimate D2E/DX2                !
 ! A5    A(4,1,5)              113.9834         estimate D2E/DX2                !
 ! A6    A(1,2,6)              118.1497         estimate D2E/DX2                !
 ! A7    A(1,2,7)              118.1497         estimate D2E/DX2                !
 ! A8    A(3,2,6)              118.1497         estimate D2E/DX2                !
 ! A9    A(3,2,7)              118.1497         estimate D2E/DX2                !
 ! A10   A(6,2,7)              113.9834         estimate D2E/DX2                !
 ! A11   A(1,3,8)              118.1497         estimate D2E/DX2                !
 ! A12   A(1,3,9)              118.1497         estimate D2E/DX2                !
 ! A13   A(2,3,8)              118.1497         estimate D2E/DX2                !
 ! A14   A(2,3,9)              118.1497         estimate D2E/DX2                !
 ! A15   A(8,3,9)              113.9834         estimate D2E/DX2                !
 ! D1    D(4,1,2,6)              0.0            estimate D2E/DX2                !
 ! D2    D(4,1,2,7)           -144.0117         estimate D2E/DX2                !
 ! D3    D(5,1,2,6)            144.0117         estimate D2E/DX2                !
 ! D4    D(5,1,2,7)              0.0            estimate D2E/DX2                !
 ! D5    D(4,1,3,8)            144.0117         estimate D2E/DX2                !
 ! D6    D(4,1,3,9)              0.0            estimate D2E/DX2                !
 ! D7    D(5,1,3,8)              0.0            estimate D2E/DX2                !
 ! D8    D(5,1,3,9)           -144.0117         estimate D2E/DX2                !
 ! D9    D(6,2,3,8)           -144.0116         estimate D2E/DX2                !
 ! D10   D(6,2,3,9)              0.0            estimate D2E/DX2                !
 ! D11   D(7,2,3,8)              0.0            estimate D2E/DX2                !
 ! D12   D(7,2,3,9)            144.0116         estimate D2E/DX2                !
 --------------------------------------------------------------------------------
 Trust Radius=3.00D-01 FncErr=1.00D-07 GrdErr=1.00D-06
 Number of steps in this run=     46 maximum allowed number of steps=    100.
 GradGradGradGradGradGradGradGradGradGradGradGradGradGradGradGradGradGrad

 Leave Link  103 at Mon Jul 20 17:07:07 2026, MaxMem=  4026531840 cpu:         0.2
 (Enter /home/p20190052/g09/l202.exe)
                          Input orientation:                          
 ---------------------------------------------------------------------
 Center     Atomic      Atomic             Coordinates (Angstroms)
 Number     Number       Type             X           Y           Z
 ---------------------------------------------------------------------
      1          6           0       -2.896570   -0.131481   -2.329587
      2          6           0       -3.634732   -0.285929   -1.023368
      3          6           0       -2.158409    0.022966   -1.023368
      4          1           0       -2.710091   -1.022734   -2.921094
      5          1           0       -3.083050    0.759771   -2.921094
      6          1           0       -3.949655   -1.282091   -0.727614
      7          1           0       -4.322613    0.500413   -0.727614
      8          1           0       -1.843486    1.019128   -0.727614
      9          1           0       -1.470528   -0.763376   -0.727614
 ---------------------------------------------------------------------
                    Distance matrix (angstroms):
                    1          2          3          4          5
     1  C    0.000000
     2  C    1.508292   0.000000
     3  C    1.508292   1.508292   0.000000
     4  H    1.085811   2.235890   2.235890   0.000000
     5  H    1.085811   2.235890   2.235890   1.821104   0.000000
     6  H    2.235891   1.085811   2.235890   2.532812   3.119545
     7  H    2.235891   1.085811   2.235890   3.119545   2.532812
     8  H    2.235891   2.235890   1.085811   3.119545   2.532812
     9  H    2.235891   2.235890   1.085811   2.532812   3.119545
                    6          7          8          9
     6  H    0.000000
     7  H    1.821104   0.000000
     8  H    3.119544   2.532812   0.000000
     9  H    2.532812   3.119544   1.821104   0.000000
 Stoichiometry    C3H6
 Framework group  D3H[3C2(C),3SGV(H2)]
 Deg. of freedom     3
 Full point group                 D3H     NOp  12
 Largest Abelian subgroup         C2V     NOp   4
 Largest concise Abelian subgroup C2V     NOp   4
                         Standard orientation:                         
 ---------------------------------------------------------------------
 Center     Atomic      Atomic             Coordinates (Angstroms)
 Number     Number       Type             X           Y           Z
 ---------------------------------------------------------------------
      1          6           0       -0.000000    0.870813   -0.000000
      2          6           0        0.754146   -0.435406   -0.000000
      3          6           0       -0.754146   -0.435406   -0.000000
      4          1           0       -0.000000    1.462320    0.910552
      5          1           0        0.000000    1.462320   -0.910552
      6          1           0        1.266406   -0.731160    0.910552
      7          1           0        1.266406   -0.731160   -0.910552
      8          1           0       -1.266406   -0.731160   -0.910552
      9          1           0       -1.266406   -0.731160    0.910552
 ---------------------------------------------------------------------
 Rotational constants (GHZ):     20.1117381     20.1117381     12.5622403
 Leave Link  202 at Mon Jul 20 17:07:07 2026, MaxMem=  4026531840 cpu:         0.4
 (Enter /home/p20190052/g09/l301.exe)
 Standard basis: 6-31G(d) (6D, 7F)
 Ernie: Thresh=  0.10000D-02 Tol=  0.10000D-05 Strict=F.
 There are    23 symmetry adapted cartesian basis functions of A1  symmetry.
 There are     7 symmetry adapted cartesian basis functions of A2  symmetry.
 There are    16 symmetry adapted cartesian basis functions of B1  symmetry.
 There are    11 symmetry adapted cartesian basis functions of B2  symmetry.
 There are    23 symmetry adapted basis functions of A1  symmetry.
 There are     7 symmetry adapted basis functions of A2  symmetry.
 There are    16 symmetry adapted basis functions of B1  symmetry.
 There are    11 symmetry adapted basis functions of B2  symmetry.
    57 basis functions,   108 primitive gaussians,    57 cartesian basis functions
    12 alpha electrons       12 beta electrons
       nuclear repulsion energy        75.6197795831 Hartrees.
 IExCor=  402 DFT=T Ex+Corr=B3LYP ExCW=0 ScaHFX=  0.200000
 ScaDFX=  0.800000  0.720000  1.000000  0.810000 ScalE2=  1.000000  1.000000
 IRadAn=      0 IRanWt=     -1 IRanGd=            0 ICorTp=0 IEmpDi=  4
 NAtoms=    9 NActive=    9 NUniq=    2 SFac= 4.00D+00 NAtFMM=   60 NAOKFM=F Big=F
 Integral buffers will be    131072 words long.
 Raffenetti 2 integral format.
 Two-electron integral symmetry is turned on.
 Leave Link  301 at Mon Jul 20 17:07:07 2026, MaxMem=  4026531840 cpu:         2.1
 (Enter /home/p20190052/g09/l302.exe)
 NPDir=0 NMtPBC=     1 NCelOv=     1 NCel=       1 NClECP=     1 NCelD=      1
         NCelK=      1 NCelE2=     1 NClLst=     1 CellRange=     0.0.
 One-electron integrals computed using PRISM.
 One-electron integral symmetry used in STVInt
 NBasis=    57 RedAO= T EigKep=  7.58D-03  NBF=    23     7    16    11
 NBsUse=    57 1.00D-06 EigRej= -1.00D+00 NBFU=    23     7    16    11
 Precomputing XC quadrature grid using
 IXCGrd= 4 IRadAn=           0 IRanWt=          -1 IRanGd=           0 AccXCQ= 0.00D+00.
 Generated NRdTot=       0 NPtTot=           0 NUsed=           0 NTot=          32
 NSgBfM=    57    57    57    57    57 MxSgAt=     9 MxSgA2=     9.
 Leave Link  302 at Mon Jul 20 17:07:07 2026, MaxMem=  4026531840 cpu:        13.8
 (Enter /home/p20190052/g09/l303.exe)
 DipDrv:  MaxL=1.
 Leave Link  303 at Mon Jul 20 17:07:07 2026, MaxMem=  4026531840 cpu:         0.9
 (Enter /home/p20190052/g09/l401.exe)
 ExpMin= 1.61D-01 ExpMax= 3.05D+03 ExpMxC= 4.57D+02 IAcc=1 IRadAn=         1 AccDes= 0.00D+00
 Harris functional with IExCor=  402 and IRadAn=       1 diagonalized for initial guess.
 HarFok:  IExCor=  402 AccDes= 0.00D+00 IRadAn=         1 IDoV= 1 UseB2=F ITyADJ=14
 ICtDFT=  3500011 ScaDFX=  1.000000  1.000000  1.000000  1.000000
 FoFCou: FMM=F IPFlag=           0 FMFlag=      100000 FMFlg1=           0
         NFxFlg=           0 DoJE=T BraDBF=F KetDBF=T FulRan=T
         wScrn=  0.000000 ICntrl=     500 IOpCl=  0 I1Cent=   200000004 NGrid=           0
         NMat0=    1 NMatS0=      1 NMatT0=    0 NMatD0=    1 NMtDS0=    0 NMtDT0=    0
 Petite list used in FoFCou.
 Harris En= -117.934411277783    
 JPrj=0 DoOrth=F DoCkMO=F.
 Initial guess orbital symmetries:
       Occupied  (A1') (E') (E') (A1') (E') (E') (A2") (A1') (E")
                 (E") (E') (E')
       Virtual   (A2') (A2") (A1') (E') (E') (E') (E') (E") (E")
                 (A1') (A2") (E') (E') (E') (E') (A1') (A2') (E")
                 (E") (A2") (E") (E") (E') (E') (A1') (E') (E')
                 (A1') (E") (E") (E') (E') (A2") (A1") (A1') (E')
                 (E') (E') (E') (E") (E") (A2') (A1') (E') (E')
 The electronic state of the initial guess is 1-A1'.
 Leave Link  401 at Mon Jul 20 17:07:08 2026, MaxMem=  4026531840 cpu:        16.4
 (Enter /home/p20190052/g09/l502.exe)
 Closed shell SCF:
 Using DIIS extrapolation, IDIIS=  1040.
 Integral symmetry usage will be decided dynamically.
 Keep R1 ints in memory in symmetry-blocked form, NReq=2280499.
 IVT=       31465 IEndB=       31465 NGot=  4026531840 MDV=  4026144557
 LenX=  4026144557 LenY=  4026140867
 Requested convergence on RMS density matrix=1.00D-08 within 128 cycles.
 Requested convergence on MAX density matrix=1.00D-06.
 Requested convergence on             energy=1.00D-06.
 No special actions if energy rises.
 FoFCou: FMM=F IPFlag=           0 FMFlag=           0 FMFlg1=           0
         NFxFlg=           0 DoJE=F BraDBF=F KetDBF=F FulRan=T
         wScrn=  0.000000 ICntrl=     600 IOpCl=  0 I1Cent=           0 NGrid=           0
         NMat0=    1 NMatS0=   1653 NMatT0=    0 NMatD0=    1 NMtDS0=    0 NMtDT0=    0
 Petite list used in FoFCou.
 Integral accuracy reduced to 1.0D-05 until final iterations.

 Cycle   1  Pass 0  IDiag  1:
 E= -117.771191934526    
 DIIS: error= 5.07D-02 at cycle   1 NSaved=   1.
 NSaved= 1 IEnMin= 1 EnMin= -117.771191934526     IErMin= 1 ErrMin= 5.07D-02
 ErrMax= 5.07D-02  0.00D+00 EMaxC= 1.00D-01 BMatC= 1.09D-01 BMatP= 1.09D-01
 IDIUse=3 WtCom= 4.93D-01 WtEn= 5.07D-01
 Coeff-Com:  0.100D+01
 Coeff-En:   0.100D+01
 Coeff:      0.100D+01
 Gap=     0.295 Goal=   None    Shift=    0.000
 GapD=    0.295 DampG=1.000 DampE=0.500 DampFc=0.5000 IDamp=-1.
 Damping current iteration by 5.00D-01
 RMSDP=1.27D-02 MaxDP=1.25D-01              OVMax= 1.64D-01

 Cycle   2  Pass 0  IDiag  1:
 E= -117.825479066590     Delta-E=       -0.054287132064 Rises=F Damp=T
 DIIS: error= 1.04D-02 at cycle   2 NSaved=   2.
 NSaved= 2 IEnMin= 2 EnMin= -117.825479066590     IErMin= 2 ErrMin= 1.04D-02
 ErrMax= 1.04D-02  0.00D+00 EMaxC= 1.00D-01 BMatC= 5.11D-03 BMatP= 1.09D-01
 IDIUse=3 WtCom= 8.96D-01 WtEn= 1.04D-01
 Coeff-Com:  0.893D-01 0.911D+00
 Coeff-En:   0.137D+00 0.863D+00
 Coeff:      0.942D-01 0.906D+00
 Gap=     0.391 Goal=   None    Shift=    0.000
 RMSDP=1.71D-03 MaxDP=1.20D-02 DE=-5.43D-02 OVMax= 9.25D-02

 Cycle   3  Pass 0  IDiag  1:
 E= -117.894985379338     Delta-E=       -0.069506312748 Rises=F Damp=F
 DIIS: error= 2.41D-03 at cycle   3 NSaved=   3.
 NSaved= 3 IEnMin= 3 EnMin= -117.894985379338     IErMin= 3 ErrMin= 2.41D-03
 ErrMax= 2.41D-03  0.00D+00 EMaxC= 1.00D-01 BMatC= 2.60D-04 BMatP= 5.11D-03
 IDIUse=3 WtCom= 9.76D-01 WtEn= 2.41D-02
 Coeff-Com:  0.929D-03 0.141D+00 0.858D+00
 Coeff-En:   0.000D+00 0.000D+00 0.100D+01
 Coeff:      0.906D-03 0.138D+00 0.861D+00
 Gap=     0.393 Goal=   None    Shift=    0.000
 RMSDP=3.15D-04 MaxDP=2.96D-03 DE=-6.95D-02 OVMax= 4.88D-03

 Cycle   4  Pass 0  IDiag  1:
 E= -117.895204899755     Delta-E=       -0.000219520418 Rises=F Damp=F
 DIIS: error= 4.82D-04 at cycle   4 NSaved=   4.
 NSaved= 4 IEnMin= 4 EnMin= -117.895204899755     IErMin= 4 ErrMin= 4.82D-04
 ErrMax= 4.82D-04  0.00D+00 EMaxC= 1.00D-01 BMatC= 1.04D-05 BMatP= 2.60D-04
 IDIUse=3 WtCom= 9.95D-01 WtEn= 4.82D-03
 Coeff-Com: -0.108D-02 0.222D-02 0.171D+00 0.828D+00
 Coeff-En:   0.000D+00 0.000D+00 0.000D+00 0.100D+01
 Coeff:     -0.107D-02 0.221D-02 0.170D+00 0.828D+00
 Gap=     0.393 Goal=   None    Shift=    0.000
 RMSDP=6.06D-05 MaxDP=4.04D-04 DE=-2.20D-04 OVMax= 7.39D-04

 Cycle   5  Pass 0  IDiag  1:
 E= -117.895214243897     Delta-E=       -0.000009344141 Rises=F Damp=F
 DIIS: error= 1.00D-05 at cycle   5 NSaved=   5.
 NSaved= 5 IEnMin= 5 EnMin= -117.895214243897     IErMin= 5 ErrMin= 1.00D-05
 ErrMax= 1.00D-05  0.00D+00 EMaxC= 1.00D-01 BMatC= 6.02D-09 BMatP= 1.04D-05
 IDIUse=1 WtCom= 1.00D+00 WtEn= 0.00D+00
 Coeff-Com:  0.504D-04-0.633D-03-0.162D-02 0.129D-01 0.989D+00
 Coeff:      0.504D-04-0.633D-03-0.162D-02 0.129D-01 0.989D+00
 Gap=     0.393 Goal=   None    Shift=    0.000
 RMSDP=1.80D-06 MaxDP=1.73D-05 DE=-9.34D-06 OVMax= 1.82D-05

 Initial convergence to 1.0D-05 achieved.  Increase integral accuracy.
 Cycle   6  Pass 1  IDiag  1:
 E= -117.895205394981     Delta-E=        0.000008848915 Rises=F Damp=F
 DIIS: error= 6.57D-06 at cycle   1 NSaved=   1.
 NSaved= 1 IEnMin= 1 EnMin= -117.895205394981     IErMin= 1 ErrMin= 6.57D-06
 ErrMax= 6.57D-06  0.00D+00 EMaxC= 1.00D-01 BMatC= 1.86D-09 BMatP= 1.86D-09
 IDIUse=1 WtCom= 1.00D+00 WtEn= 0.00D+00
 Coeff-Com:  0.100D+01
 Coeff:      0.100D+01
 Gap=     0.393 Goal=   None    Shift=    0.000
 RMSDP=1.80D-06 MaxDP=1.73D-05 DE= 8.85D-06 OVMax= 1.16D-05

 Cycle   7  Pass 1  IDiag  1:
 E= -117.895205396741     Delta-E=       -0.000000001760 Rises=F Damp=F
 DIIS: error= 5.55D-07 at cycle   2 NSaved=   2.
 NSaved= 2 IEnMin= 2 EnMin= -117.895205396741     IErMin= 2 ErrMin= 5.55D-07
 ErrMax= 5.55D-07  0.00D+00 EMaxC= 1.00D-01 BMatC= 2.19D-11 BMatP= 1.86D-09
 IDIUse=1 WtCom= 1.00D+00 WtEn= 0.00D+00
 Coeff-Com:  0.147D-01 0.985D+00
 Coeff:      0.147D-01 0.985D+00
 Gap=     0.393 Goal=   None    Shift=    0.000
 RMSDP=1.25D-07 MaxDP=9.37D-07 DE=-1.76D-09 OVMax= 1.58D-06

 Cycle   8  Pass 1  IDiag  1:
 E= -117.895205396760     Delta-E=       -0.000000000019 Rises=F Damp=F
 DIIS: error= 2.79D-07 at cycle   3 NSaved=   3.
 NSaved= 3 IEnMin= 3 EnMin= -117.895205396760     IErMin= 3 ErrMin= 2.79D-07
 ErrMax= 2.79D-07  0.00D+00 EMaxC= 1.00D-01 BMatC= 3.12D-12 BMatP= 2.19D-11
 IDIUse=1 WtCom= 1.00D+00 WtEn= 0.00D+00
 Coeff-Com: -0.106D-01 0.252D+00 0.758D+00
 Coeff:     -0.106D-01 0.252D+00 0.758D+00
 Gap=     0.393 Goal=   None    Shift=    0.000
 RMSDP=3.61D-08 MaxDP=2.95D-07 DE=-1.95D-11 OVMax= 4.35D-07

 Cycle   9  Pass 1  IDiag  1:
 E= -117.895205396762     Delta-E=       -0.000000000002 Rises=F Damp=F
 DIIS: error= 5.07D-08 at cycle   4 NSaved=   4.
 NSaved= 4 IEnMin= 4 EnMin= -117.895205396762     IErMin= 4 ErrMin= 5.07D-08
 ErrMax= 5.07D-08  0.00D+00 EMaxC= 1.00D-01 BMatC= 1.48D-13 BMatP= 3.12D-12
 IDIUse=1 WtCom= 1.00D+00 WtEn= 0.00D+00
 Coeff-Com: -0.448D-02 0.902D-01 0.304D+00 0.611D+00
 Coeff:     -0.448D-02 0.902D-01 0.304D+00 0.611D+00
 Gap=     0.393 Goal=   None    Shift=    0.000
 RMSDP=8.64D-09 MaxDP=8.34D-08 DE=-2.13D-12 OVMax= 1.15D-07

 SCF Done:  E(RB3LYP) =  -117.895205397     A.U. after    9 cycles
            NFock=  9  Conv=0.86D-08     -V/T= 2.0104
 KE= 1.166772012880D+02 PE=-4.233079597457D+02 EE= 1.131157734779D+02
 Leave Link  502 at Mon Jul 20 17:07:08 2026, MaxMem=  4026531840 cpu:        12.5
 (Enter /home/p20190052/g09/l601.exe)
 Copying SCF densities to generalized density rwf, IOpCl= 0 IROHF=0.

 **********************************************************************

            Population analysis using the SCF density.

 **********************************************************************

 Orbital symmetries:
       Occupied  (A1') (E') (E') (A1') (E') (E') (A2") (A1') (E")
                 (E") (E') (E')
       Virtual   (A1') (A2") (A2') (E') (E') (E") (E") (E') (E')
                 (A1') (A2") (E') (E') (E') (E') (A1') (A2') (E")
                 (E") (A2") (E") (E") (E') (E') (A1') (E') (E')
                 (A1') (E") (E") (E') (E') (A2") (A1") (A1') (E')
                 (E') (E') (E') (E") (E") (A2') (A1') (E') (E')
 The electronic state is 1-A1'.
 Alpha  occ. eigenvalues --  -10.18161 -10.18124 -10.18124  -0.84191  -0.59197
 Alpha  occ. eigenvalues --   -0.59197  -0.48745  -0.46077  -0.35925  -0.35925
 Alpha  occ. eigenvalues --   -0.28765  -0.28765
 Alpha virt. eigenvalues --    0.10569   0.11017   0.15632   0.15646   0.15646
 Alpha virt. eigenvalues --    0.23232   0.23232   0.26255   0.26255   0.47813
 Alpha virt. eigenvalues --    0.54714   0.56414   0.56414   0.63511   0.63511
 Alpha virt. eigenvalues --    0.69804   0.70322   0.79264   0.79264   0.86614
 Alpha virt. eigenvalues --    0.92665   0.92665   0.94484   0.94484   0.96352
 Alpha virt. eigenvalues --    1.27762   1.27762   1.56077   1.81756   1.81756
 Alpha virt. eigenvalues --    1.88124   1.88124   1.89306   2.01312   2.10723
 Alpha virt. eigenvalues --    2.28723   2.28723   2.49318   2.49318   2.50985
 Alpha virt. eigenvalues --    2.50985   2.78185   4.09676   4.39182   4.39182
          Condensed to atoms (all electrons):
               1          2          3          4          5          6
     1  C    5.050588   0.284958   0.284958   0.385860   0.385860  -0.023016
     2  C    0.284958   5.050588   0.284958  -0.023016  -0.023016   0.385860
     3  C    0.284958   0.284958   5.050588  -0.023016  -0.023016  -0.023016
     4  H    0.385860  -0.023016  -0.023016   0.549459  -0.032366  -0.005738
     5  H    0.385860  -0.023016  -0.023016  -0.032366   0.549459   0.002238
     6  H   -0.023016   0.385860  -0.023016  -0.005738   0.002238   0.549459
     7  H   -0.023016   0.385860  -0.023016   0.002238  -0.005738  -0.032366
     8  H   -0.023016  -0.023016   0.385860   0.002238  -0.005738   0.002238
     9  H   -0.023016  -0.023016   0.385860  -0.005738   0.002238  -0.005738
               7          8          9
     1  C   -0.023016  -0.023016  -0.023016
     2  C    0.385860  -0.023016  -0.023016
     3  C   -0.023016   0.385860   0.385860
     4  H    0.002238   0.002238  -0.005738
     5  H   -0.005738  -0.005738   0.002238
     6  H   -0.032366   0.002238  -0.005738
     7  H    0.549459  -0.005738   0.002238
     8  H   -0.005738   0.549459  -0.032366
     9  H    0.002238  -0.032366   0.549459
 Mulliken charges:
               1
     1  C   -0.300159
     2  C   -0.300159
     3  C   -0.300159
     4  H    0.150080
     5  H    0.150080
     6  H    0.150080
     7  H    0.150080
     8  H    0.150080
     9  H    0.150080
 Sum of Mulliken charges =  -0.00000
 Mulliken charges with hydrogens summed into heavy atoms:
               1
     1  C   -0.000000
     2  C   -0.000000
     3  C   -0.000000
 Electronic spatial extent (au):  <R**2>=            156.0682
 Charge=              0.0000 electrons
 Dipole moment (field-independent basis, Debye):
    X=             -0.0000    Y=              0.0000    Z=             -0.0000  Tot=              0.0000
 Quadrupole moment (field-independent basis, Debye-Ang):
   XX=            -20.3216   YY=            -20.3216   ZZ=            -18.1912
   XY=             -0.0000   XZ=             -0.0000   YZ=             -0.0000
 Traceless Quadrupole moment (field-independent basis, Debye-Ang):
   XX=             -0.7101   YY=             -0.7101   ZZ=              1.4203
   XY=             -0.0000   XZ=             -0.0000   YZ=             -0.0000
 Octapole moment (field-independent basis, Debye-Ang**2):
  XXX=              0.0000  YYY=              2.1995  ZZZ=             -0.0000  XYY=              0.0000
  XXY=             -2.1995  XXZ=             -0.0000  XZZ=              0.0000  YZZ=              0.0000
  YYZ=             -0.0000  XYZ=              0.0000
 Hexadecapole moment (field-independent basis, Debye-Ang**3):
 XXXX=            -85.3561 YYYY=            -85.3561 ZZZZ=            -38.6979 XXXY=              0.0000
 XXXZ=              0.0000 YYYX=              0.0000 YYYZ=             -0.0000 ZZZX=             -0.0000
 ZZZY=              0.0000 XXYY=            -28.4520 XXZZ=            -18.7177 YYZZ=            -18.7177
 XXYZ=              0.0000 YYXZ=             -0.0000 ZZXY=             -0.0000
 N-N= 7.561977958308D+01 E-N=-4.233079653097D+02  KE= 1.166772012880D+02
 Symmetry A1   KE= 7.379248278175D+01
 Symmetry A2   KE= 2.103852258642D+00
 Symmetry B1   KE= 3.690610441480D+01
 Symmetry B2   KE= 3.874761832777D+00
 No NMR shielding tensors so no spin-rotation constants.
 Leave Link  601 at Mon Jul 20 17:07:09 2026, MaxMem=  4026531840 cpu:        18.0
 (Enter /home/p20190052/g09/l701.exe)
 Compute integral first derivatives.
 ... and contract with generalized density number  0.
 Leave Link  701 at Mon Jul 20 17:07:09 2026, MaxMem=  4026531840 cpu:        18.5
 (Enter /home/p20190052/g09/l702.exe)
 L702 exits ... SP integral derivatives will be done elsewhere.
 Leave Link  702 at Mon Jul 20 17:07:09 2026, MaxMem=  4026531840 cpu:         0.8
 (Enter /home/p20190052/g09/l703.exe)
 Compute integral first derivatives, UseDBF=F ICtDFT=           0.
 Integral derivatives from FoFJK, PRISM(SPDF).
 Calling FoFJK, ICntrl=      2127 FMM=F ISym2X=1 I1Cent= 0 IOpClX= 0 NMat=1 NMatS=1 NMatT=0.
 FoFJK:  IHMeth= 1 ICntrl=    2127 DoSepK=F KAlg= 0 I1Cent=   0 FoldK=F
 IRaf=         0 NMat=   1 IRICut=       1 DoRegI=T DoRafI=F ISym2E= 1.
 FoFCou: FMM=F IPFlag=           0 FMFlag=      100000 FMFlg1=         800
         NFxFlg=           0 DoJE=F BraDBF=F KetDBF=F FulRan=T
         wScrn=  0.000000 ICntrl=    2127 IOpCl=  0 I1Cent=           0 NGrid=           0
         NMat0=    1 NMatS0=      1 NMatT0=    0 NMatD0=    1 NMtDS0=    0 NMtDT0=    0
 Petite list used in FoFCou.
 Leave Link  703 at Mon Jul 20 17:07:09 2026, MaxMem=  4026531840 cpu:         8.6
 (Enter /home/p20190052/g09/l716.exe)
 Dipole        =-8.88178420D-16 8.88178420D-16-1.55431223D-15
 ***** Axes restored to original set *****
 -------------------------------------------------------------------
 Center     Atomic                   Forces (Hartrees/Bohr)
 Number     Number              X              Y              Z
 -------------------------------------------------------------------
      1        6          -0.000000000   -0.000000000    0.000323309
      2        6           0.000274059    0.000057342   -0.000161654
      3        6          -0.000274059   -0.000057342   -0.000161655
      4        1           0.000094324   -0.000450808   -0.000386898
      5        1          -0.000094324    0.000450808   -0.000386898
      6        1          -0.000233637   -0.000519429    0.000193449
      7        1          -0.000422285    0.000382188    0.000193449
      8        1           0.000233637    0.000519429    0.000193449
      9        1           0.000422285   -0.000382188    0.000193449
 -------------------------------------------------------------------
 Cartesian Forces:  Max     0.000519429 RMS     0.000303344
 Leave Link  716 at Mon Jul 20 17:07:09 2026, MaxMem=  4026531840 cpu:         1.0
 (Enter /home/p20190052/g09/l103.exe)

 GradGradGradGradGradGradGradGradGradGradGradGradGradGradGradGradGradGrad
 Berny optimization.
 FormGI is forming the generalized inverse of G from B-inverse, IUseBI=4.
 Internal  Forces:  Max     0.000596997 RMS     0.000256506
 Search for a local minimum.
 Step number   1 out of a maximum of   46
 All quantities printed in internal units (Hartrees-Bohrs-Radians)
 RMS Force = .25651D-03 SwitMx=.10000D-02 MixMth= 2
 Mixed Optimization -- En-DIIS/RFO-DIIS
 Second derivative matrix not updated -- first step.
 ITU=  0
     Eigenvalues ---    0.01951   0.03043   0.03043   0.03043   0.03424
     Eigenvalues ---    0.03424   0.10468   0.10468   0.10934   0.16000
     Eigenvalues ---    0.16000   0.16000   0.27816   0.27816   0.31523
     Eigenvalues ---    0.35301   0.35301   0.35301   0.35301   0.35301
     Eigenvalues ---    0.35301
 RFO step:  Lambda=-6.95083263D-06 EMin= 1.95056474D-02
 Linear search not attempted -- first point.
 Iteration  1 RMS(Cart)=  0.00089895 RMS(Int)=  0.00000020
 Iteration  2 RMS(Cart)=  0.00000019 RMS(Int)=  0.00000002
 ITry= 1 IFail=0 DXMaxC= 1.87D-03 DCOld= 1.00D+10 DXMaxT= 3.00D-01 DXLimC= 3.00D+00 Rises=F
 ClnCor:  largest displacement from symmetrization is 5.92D-09 for atom     5.
 Variable       Old X    -DE/DX   Delta X   Delta X   Delta X     New X
                                 (Linear)    (Quad)   (Total)
    R1        2.85026   0.00026   0.00000   0.00083   0.00083   2.85108
    R2        2.85026   0.00026   0.00000   0.00083   0.00083   2.85108
    R3        2.05189   0.00060   0.00000   0.00169   0.00169   2.05358
    R4        2.05189   0.00060   0.00000   0.00169   0.00169   2.05358
    R5        2.85026   0.00026   0.00000   0.00083   0.00083   2.85108
    R6        2.05189   0.00060   0.00000   0.00169   0.00169   2.05358
    R7        2.05189   0.00060   0.00000   0.00169   0.00169   2.05358
    R8        2.05189   0.00060   0.00000   0.00169   0.00169   2.05358
    R9        2.05189   0.00060   0.00000   0.00169   0.00169   2.05358
    A1        2.06210   0.00002   0.00000   0.00023   0.00023   2.06233
    A2        2.06210   0.00002   0.00000   0.00023   0.00023   2.06233
    A3        2.06210   0.00002   0.00000   0.00023   0.00023   2.06233
    A4        2.06210   0.00002   0.00000   0.00023   0.00023   2.06233
    A5        1.98939  -0.00006   0.00000  -0.00055  -0.00055   1.98883
    A6        2.06210   0.00002   0.00000   0.00023   0.00023   2.06233
    A7        2.06210   0.00002   0.00000   0.00023   0.00023   2.06233
    A8        2.06210   0.00002   0.00000   0.00023   0.00023   2.06233
    A9        2.06210   0.00002   0.00000   0.00023   0.00023   2.06233
   A10        1.98939  -0.00006   0.00000  -0.00055  -0.00055   1.98883
   A11        2.06210   0.00002   0.00000   0.00023   0.00023   2.06233
   A12        2.06210   0.00002   0.00000   0.00023   0.00023   2.06233
   A13        2.06210   0.00002   0.00000   0.00023   0.00023   2.06233
   A14        2.06210   0.00002   0.00000   0.00023   0.00023   2.06233
   A15        1.98939  -0.00006   0.00000  -0.00055  -0.00055   1.98883
    D1       -0.00000   0.00000   0.00000   0.00000   0.00000   0.00000
    D2       -2.51348   0.00004   0.00000   0.00035   0.00035  -2.51312
    D3        2.51348  -0.00004   0.00000  -0.00035  -0.00035   2.51312
    D4       -0.00000  -0.00000   0.00000  -0.00000   0.00000   0.00000
    D5        2.51348  -0.00004   0.00000  -0.00035  -0.00035   2.51312
    D6       -0.00000  -0.00000   0.00000   0.00000   0.00000   0.00000
    D7       -0.00000   0.00000   0.00000   0.00000   0.00000   0.00000
    D8       -2.51348   0.00004   0.00000   0.00035   0.00035  -2.51312
    D9       -2.51348   0.00004   0.00000   0.00035   0.00035  -2.51312
   D10       -0.00000   0.00000   0.00000   0.00000   0.00000   0.00000
   D11       -0.00000   0.00000   0.00000   0.00000   0.00000   0.00000
   D12        2.51348  -0.00004   0.00000  -0.00035  -0.00035   2.51312
         Item               Value     Threshold  Converged?
 Maximum Force            0.000597     0.000450     NO 
 RMS     Force            0.000257     0.000300     YES
 Maximum Displacement     0.001872     0.001800     NO 
 RMS     Displacement     0.000899     0.001200     YES
 Predicted change in Energy=-3.475427D-06
 Lowest energy point so far.  Saving SCF results.
 GradGradGradGradGradGradGradGradGradGradGradGradGradGradGradGradGradGrad

 Leave Link  103 at Mon Jul 20 17:07:09 2026, MaxMem=  4026531840 cpu:         0.7
 (Enter /home/p20190052/g09/l202.exe)
                          Input orientation:                          
 ---------------------------------------------------------------------
 Center     Atomic      Atomic             Coordinates (Angstroms)
 Number     Number       Type             X           Y           Z
 ---------------------------------------------------------------------
      1          6           0       -2.896570   -0.131481   -2.329839
      2          6           0       -3.634945   -0.285974   -1.023242
      3          6           0       -2.158195    0.023011   -1.023242
      4          1           0       -2.709971   -1.023309   -2.922084
      5          1           0       -3.083170    0.760346   -2.922084
      6          1           0       -3.950374   -1.282842   -0.727119
      7          1           0       -4.323573    0.500812   -0.727119
      8          1           0       -1.842767    1.019879   -0.727119
      9          1           0       -1.469568   -0.763775   -0.727119
 ---------------------------------------------------------------------
                    Distance matrix (angstroms):
                    1          2          3          4          5
     1  C    0.000000
     2  C    1.508729   0.000000
     3  C    1.508729   1.508729   0.000000
     4  H    1.086706   2.237151   2.237151   0.000000
     5  H    1.086706   2.237151   2.237151   1.822279   0.000000
     6  H    2.237151   1.086706   2.237151   2.534528   3.121623
     7  H    2.237151   1.086706   2.237151   3.121623   2.534528
     8  H    2.237151   2.237151   1.086706   3.121623   2.534528
     9  H    2.237151   2.237151   1.086706   2.534528   3.121623
                    6          7          8          9
     6  H    0.000000
     7  H    1.822279   0.000000
     8  H    3.121623   2.534528   0.000000
     9  H    2.534528   3.121623   1.822279   0.000000
 Stoichiometry    C3H6
 Framework group  D3H[3C2(C),3SGV(H2)]
 Deg. of freedom     3
 Full point group                 D3H     NOp  12
 RotChk:  IX=0 Diff= 2.13D-15
 Largest Abelian subgroup         C2V     NOp   4
 Largest concise Abelian subgroup C2V     NOp   4
                         Standard orientation:                         
 ---------------------------------------------------------------------
 Center     Atomic      Atomic             Coordinates (Angstroms)
 Number     Number       Type             X           Y           Z
 ---------------------------------------------------------------------
      1          6           0        0.000000    0.871065   -0.000000
      2          6           0        0.754364   -0.435532   -0.000000
      3          6           0       -0.754364   -0.435532    0.000000
      4          1           0        0.000000    1.463310    0.911139
      5          1           0        0.000000    1.463310   -0.911139
      6          1           0        1.267264   -0.731655    0.911139
      7          1           0        1.267264   -0.731655   -0.911139
      8          1           0       -1.267264   -0.731655   -0.911139
      9          1           0       -1.267264   -0.731655    0.911139
 ---------------------------------------------------------------------
 Rotational constants (GHZ):     20.0932383     20.0932383     12.5518412
 Leave Link  202 at Mon Jul 20 17:07:10 2026, MaxMem=  4026531840 cpu:         0.4
 (Enter /home/p20190052/g09/l301.exe)
 Standard basis: 6-31G(d) (6D, 7F)
 Ernie: Thresh=  0.10000D-02 Tol=  0.10000D-05 Strict=F.
 There are    23 symmetry adapted cartesian basis functions of A1  symmetry.
 There are     7 symmetry adapted cartesian basis functions of A2  symmetry.
 There are    16 symmetry adapted cartesian basis functions of B1  symmetry.
 There are    11 symmetry adapted cartesian basis functions of B2  symmetry.
 There are    23 symmetry adapted basis functions of A1  symmetry.
 There are     7 symmetry adapted basis functions of A2  symmetry.
 There are    16 symmetry adapted basis functions of B1  symmetry.
 There are    11 symmetry adapted basis functions of B2  symmetry.
    57 basis functions,   108 primitive gaussians,    57 cartesian basis functions
    12 alpha electrons       12 beta electrons
       nuclear repulsion energy        75.5826762882 Hartrees.
 IExCor=  402 DFT=T Ex+Corr=B3LYP ExCW=0 ScaHFX=  0.200000
 ScaDFX=  0.800000  0.720000  1.000000  0.810000 ScalE2=  1.000000  1.000000
 IRadAn=      0 IRanWt=     -1 IRanGd=            0 ICorTp=0 IEmpDi=  4
 NAtoms=    9 NActive=    9 NUniq=    2 SFac= 4.00D+00 NAtFMM=   60 NAOKFM=F Big=F
 Integral buffers will be    131072 words long.
 Raffenetti 2 integral format.
 Two-electron integral symmetry is turned on.
 Leave Link  301 at Mon Jul 20 17:07:10 2026, MaxMem=  4026531840 cpu:         2.1
 (Enter /home/p20190052/g09/l302.exe)
 NPDir=0 NMtPBC=     1 NCelOv=     1 NCel=       1 NClECP=     1 NCelD=      1
         NCelK=      1 NCelE2=     1 NClLst=     1 CellRange=     0.0.
 One-electron integrals computed using PRISM.
 One-electron integral symmetry used in STVInt
 NBasis=    57 RedAO= T EigKep=  7.60D-03  NBF=    23     7    16    11
 NBsUse=    57 1.00D-06 EigRej= -1.00D+00 NBFU=    23     7    16    11
 Precomputing XC quadrature grid using
 IXCGrd= 4 IRadAn=           0 IRanWt=          -1 IRanGd=           0 AccXCQ= 0.00D+00.
 Generated NRdTot=       0 NPtTot=           0 NUsed=           0 NTot=          32
 NSgBfM=    57    57    57    57    57 MxSgAt=     9 MxSgA2=     9.
 Leave Link  302 at Mon Jul 20 17:07:10 2026, MaxMem=  4026531840 cpu:        14.9
 (Enter /home/p20190052/g09/l303.exe)
 DipDrv:  MaxL=1.
 Leave Link  303 at Mon Jul 20 17:07:10 2026, MaxMem=  4026531840 cpu:         0.9
 (Enter /home/p20190052/g09/l401.exe)
 Initial guess from the checkpoint file:  "Cyclopropane_b3lyp_6-31g_d.chk"
 B after Tr=     0.000000    0.000000    0.000000
         Rot=    1.000000    0.000000    0.000000   -0.000000 Ang=   0.00 deg.
 Guess basis will be translated and rotated to current coordinates.
 JPrj=2 DoOrth=T DoCkMO=T.
 Initial guess orbital symmetries:
       Occupied  (A1') (E') (E') (A1') (E') (E') (A2") (A1') (E")
                 (E") (E') (E')
       Virtual   (?A) (?A) (?A) (?A) (?A) (?A) (?A) (?A) (?A) (?A)
                 (?A) (?A) (?A) (?A) (?A) (?A) (?A) (?B) (?B) (?B)
                 (?B) (?B) (?B) (?A) (?A) (?A) (?A) (?A) (?A) (?A)
                 (?A) (?A) (?A) (?A) (?A) (?A) (?B) (?B) (?B) (?B)
                 (?B) (?B) (?B) (?B) (?B)
 The electronic state of the initial guess is 1-A1'.
 Leave Link  401 at Mon Jul 20 17:07:10 2026, MaxMem=  4026531840 cpu:         3.1
 (Enter /home/p20190052/g09/l502.exe)
 Closed shell SCF:
 Using DIIS extrapolation, IDIIS=  1040.
 Integral symmetry usage will be decided dynamically.
 Keep R1 ints in memory in symmetry-blocked form, NReq=2280499.
 IVT=       31465 IEndB=       31465 NGot=  4026531840 MDV=  4026144557
 LenX=  4026144557 LenY=  4026140867
 Requested convergence on RMS density matrix=1.00D-08 within 128 cycles.
 Requested convergence on MAX density matrix=1.00D-06.
 Requested convergence on             energy=1.00D-06.
 No special actions if energy rises.
 FoFCou: FMM=F IPFlag=           0 FMFlag=           0 FMFlg1=           0
         NFxFlg=           0 DoJE=F BraDBF=F KetDBF=F FulRan=T
         wScrn=  0.000000 ICntrl=     600 IOpCl=  0 I1Cent=           0 NGrid=           0
         NMat0=    1 NMatS0=   1653 NMatT0=    0 NMatD0=    1 NMtDS0=    0 NMtDT0=    0
 Petite list used in FoFCou.

 Cycle   1  Pass 1  IDiag  1:
 E= -117.895208150397    
 DIIS: error= 1.10D-04 at cycle   1 NSaved=   1.
 NSaved= 1 IEnMin= 1 EnMin= -117.895208150397     IErMin= 1 ErrMin= 1.10D-04
 ErrMax= 1.10D-04  0.00D+00 EMaxC= 1.00D-01 BMatC= 5.27D-07 BMatP= 5.27D-07
 IDIUse=3 WtCom= 9.99D-01 WtEn= 1.10D-03
 Coeff-Com:  0.100D+01
 Coeff-En:   0.100D+01
 Coeff:      0.100D+01
 Gap=     0.866 Goal=   None    Shift=    0.000
 RMSDP=2.09D-05 MaxDP=2.72D-04              OVMax= 3.29D-04

 Cycle   2  Pass 1  IDiag  1:
 E= -117.895208513843     Delta-E=       -0.000000363446 Rises=F Damp=F
 DIIS: error= 8.28D-05 at cycle   2 NSaved=   2.
 NSaved= 2 IEnMin= 2 EnMin= -117.895208513843     IErMin= 2 ErrMin= 8.28D-05
 ErrMax= 8.28D-05  0.00D+00 EMaxC= 1.00D-01 BMatC= 3.21D-07 BMatP= 5.27D-07
 IDIUse=1 WtCom= 1.00D+00 WtEn= 0.00D+00
 Coeff-Com:  0.426D+00 0.574D+00
 Coeff:      0.426D+00 0.574D+00
 Gap=     0.393 Goal=   None    Shift=    0.000
 RMSDP=1.23D-05 MaxDP=1.19D-04 DE=-3.63D-07 OVMax= 1.56D-04

 Cycle   3  Pass 1  IDiag  1:
 E= -117.895208830548     Delta-E=       -0.000000316705 Rises=F Damp=F
 DIIS: error= 1.88D-05 at cycle   3 NSaved=   3.
 NSaved= 3 IEnMin= 3 EnMin= -117.895208830548     IErMin= 3 ErrMin= 1.88D-05
 ErrMax= 1.88D-05  0.00D+00 EMaxC= 1.00D-01 BMatC= 2.61D-08 BMatP= 3.21D-07
 IDIUse=1 WtCom= 1.00D+00 WtEn= 0.00D+00
 Coeff-Com:  0.398D-01 0.230D+00 0.730D+00
 Coeff:      0.398D-01 0.230D+00 0.730D+00
 Gap=     0.393 Goal=   None    Shift=    0.000
 RMSDP=2.36D-06 MaxDP=2.70D-05 DE=-3.17D-07 OVMax= 4.44D-05

 Cycle   4  Pass 1  IDiag  1:
 E= -117.895208855819     Delta-E=       -0.000000025270 Rises=F Damp=F
 DIIS: error= 1.81D-06 at cycle   4 NSaved=   4.
 NSaved= 4 IEnMin= 4 EnMin= -117.895208855819     IErMin= 4 ErrMin= 1.81D-06
 ErrMax= 1.81D-06  0.00D+00 EMaxC= 1.00D-01 BMatC= 1.83D-10 BMatP= 2.61D-08
 IDIUse=1 WtCom= 1.00D+00 WtEn= 0.00D+00
 Coeff-Com: -0.185D-02 0.364D-01 0.146D+00 0.820D+00
 Coeff:     -0.185D-02 0.364D-01 0.146D+00 0.820D+00
 Gap=     0.393 Goal=   None    Shift=    0.000
 RMSDP=3.25D-07 MaxDP=3.03D-06 DE=-2.53D-08 OVMax= 3.93D-06

 Cycle   5  Pass 1  IDiag  1:
 E= -117.895208855997     Delta-E=       -0.000000000178 Rises=F Damp=F
 DIIS: error= 1.95D-07 at cycle   5 NSaved=   5.
 NSaved= 5 IEnMin= 5 EnMin= -117.895208855997     IErMin= 5 ErrMin= 1.95D-07
 ErrMax= 1.95D-07  0.00D+00 EMaxC= 1.00D-01 BMatC= 1.60D-12 BMatP= 1.83D-10
 IDIUse=1 WtCom= 1.00D+00 WtEn= 0.00D+00
 Coeff-Com: -0.940D-03-0.110D-02-0.450D-02 0.609D-01 0.946D+00
 Coeff:     -0.940D-03-0.110D-02-0.450D-02 0.609D-01 0.946D+00
 Gap=     0.393 Goal=   None    Shift=    0.000
 RMSDP=2.09D-08 MaxDP=1.85D-07 DE=-1.78D-10 OVMax= 3.89D-07

 Cycle   6  Pass 1  IDiag  1:
 E= -117.895208855999     Delta-E=       -0.000000000002 Rises=F Damp=F
 DIIS: error= 4.22D-09 at cycle   6 NSaved=   6.
 NSaved= 6 IEnMin= 6 EnMin= -117.895208855999     IErMin= 6 ErrMin= 4.22D-09
 ErrMax= 4.22D-09  0.00D+00 EMaxC= 1.00D-01 BMatC= 8.44D-16 BMatP= 1.60D-12
 IDIUse=1 WtCom= 1.00D+00 WtEn= 0.00D+00
 Coeff-Com:  0.452D-04-0.113D-03-0.361D-03-0.465D-02-0.385D-01 0.104D+01
 Coeff:      0.452D-04-0.113D-03-0.361D-03-0.465D-02-0.385D-01 0.104D+01
 Gap=     0.393 Goal=   None    Shift=    0.000
 RMSDP=2.32D-09 MaxDP=2.25D-08 DE=-2.19D-12 OVMax= 2.30D-08

 SCF Done:  E(RB3LYP) =  -117.895208856     A.U. after    6 cycles
            NFock=  6  Conv=0.23D-08     -V/T= 2.0105
 KE= 1.166681531536D+02 PE=-4.232272555006D+02 EE= 1.130812172028D+02
 Leave Link  502 at Mon Jul 20 17:07:11 2026, MaxMem=  4026531840 cpu:        11.0
 (Enter /home/p20190052/g09/l701.exe)
 Compute integral first derivatives.
 ... and contract with generalized density number  0.
 Leave Link  701 at Mon Jul 20 17:07:11 2026, MaxMem=  4026531840 cpu:        16.6
 (Enter /home/p20190052/g09/l702.exe)
 L702 exits ... SP integral derivatives will be done elsewhere.
 Leave Link  702 at Mon Jul 20 17:07:11 2026, MaxMem=  4026531840 cpu:         0.8
 (Enter /home/p20190052/g09/l703.exe)
 Compute integral first derivatives, UseDBF=F ICtDFT=           0.
 Integral derivatives from FoFJK, PRISM(SPDF).
 Calling FoFJK, ICntrl=      2127 FMM=F ISym2X=1 I1Cent= 0 IOpClX= 0 NMat=1 NMatS=1 NMatT=0.
 FoFJK:  IHMeth= 1 ICntrl=    2127 DoSepK=F KAlg= 0 I1Cent=   0 FoldK=F
 IRaf=         0 NMat=   1 IRICut=       1 DoRegI=T DoRafI=F ISym2E= 1.
 FoFCou: FMM=F IPFlag=           0 FMFlag=      100000 FMFlg1=         800
         NFxFlg=           0 DoJE=F BraDBF=F KetDBF=F FulRan=T
         wScrn=  0.000000 ICntrl=    2127 IOpCl=  0 I1Cent=           0 NGrid=           0
         NMat0=    1 NMatS0=      1 NMatT0=    0 NMatD0=    1 NMtDS0=    0 NMtDT0=    0
 Petite list used in FoFCou.
 Leave Link  703 at Mon Jul 20 17:07:11 2026, MaxMem=  4026531840 cpu:        14.7
 (Enter /home/p20190052/g09/l716.exe)
 Dipole        = 2.22044605D-15-1.11022302D-15-6.66133815D-16
 ***** Axes restored to original set *****
 -------------------------------------------------------------------
 Center     Atomic                   Forces (Hartrees/Bohr)
 Number     Number              X              Y              Z
 -------------------------------------------------------------------
      1        6          -0.000000000   -0.000000000    0.000052059
      2        6           0.000044129    0.000009233   -0.000026030
      3        6          -0.000044129   -0.000009233   -0.000026030
      4        1          -0.000005725    0.000027360   -0.000020824
      5        1           0.000005725   -0.000027360   -0.000020824
      6        1          -0.000023376    0.000023666    0.000010412
      7        1          -0.000011927   -0.000031053    0.000010412
      8        1           0.000023376   -0.000023666    0.000010412
      9        1           0.000011927    0.000031053    0.000010412
 -------------------------------------------------------------------
 Cartesian Forces:  Max     0.000052059 RMS     0.000023898
 Leave Link  716 at Mon Jul 20 17:07:12 2026, MaxMem=  4026531840 cpu:         0.8
 (Enter /home/p20190052/g09/l103.exe)

 GradGradGradGradGradGradGradGradGradGradGradGradGradGradGradGradGradGrad
 Berny optimization.
 Using GEDIIS/GDIIS optimizer.
 FormGI is forming the generalized inverse of G from B-inverse, IUseBI=4.
 Internal  Forces:  Max     0.000026791 RMS     0.000013314
 Search for a local minimum.
 Step number   2 out of a maximum of   46
 All quantities printed in internal units (Hartrees-Bohrs-Radians)
 RMS Force = .13314D-04 SwitMx=.10000D-02 MixMth= 2
 Mixed Optimization -- En-DIIS/RFO-DIIS
 Swapping is turned off.
 Update second derivatives using D2CorX and points    1    2
 DE= -3.46D-06 DEPred=-3.48D-06 R= 9.95D-01
 TightC=F SS=  1.41D+00  RLast= 4.63D-03 DXNew= 5.0454D-01 1.3905D-02
 Trust test= 9.95D-01 RLast= 4.63D-03 DXMaxT set to 3.00D-01
 ITU=  1  0
     Eigenvalues ---    0.01951   0.03044   0.03044   0.03044   0.03424
     Eigenvalues ---    0.03424   0.10466   0.10466   0.10563   0.16000
     Eigenvalues ---    0.16000   0.16000   0.27816   0.27816   0.31624
     Eigenvalues ---    0.35301   0.35301   0.35301   0.35301   0.35301
     Eigenvalues ---    0.36560
 En-DIIS/RFO-DIIS IScMMF=        0 using points:     2    1
 RFO step:  Lambda=-1.78140668D-08.
 NNeg= 0 NP= 2 Switch=  2.50D-03 Rises=F DC=  3.46D-06 SmlDif=  1.00D-05
 RMS Error=  0.3792861377D-04 NUsed= 2 EDIIS=F
 DidBck=F Rises=F RFO-DIIS coefs:    0.99619    0.00381
 Iteration  1 RMS(Cart)=  0.00010206 RMS(Int)=  0.00000001
 Iteration  2 RMS(Cart)=  0.00000001 RMS(Int)=  0.00000001
 ITry= 1 IFail=0 DXMaxC= 1.97D-04 DCOld= 1.00D+10 DXMaxT= 3.00D-01 DXLimC= 3.00D+00 Rises=F
 ClnCor:  largest displacement from symmetrization is 6.65D-09 for atom     9.
 Variable       Old X    -DE/DX   Delta X   Delta X   Delta X     New X
                                 (Linear)    (Quad)   (Total)
    R1        2.85108  -0.00001  -0.00000  -0.00001  -0.00001   2.85107
    R2        2.85108  -0.00001  -0.00000  -0.00001  -0.00001   2.85107
    R3        2.05358  -0.00001  -0.00001  -0.00002  -0.00002   2.05355
    R4        2.05358  -0.00001  -0.00001  -0.00002  -0.00002   2.05355
    R5        2.85108  -0.00001  -0.00000  -0.00001  -0.00001   2.85107
    R6        2.05358  -0.00001  -0.00001  -0.00002  -0.00002   2.05355
    R7        2.05358  -0.00001  -0.00001  -0.00002  -0.00002   2.05355
    R8        2.05358  -0.00001  -0.00001  -0.00002  -0.00002   2.05355
    R9        2.05358  -0.00001  -0.00001  -0.00002  -0.00002   2.05355
    A1        2.06233   0.00001  -0.00000   0.00010   0.00010   2.06243
    A2        2.06233   0.00001  -0.00000   0.00010   0.00010   2.06243
    A3        2.06233   0.00001  -0.00000   0.00010   0.00010   2.06243
    A4        2.06233   0.00001  -0.00000   0.00010   0.00010   2.06243
    A5        1.98883  -0.00003   0.00000  -0.00025  -0.00025   1.98859
    A6        2.06233   0.00001  -0.00000   0.00010   0.00010   2.06243
    A7        2.06233   0.00001  -0.00000   0.00010   0.00010   2.06243
    A8        2.06233   0.00001  -0.00000   0.00010   0.00010   2.06243
    A9        2.06233   0.00001  -0.00000   0.00010   0.00010   2.06243
   A10        1.98883  -0.00003   0.00000  -0.00025  -0.00025   1.98859
   A11        2.06233   0.00001  -0.00000   0.00010   0.00010   2.06243
   A12        2.06233   0.00001  -0.00000   0.00010   0.00010   2.06243
   A13        2.06233   0.00001  -0.00000   0.00010   0.00010   2.06243
   A14        2.06233   0.00001  -0.00000   0.00010   0.00010   2.06243
   A15        1.98883  -0.00003   0.00000  -0.00025  -0.00025   1.98859
    D1        0.00000   0.00000  -0.00000   0.00000  -0.00000  -0.00000
    D2       -2.51312   0.00002  -0.00000   0.00016   0.00016  -2.51296
    D3        2.51312  -0.00002   0.00000  -0.00016  -0.00016   2.51296
    D4        0.00000  -0.00000   0.00000   0.00000   0.00000   0.00000
    D5        2.51312  -0.00002   0.00000  -0.00016  -0.00016   2.51296
    D6       -0.00000   0.00000   0.00000   0.00000  -0.00000  -0.00000
    D7       -0.00000   0.00000  -0.00000   0.00000   0.00000   0.00000
    D8       -2.51312   0.00002  -0.00000   0.00016   0.00016  -2.51296
    D9       -2.51312   0.00002  -0.00000   0.00016   0.00016  -2.51296
   D10       -0.00000   0.00000   0.00000   0.00000   0.00000   0.00000
   D11       -0.00000   0.00000   0.00000   0.00000  -0.00000  -0.00000
   D12        2.51312  -0.00002   0.00000  -0.00016  -0.00016   2.51296
         Item               Value     Threshold  Converged?
 Maximum Force            0.000027     0.000450     YES
 RMS     Force            0.000013     0.000300     YES
 Maximum Displacement     0.000197     0.001800     YES
 RMS     Displacement     0.000102     0.001200     YES
 Predicted change in Energy=-2.589537D-08
 Optimization completed.
    -- Stationary point found.
                           ----------------------------
                           !   Optimized Parameters   !
                           ! (Angstroms and Degrees)  !
 --------------------------                            --------------------------
 ! Name  Definition              Value          Derivative Info.                !
 --------------------------------------------------------------------------------
 ! R1    R(1,2)                  1.5087         -DE/DX =    0.0                 !
 ! R2    R(1,3)                  1.5087         -DE/DX =    0.0                 !
 ! R3    R(1,4)                  1.0867         -DE/DX =    0.0                 !
 ! R4    R(1,5)                  1.0867         -DE/DX =    0.0                 !
 ! R5    R(2,3)                  1.5087         -DE/DX =    0.0                 !
 ! R6    R(2,6)                  1.0867         -DE/DX =    0.0                 !
 ! R7    R(2,7)                  1.0867         -DE/DX =    0.0                 !
 ! R8    R(3,8)                  1.0867         -DE/DX =    0.0                 !
 ! R9    R(3,9)                  1.0867         -DE/DX =    0.0                 !
 ! A1    A(2,1,4)              118.1627         -DE/DX =    0.0                 !
 ! A2    A(2,1,5)              118.1627         -DE/DX =    0.0                 !
 ! A3    A(3,1,4)              118.1627         -DE/DX =    0.0                 !
 ! A4    A(3,1,5)              118.1627         -DE/DX =    0.0                 !
 ! A5    A(4,1,5)              113.9518         -DE/DX =    0.0                 !
 ! A6    A(1,2,6)              118.1627         -DE/DX =    0.0                 !
 ! A7    A(1,2,7)              118.1627         -DE/DX =    0.0                 !
 ! A8    A(3,2,6)              118.1627         -DE/DX =    0.0                 !
 ! A9    A(3,2,7)              118.1627         -DE/DX =    0.0                 !
 ! A10   A(6,2,7)              113.9518         -DE/DX =    0.0                 !
 ! A11   A(1,3,8)              118.1627         -DE/DX =    0.0                 !
 ! A12   A(1,3,9)              118.1627         -DE/DX =    0.0                 !
 ! A13   A(2,3,8)              118.1627         -DE/DX =    0.0                 !
 ! A14   A(2,3,9)              118.1627         -DE/DX =    0.0                 !
 ! A15   A(8,3,9)              113.9518         -DE/DX =    0.0                 !
 ! D1    D(4,1,2,6)              0.0            -DE/DX =    0.0                 !
 ! D2    D(4,1,2,7)           -143.9914         -DE/DX =    0.0                 !
 ! D3    D(5,1,2,6)            143.9914         -DE/DX =    0.0                 !
 ! D4    D(5,1,2,7)              0.0            -DE/DX =    0.0                 !
 ! D5    D(4,1,3,8)            143.9914         -DE/DX =    0.0                 !
 ! D6    D(4,1,3,9)              0.0            -DE/DX =    0.0                 !
 ! D7    D(5,1,3,8)              0.0            -DE/DX =    0.0                 !
 ! D8    D(5,1,3,9)           -143.9914         -DE/DX =    0.0                 !
 ! D9    D(6,2,3,8)           -143.9914         -DE/DX =    0.0                 !
 ! D10   D(6,2,3,9)              0.0            -DE/DX =    0.0                 !
 ! D11   D(7,2,3,8)              0.0            -DE/DX =    0.0                 !
 ! D12   D(7,2,3,9)            143.9914         -DE/DX =    0.0                 !
 --------------------------------------------------------------------------------
 Lowest energy point so far.  Saving SCF results.
 GradGradGradGradGradGradGradGradGradGradGradGradGradGradGradGradGradGrad

 Largest change from initial coordinates is atom    7       0.001 Angstoms.
 Leave Link  103 at Mon Jul 20 17:07:12 2026, MaxMem=  4026531840 cpu:         0.8
 (Enter /home/p20190052/g09/l202.exe)
                          Input orientation:                          
 ---------------------------------------------------------------------
 Center     Atomic      Atomic             Coordinates (Angstroms)
 Number     Number       Type             X           Y           Z
 ---------------------------------------------------------------------
      1          6           0       -2.896570   -0.131481   -2.329839
      2          6           0       -3.634945   -0.285974   -1.023242
      3          6           0       -2.158195    0.023011   -1.023242
      4          1           0       -2.709971   -1.023309   -2.922084
      5          1           0       -3.083170    0.760346   -2.922084
      6          1           0       -3.950374   -1.282842   -0.727119
      7          1           0       -4.323573    0.500812   -0.727119
      8          1           0       -1.842767    1.019879   -0.727119
      9          1           0       -1.469568   -0.763775   -0.727119
 ---------------------------------------------------------------------
                    Distance matrix (angstroms):
                    1          2          3          4          5
     1  C    0.000000
     2  C    1.508729   0.000000
     3  C    1.508729   1.508729   0.000000
     4  H    1.086706   2.237151   2.237151   0.000000
     5  H    1.086706   2.237151   2.237151   1.822279   0.000000
     6  H    2.237151   1.086706   2.237151   2.534528   3.121623
     7  H    2.237151   1.086706   2.237151   3.121623   2.534528
     8  H    2.237151   2.237151   1.086706   3.121623   2.534528
     9  H    2.237151   2.237151   1.086706   2.534528   3.121623
                    6          7          8          9
     6  H    0.000000
     7  H    1.822279   0.000000
     8  H    3.121623   2.534528   0.000000
     9  H    2.534528   3.121623   1.822279   0.000000
 Stoichiometry    C3H6
 Framework group  D3H[3C2(C),3SGV(H2)]
 Deg. of freedom     3
 Full point group                 D3H     NOp  12
 RotChk:  IX=0 Diff= 2.09D-15
 Largest Abelian subgroup         C2V     NOp   4
 Largest concise Abelian subgroup C2V     NOp   4
                         Standard orientation:                         
 ---------------------------------------------------------------------
 Center     Atomic      Atomic             Coordinates (Angstroms)
 Number     Number       Type             X           Y           Z
 ---------------------------------------------------------------------
      1          6           0        0.000000    0.871065   -0.000000
      2          6           0        0.754364   -0.435532   -0.000000
      3          6           0       -0.754364   -0.435532    0.000000
      4          1           0        0.000000    1.463310    0.911139
      5          1           0        0.000000    1.463310   -0.911139
      6          1           0        1.267264   -0.731655    0.911139
      7          1           0        1.267264   -0.731655   -0.911139
      8          1           0       -1.267264   -0.731655   -0.911139
      9          1           0       -1.267264   -0.731655    0.911139
 ---------------------------------------------------------------------
 Rotational constants (GHZ):     20.0932383     20.0932383     12.5518412
 Leave Link  202 at Mon Jul 20 17:07:12 2026, MaxMem=  4026531840 cpu:         0.4
 (Enter /home/p20190052/g09/l601.exe)
 Copying SCF densities to generalized density rwf, IOpCl= 0 IROHF=0.

 **********************************************************************

            Population analysis using the SCF density.

 **********************************************************************

 Orbital symmetries:
       Occupied  (A1') (E') (E') (A1') (E') (E') (A2") (A1') (E")
                 (E") (E') (E')
       Virtual   (A1') (A2") (A2') (E') (E') (E") (E") (E') (E')
                 (A1') (A2") (E') (E') (E') (E') (A1') (A2') (E")
                 (E") (A2") (E") (E") (E') (E') (A1') (E') (E')
                 (A1') (E") (E") (E') (E') (A2") (A1") (A1') (E')
                 (E') (E') (E') (E") (E") (A2') (A1') (E') (E')
 The electronic state is 1-A1'.
 Alpha  occ. eigenvalues --  -10.18188 -10.18151 -10.18151  -0.84166  -0.59178
 Alpha  occ. eigenvalues --   -0.59178  -0.48715  -0.46064  -0.35908  -0.35908
 Alpha  occ. eigenvalues --   -0.28764  -0.28764
 Alpha virt. eigenvalues --    0.10555   0.10987   0.15615   0.15617   0.15617
 Alpha virt. eigenvalues --    0.23208   0.23208   0.26238   0.26238   0.47851
 Alpha virt. eigenvalues --    0.54713   0.56429   0.56429   0.63470   0.63470
 Alpha virt. eigenvalues --    0.69767   0.70305   0.79268   0.79268   0.86576
 Alpha virt. eigenvalues --    0.92593   0.92593   0.94399   0.94399   0.96292
 Alpha virt. eigenvalues --    1.27742   1.27742   1.56045   1.81715   1.81715
 Alpha virt. eigenvalues --    1.88044   1.88044   1.89189   2.01292   2.10645
 Alpha virt. eigenvalues --    2.28620   2.28620   2.49305   2.49305   2.50868
 Alpha virt. eigenvalues --    2.50868   2.78139   4.09590   4.39144   4.39144
          Condensed to atoms (all electrons):
               1          2          3          4          5          6
     1  C    5.051006   0.284796   0.284796   0.385686   0.385686  -0.022993
     2  C    0.284796   5.051006   0.284796  -0.022993  -0.022993   0.385686
     3  C    0.284796   0.284796   5.051006  -0.022993  -0.022993  -0.022993
     4  H    0.385686  -0.022993  -0.022993   0.549636  -0.032348  -0.005724
     5  H    0.385686  -0.022993  -0.022993  -0.032348   0.549636   0.002229
     6  H   -0.022993   0.385686  -0.022993  -0.005724   0.002229   0.549636
     7  H   -0.022993   0.385686  -0.022993   0.002229  -0.005724  -0.032348
     8  H   -0.022993  -0.022993   0.385686   0.002229  -0.005724   0.002229
     9  H   -0.022993  -0.022993   0.385686  -0.005724   0.002229  -0.005724
               7          8          9
     1  C   -0.022993  -0.022993  -0.022993
     2  C    0.385686  -0.022993  -0.022993
     3  C   -0.022993   0.385686   0.385686
     4  H    0.002229   0.002229  -0.005724
     5  H   -0.005724  -0.005724   0.002229
     6  H   -0.032348   0.002229  -0.005724
     7  H    0.549636  -0.005724   0.002229
     8  H   -0.005724   0.549636  -0.032348
     9  H    0.002229  -0.032348   0.549636
 Mulliken charges:
               1
     1  C   -0.299999
     2  C   -0.299999
     3  C   -0.299999
     4  H    0.150000
     5  H    0.150000
     6  H    0.150000
     7  H    0.150000
     8  H    0.150000
     9  H    0.150000
 Sum of Mulliken charges =  -0.00000
 Mulliken charges with hydrogens summed into heavy atoms:
               1
     1  C   -0.000000
     2  C   -0.000000
     3  C   -0.000000
 Electronic spatial extent (au):  <R**2>=            156.1894
 Charge=             -0.0000 electrons
 Dipole moment (field-independent basis, Debye):
    X=              0.0000    Y=             -0.0000    Z=             -0.0000  Tot=              0.0000
 Quadrupole moment (field-independent basis, Debye-Ang):
   XX=            -20.3244   YY=            -20.3244   ZZ=            -18.1961
   XY=             -0.0000   XZ=             -0.0000   YZ=             -0.0000
 Traceless Quadrupole moment (field-independent basis, Debye-Ang):
   XX=             -0.7094   YY=             -0.7094   ZZ=              1.4189
   XY=             -0.0000   XZ=             -0.0000   YZ=             -0.0000
 Octapole moment (field-independent basis, Debye-Ang**2):
  XXX=              0.0000  YYY=              2.2051  ZZZ=             -0.0000  XYY=              0.0000
  XXY=             -2.2051  XXZ=              0.0000  XZZ=             -0.0000  YZZ=             -0.0000
  YYZ=             -0.0000  XYZ=              0.0000
 Hexadecapole moment (field-independent basis, Debye-Ang**3):
 XXXX=            -85.4410 YYYY=            -85.4410 ZZZZ=            -38.7485 XXXY=              0.0000
 XXXZ=              0.0000 YYYX=              0.0000 YYYZ=             -0.0000 ZZZX=             -0.0000
 ZZZY=             -0.0000 XXYY=            -28.4803 XXZZ=            -18.7340 YYZZ=            -18.7340
 XXYZ=             -0.0000 YYXZ=              0.0000 ZZXY=              0.0000
 N-N= 7.558267628819D+01 E-N=-4.232272556561D+02  KE= 1.166681531536D+02
 Symmetry A1   KE= 7.378905339862D+01
 Symmetry A2   KE= 2.102205696120D+00
 Symmetry B1   KE= 3.690470508109D+01
 Symmetry B2   KE= 3.872188977772D+00
 No NMR shielding tensors so no spin-rotation constants.
 Leave Link  601 at Mon Jul 20 17:07:12 2026, MaxMem=  4026531840 cpu:        15.5
 (Enter /home/p20190052/g09/l9999.exe)
 1\1\ WCSS.PL-BEM-NODE1\FOpt\RB3LYP\6-31G(d)\C3H6\P20190052\20-Jul-2026
 \0\\#p opt b3lyp/6-31g(d)\\Cyclopropane b3lyp 6-31G(d)\\0,1\C,-2.89657
 02765,-0.1314814695,-2.3298390493\C,-3.6349453554,-0.285973841,-1.0232
 418908\C,-2.158195462,0.0230108465,-1.0232417349\H,-2.7099706294,-1.02
 33085659,-2.9220844921\H,-3.0831698038,0.7603456521,-2.922084492\H,-3.
 950374103,-1.2828418027,-0.7271192225\H,-4.3235732774,0.5008124152,-0.
 7271192224\H,-1.8427667743,1.0198787957,-0.7271189604\H,-1.4695675999,
 -0.7637754223,-0.7271189605\\Version=ES64L-G09RevE.01\State=1-A1'\HF=-
 117.8952089\RMSD=2.316e-09\RMSF=2.390e-05\Dipole=0.,0.,0.\Quadrupole=-
 0.4610832,0.9885337,-0.5274506,-0.3171938,0.,0.\PG=D03H [3C2(C1),3SGV(
 H2)]\\@


 Luck is a matter of preparation meeting opportunity.
                                    -- Oprah Winfrey
 Job cpu time:       0 days  0 hours  3 minutes 30.2 seconds.
 File lengths (MBytes):  RWF=      5 Int=      0 D2E=      0 Chk=      1 Scr=      1
 Normal termination of Gaussian 09 at Mon Jul 20 17:07:12 2026.
